*Heading
** Job name: Plate_nonlinear_85 Model name: Model-1
** Generated by: Abaqus/CAE 2024.HF3
*Preprint, echo=NO, model=NO, history=NO, contact=NO
**
** PARTS
**
*Part, name=PLATE
*Node
      1,   38.0492401,   119.499886,           0.
      2,   38.0492401,   60.4691048,           0.
      3,   54.7017212,   43.8166237,           0.
      4,    103.77066,   43.8166237,           0.
      5,    103.77066,   119.499886,           0.
      6,           0.,   119.499886,           0.
      7,           0.,   43.8166237,           0.
      8,   21.3967609,   43.8166237,           0.
      9,   38.0492401,   27.1641426,           0.
     10,   38.0492401,           0.,           0.
     11,    103.77066,           0.,           0.
     12,           0.,           0.,           0.
     13,   38.0492401,   116.027481,           0.
     14,   38.0492401,   112.555084,           0.
     15,   38.0492401,   109.082687,           0.
     16,   38.0492401,   105.610291,           0.
     17,   38.0492401,   102.137886,           0.
     18,   38.0492401,   98.6654892,           0.
     19,   38.0492401,   95.1930923,           0.
     20,   38.0492401,   91.7206955,           0.
     21,   38.0492401,    88.248291,           0.
     22,   38.0492401,   84.7758942,           0.
     23,   38.0492401,   81.3034973,           0.
     24,   38.0492401,   77.8311005,           0.
     25,   38.0492401,    74.358696,           0.
     26,   38.0492401,   70.8862991,           0.
     27,   38.0492401,   67.4139023,           0.
     28,   38.0492401,   63.9415016,           0.
     29,   41.2979813,   60.1491318,           0.
     30,   44.4218712,   59.2015114,           0.
     31,   47.3008652,   57.6626549,           0.
     32,   49.8243256,   55.5917053,           0.
     33,   51.8952751,   53.0682449,           0.
     34,   53.4341278,   50.1892509,           0.
     35,   54.3817482,    47.065361,           0.
     36,    58.206646,   43.8166237,           0.
     37,   61.7115707,   43.8166237,           0.
     38,   65.2164917,   43.8166237,           0.
     39,   68.7214203,   43.8166237,           0.
     40,   72.2263412,   43.8166237,           0.
     41,   75.7312698,   43.8166237,           0.
     42,   79.2361908,   43.8166237,           0.
     43,   82.7411118,   43.8166237,           0.
     44,   86.2460403,   43.8166237,           0.
     45,   89.7509613,   43.8166237,           0.
     46,   93.2558899,   43.8166237,           0.
     47,   96.7608109,   43.8166237,           0.
     48,   100.265739,   43.8166237,           0.
     49,    103.77066,   47.2567711,           0.
     50,    103.77066,   50.6969185,           0.
     51,    103.77066,   54.1370697,           0.
     52,    103.77066,   57.5772171,           0.
     53,    103.77066,   61.0173645,           0.
     54,    103.77066,   64.4575119,           0.
     55,    103.77066,   67.8976593,           0.
     56,    103.77066,   71.3378067,           0.
     57,    103.77066,   74.7779541,           0.
     58,    103.77066,   78.2181091,           0.
     59,    103.77066,   81.6582565,           0.
     60,    103.77066,   85.0984039,           0.
     61,    103.77066,   88.5385513,           0.
     62,    103.77066,   91.9786987,           0.
     63,    103.77066,   95.4188461,           0.
     64,    103.77066,   98.8589935,           0.
     65,    103.77066,   102.299141,           0.
     66,    103.77066,   105.739288,           0.
     67,    103.77066,   109.179436,           0.
     68,    103.77066,   112.619591,           0.
     69,    103.77066,   116.059738,           0.
     70,   100.311638,   119.499886,           0.
     71,   96.8526154,   119.499886,           0.
     72,   93.3935928,   119.499886,           0.
     73,   89.9345703,   119.499886,           0.
     74,   86.4755478,   119.499886,           0.
     75,   83.0165253,   119.499886,           0.
     76,   79.5575027,   119.499886,           0.
     77,   76.0984802,   119.499886,           0.
     78,   72.6394653,   119.499886,           0.
     79,   69.1804428,   119.499886,           0.
     80,   65.7214203,   119.499886,           0.
     81,   62.2623978,   119.499886,           0.
     82,   58.8033752,   119.499886,           0.
     83,   55.3443527,   119.499886,           0.
     84,   51.8853302,   119.499886,           0.
     85,   48.4263077,   119.499886,           0.
     86,   44.9672852,   119.499886,           0.
     87,   41.5082626,   119.499886,           0.
     88,   34.5902214,   119.499886,           0.
     89,   31.1311989,   119.499886,           0.
     90,   27.6721764,   119.499886,           0.
     91,   24.2131538,   119.499886,           0.
     92,   20.7541313,   119.499886,           0.
     93,   17.2951107,   119.499886,           0.
     94,   13.8360882,   119.499886,           0.
     95,   10.3770657,   119.499886,           0.
     96,   6.91804409,   119.499886,           0.
     97,   3.45902205,   119.499886,           0.
     98,           0.,   116.059738,           0.
     99,           0.,   112.619591,           0.
    100,           0.,   109.179436,           0.
    101,           0.,   105.739288,           0.
    102,           0.,   102.299141,           0.
    103,           0.,   98.8589935,           0.
    104,           0.,   95.4188461,           0.
    105,           0.,   91.9786987,           0.
    106,           0.,   88.5385513,           0.
    107,           0.,   85.0984039,           0.
    108,           0.,   81.6582565,           0.
    109,           0.,   78.2181091,           0.
    110,           0.,   74.7779541,           0.
    111,           0.,   71.3378067,           0.
    112,           0.,   67.8976593,           0.
    113,           0.,   64.4575119,           0.
    114,           0.,   61.0173645,           0.
    115,           0.,   57.5772171,           0.
    116,           0.,   54.1370697,           0.
    117,           0.,   50.6969185,           0.
    118,           0.,   47.2567711,           0.
    119,   3.56612682,   43.8166237,           0.
    120,   7.13225365,   43.8166237,           0.
    121,   10.6983805,   43.8166237,           0.
    122,   14.2645073,   43.8166237,           0.
    123,   17.8306351,   43.8166237,           0.
    124,   21.7167339,    47.065361,           0.
    125,   22.6643562,   50.1892509,           0.
    126,   24.2032108,   53.0682449,           0.
    127,   26.2741604,   55.5917053,           0.
    128,   28.7976189,   57.6626549,           0.
    129,   31.6766129,   59.2015114,           0.
    130,   34.8005028,   60.1491318,           0.
    131,   38.0492401,   23.7686253,           0.
    132,   38.0492401,   20.3731079,           0.
    133,   38.0492401,   16.9775906,           0.
    134,   38.0492401,   13.5820713,           0.
    135,   38.0492401,    10.186554,           0.
    136,   38.0492401,   6.79103565,           0.
    137,   38.0492401,   3.39551783,           0.
    138,   41.5082626,           0.,           0.
    139,   44.9672852,           0.,           0.
    140,   48.4263077,           0.,           0.
    141,   51.8853302,           0.,           0.
    142,   55.3443527,           0.,           0.
    143,   58.8033752,           0.,           0.
    144,   62.2623978,           0.,           0.
    145,   65.7214203,           0.,           0.
    146,   69.1804428,           0.,           0.
    147,   72.6394653,           0.,           0.
    148,   76.0984802,           0.,           0.
    149,   79.5575027,           0.,           0.
    150,   83.0165253,           0.,           0.
    151,   86.4755478,           0.,           0.
    152,   89.9345703,           0.,           0.
    153,   93.3935928,           0.,           0.
    154,   96.8526154,           0.,           0.
    155,   100.311638,           0.,           0.
    156,    103.77066,   3.37050962,           0.
    157,    103.77066,   6.74101925,           0.
    158,    103.77066,   10.1115284,           0.
    159,    103.77066,   13.4820385,           0.
    160,    103.77066,   16.8525467,           0.
    161,    103.77066,   20.2230568,           0.
    162,    103.77066,   23.5935669,           0.
    163,    103.77066,    26.964077,           0.
    164,    103.77066,   30.3345852,           0.
    165,    103.77066,   33.7050934,           0.
    166,    103.77066,   37.0756035,           0.
    167,    103.77066,   40.4461136,           0.
    168,   54.3817482,   40.5678864,           0.
    169,   53.4341278,   37.4439964,           0.
    170,   51.8952751,   34.5650024,           0.
    171,   49.8243256,   32.0415421,           0.
    172,   47.3008652,   29.9705925,           0.
    173,   44.4218712,   28.4317379,           0.
    174,   41.2979813,   27.4841156,           0.
    175,   34.8005028,   27.4841156,           0.
    176,   31.6766129,   28.4317379,           0.
    177,   28.7976189,   29.9705925,           0.
    178,   26.2741604,   32.0415421,           0.
    179,   24.2032108,   34.5650024,           0.
    180,   22.6643562,   37.4439964,           0.
    181,   21.7167339,   40.5678864,           0.
    182,           0.,   40.4461136,           0.
    183,           0.,   37.0756035,           0.
    184,           0.,   33.7050934,           0.
    185,           0.,   30.3345852,           0.
    186,           0.,    26.964077,           0.
    187,           0.,   23.5935669,           0.
    188,           0.,   20.2230568,           0.
    189,           0.,   16.8525467,           0.
    190,           0.,   13.4820385,           0.
    191,           0.,   10.1115284,           0.
    192,           0.,   6.74101925,           0.
    193,           0.,   3.37050962,           0.
    194,   3.45902205,           0.,           0.
    195,   6.91804409,           0.,           0.
    196,   10.3770657,           0.,           0.
    197,   13.8360882,           0.,           0.
    198,   17.2951107,           0.,           0.
    199,   20.7541313,           0.,           0.
    200,   24.2131538,           0.,           0.
    201,   27.6721764,           0.,           0.
    202,   31.1311989,           0.,           0.
    203,   34.5902214,           0.,           0.
    204,   50.1870461,   58.6600723,           0.
    205,   54.8505898,   53.0314522,           0.
    206,   56.6688499,   50.0208778,           0.
    207,   41.2093735,   114.867188,           0.
    208,   41.0556374,   96.9290924,           0.
    209,   41.0555458,   93.4567337,           0.
    210,   41.0549927,   89.9842987,           0.
    211,   41.0529518,   86.5114517,           0.
    212,   41.0492668,   83.0386353,           0.
    213,   41.0444717,   79.5662003,           0.
    214,   41.0446548,   76.1007233,           0.
    215,   41.1699181,    72.590416,           0.
    216,   47.2030296,   60.6982994,           0.
    217,   41.6688919,   68.7565002,           0.
    218,   41.2213287,   64.7809982,           0.
    219,   52.7752495,   56.0609474,           0.
    220,   44.2196236,   62.4760857,           0.
    221,    73.974762,    46.838192,           0.
    222,   70.4786148,   46.8342361,           0.
    223,   66.9362411,   46.9371033,           0.
    224,   63.0549774,   47.4251747,           0.
    225,   59.0392647,   47.0221024,           0.
    226,   100.808159,   107.444397,           0.
    227,   100.793404,    104.01683,           0.
    228,   100.790985,   100.578674,           0.
    229,   100.790596,    97.138855,           0.
    230,   100.790558,   93.6987534,           0.
    231,   100.790787,   90.2585526,           0.
    232,   100.791573,   86.8182373,           0.
    233,   100.792603,   83.3780518,           0.
    234,   100.793259,   79.9381943,           0.
    235,   100.793045,    76.498291,           0.
    236,   100.791931,   73.0582047,           0.
    237,   100.790237,   69.6180496,           0.
    238,    100.78833,   66.1779327,           0.
    239,   100.786659,   62.7378006,           0.
    240,   100.779434,   59.2915268,           0.
    241,   100.704689,   55.7670898,           0.
    242,   100.571106,    52.142189,           0.
    243,   100.554283,   48.4004898,           0.
    244,   74.3691711,   116.504547,           0.
    245,   77.8281784,   116.504967,           0.
    246,   81.2871475,   116.505432,           0.
    247,   84.7461395,   116.505844,           0.
    248,   88.2051315,   116.506172,           0.
    249,   91.7511978,   116.453392,           0.
    250,   95.4097061,   116.342506,           0.
    251,   99.1769638,   116.340462,           0.
    252,   100.817093,   110.839539,           0.
    253,   97.6081238,   53.9142838,           0.
    254,   97.8076553,   67.8995895,           0.
    255,   97.8168106,   102.281792,           0.
    256,   97.8097076,   95.4188232,           0.
    257,   97.8114777,   88.5376587,           0.
    258,   97.8160553,   81.6575775,           0.
    259,   97.8161011,   74.7793884,           0.
    260,   97.7902603,   61.0108719,           0.
    261,   97.8010178,   64.4581528,           0.
    262,   97.7251816,   105.718346,           0.
    263,   97.8107224,   98.8560104,           0.
    264,   97.8137512,   85.0970612,           0.
    265,   97.8172989,   78.2185822,           0.
    266,   97.8100891,   91.9783554,           0.
    267,   97.8127823,   71.3399277,           0.
    268,   97.7319794,   57.4806442,           0.
    269,   101.026909,   113.751999,           0.
    270,   70.9101257,   116.504219,           0.
    271,   43.8165665,   116.727051,           0.
    272,   63.9918213,   116.503685,           0.
    273,   67.4509735,   116.503906,           0.
    274,   76.0993652,   113.510139,           0.
    275,   79.5585098,   113.511284,           0.
    276,   83.0186005,    113.51223,           0.
    277,   86.4851456,   113.512207,           0.
    278,   90.0426712,   113.474991,           0.
    279,   93.6314011,   113.390236,           0.
    280,   41.0553284,    100.40155,           0.
    281,   44.3517494,    71.174118,           0.
    282,   44.0567322,   88.2460098,           0.
    283,   44.0393753,    81.299118,           0.
    284,    41.055027,   103.873863,           0.
    285,   44.0610542,   95.1925507,           0.
    286,   41.0942497,   107.406776,           0.
    287,    44.035965,   77.8415451,           0.
    288,   44.1153793,   74.4442825,           0.
    289,   44.0597115,   91.7195358,           0.
    290,   44.0486603,    84.771347,           0.
    291,     77.47966,   46.8402443,           0.
    292,    84.493187,   46.8455582,           0.
    293,   80.9866867,   46.8423004,           0.
    294,   65.4802246,   50.0625839,           0.
    295,   87.9985275,   46.8433266,           0.
    296,   91.4879532,   46.8141022,           0.
    297,   97.9132462,   46.5557442,           0.
    298,   68.7999496,   49.8758087,           0.
    299,   72.2352371,   49.8446617,           0.
    300,    94.957962,   46.7977524,           0.
    301,    53.888031,   59.7834702,           0.
    302,   58.0385017,   52.9769592,           0.
    303,   47.1764488,   63.9774132,           0.
    304,   50.3027916,   62.0568733,           0.
    305,    56.134346,   56.1156883,           0.
    306,   97.0986023,   50.0063057,           0.
    307,   97.5633087,   112.928604,           0.
    308,   44.6391907,   113.230095,           0.
    309,   44.3861351,   65.9562531,           0.
    310,   94.8278503,   93.6980972,           0.
    311,    94.829834,   90.2567139,           0.
    312,   94.8257065,   97.1371994,           0.
    313,   94.8233414,   100.552139,           0.
    314,   94.7058487,   103.914047,           0.
    315,    94.841713,   79.9371033,           0.
    316,   94.8396072,    73.062706,           0.
    317,   94.8323898,   69.6240616,           0.
    318,   94.8333282,   86.8153152,           0.
    319,   94.7653122,   59.1926422,           0.
    320,   94.8224564,   66.1837082,           0.
    321,   94.8030014,   62.7167206,           0.
    322,   94.7061691,   55.6260796,           0.
    323,   94.8427505,   76.4999695,           0.
    324,   94.8377075,    83.375267,           0.
    325,   97.6978683,   109.185005,           0.
    326,   60.1257553,   50.1339378,           0.
    327,   72.6402512,   113.509163,           0.
    328,   69.1808853,    113.50827,           0.
    329,   60.5327988,   116.503464,           0.
    330,   50.1707306,   116.512299,           0.
    331,   57.0751152,   116.504662,           0.
    332,   46.7451286,   116.499031,           0.
    333,   65.7215881,   113.507469,           0.
    334,   53.6189003,   116.506477,           0.
    335,   91.9000397,   110.529526,           0.
    336,   88.3117218,   110.530518,           0.
    337,   84.7687225,   110.522018,           0.
    338,   81.2930756,   110.519363,           0.
    339,   77.8310928,    110.51725,           0.
    340,   44.0607109,    98.665184,           0.
    341,   41.2032204,    111.06221,           0.
    342,   44.0918427,   105.688324,           0.
    343,   47.0606308,    89.979393,           0.
    344,   47.0642967,   93.4541931,           0.
    345,    47.050148,   86.5020981,           0.
    346,   47.1123085,   72.8929062,           0.
    347,   47.0374756,   76.1556015,           0.
    348,   47.0234375,   79.5671234,           0.
    349,   47.0351868,   83.0276184,           0.
    350,   44.0654907,   102.150642,           0.
    351,   75.7228928,   49.8485146,           0.
    352,   86.2190933,    49.864212,           0.
    353,   93.2810135,   49.8855629,           0.
    354,   82.7333832,   49.8630295,           0.
    355,   89.7315445,   49.9471207,           0.
    356,   67.1784286,   52.8491096,           0.
    357,   70.5150757,   52.8291473,           0.
    358,   79.2279663,   49.8549271,           0.
    359,   61.1333656,   53.0024681,           0.
    360,   47.2994766,   67.0468063,           0.
    361,    91.864418,   81.6528015,           0.
    362,   91.8691788,    78.217514,           0.
    363,   44.9921989,   68.5589447,           0.
    364,   91.6981506,   57.3106956,           0.
    365,     91.84655,   67.9102097,           0.
    366,   91.8117447,   64.4478531,           0.
    367,   91.8609238,   71.3492889,           0.
    368,   91.7553177,   102.214989,           0.
    369,   91.8094406,   98.8398209,           0.
    370,   91.8350525,   95.4143677,           0.
    371,   91.8445511,    91.975174,           0.
    372,   91.6788788,   60.8890724,           0.
    373,   91.8573074,   85.0915375,           0.
    374,    91.868187,   74.7841187,           0.
    375,   91.8507538,   88.5328827,           0.
    376,   94.1618729,   107.544891,           0.
    377,    73.968811,   52.8351517,           0.
    378,   94.9908981,   110.715652,           0.
    379,   94.8512344,   52.5656128,           0.
    380,   74.3712845,   110.515244,           0.
    381,   58.8038101,   113.506714,           0.
    382,   83.0117188,   107.537331,           0.
    383,   86.5858307,   107.502151,           0.
    384,   90.2268982,   107.583031,           0.
    385,   79.5590363,    107.52877,           0.
    386,   67.4520111,   110.511673,           0.
    387,   55.3637466,   113.515312,           0.
    388,   51.9058189,   113.420029,           0.
    389,   70.9116974,    110.51339,           0.
    390,   62.2625427,   113.506828,           0.
    391,   49.9876137,   77.8248825,           0.
    392,   50.0101585,   81.2780609,           0.
    393,   47.0650406,    96.928154,           0.
    394,    44.170784,   109.282967,           0.
    395,   50.0646439,   91.7114716,           0.
    396,   49.9761086,   74.5187378,           0.
    397,   47.0624161,   103.974083,           0.
    398,    47.065155,   100.420105,           0.
    399,   50.0529175,   88.2308197,           0.
    400,   50.0330276,   84.7506027,           0.
    401,   68.7997818,   55.7634239,           0.
    402,   84.4294128,   52.8761253,           0.
    403,   87.8567581,   52.9455452,           0.
    404,   91.6033783,   53.4250374,           0.
    405,   80.9608536,   52.8650665,           0.
    406,   77.4624634,   52.8484955,           0.
    407,   50.1467476,   65.4503174,           0.
    408,   47.2813835,   69.9134674,           0.
    409,   49.8927116,   71.4429398,           0.
    410,   72.2164612,   55.7958488,           0.
    411,   65.5055161,   55.7595901,           0.
    412,   88.8929977,    79.931015,           0.
    413,   88.8969116,   76.5013351,           0.
    414,   88.8922882,   73.0725479,           0.
    415,   88.8838882,   83.3664017,           0.
    416,   88.8318939,   100.569763,           0.
    417,   88.2651215,   59.0080261,           0.
    418,   88.8382111,   97.1751251,           0.
    419,   88.8475647,   93.7200012,           0.
    420,   88.7565002,   62.7811623,           0.
    421,   88.8472824,   66.2176132,           0.
    422,   88.8774109,   69.6448288,           0.
    423,   91.8787842,   105.095963,           0.
    424,   88.8627396,   90.2579269,           0.
    425,   88.8737793,   86.8086319,           0.
    426,   76.1022644,   107.523544,           0.
    427,   84.8279495,   104.556351,           0.
    428,   81.3946533,   104.522034,           0.
    429,   88.6117249,   104.215981,           0.
    430,   60.5342674,   110.507568,           0.
    431,   57.1003723,   110.505493,           0.
    432,   53.7179947,   110.388664,           0.
    433,    69.183548,   107.516891,           0.
    434,   63.9928703,   110.510002,           0.
    435,    72.643364,   107.519974,           0.
    436,   48.4119453,   113.379234,           0.
    437,   52.9188232,   76.1247864,           0.
    438,    47.053524,   107.569832,           0.
    439,   50.0675735,   95.1886749,           0.
    440,   50.1168098,   102.267799,           0.
    441,   52.9672127,   79.5277634,           0.
    442,   50.0761719,   98.6887512,           0.
    443,   53.0047073,   82.9916306,           0.
    444,   53.0572701,   89.9586182,           0.
    445,   53.0346527,   86.4721909,           0.
    446,   86.1407013,   55.9000206,           0.
    447,   82.7013474,   55.9209251,           0.
    448,   79.2036972,   55.8902206,           0.
    449,   75.6973877,   55.8332977,           0.
    450,   49.9567986,   68.5511627,           0.
    451,   67.0464783,   58.7024727,           0.
    452,   85.9242554,   74.7901154,           0.
    453,   52.7018166,    72.799408,           0.
    454,   85.9221191,   78.2124023,           0.
    455,   85.9143753,   71.3698196,           0.
    456,    85.912735,   81.6414261,           0.
    457,   85.8681412,   99.1157532,           0.
    458,   85.7224274,   95.6235046,           0.
    459,   86.0407028,   61.5626945,           0.
    460,   85.9004288,   85.0798721,           0.
    461,   85.8815994,   64.5453186,           0.
    462,    85.900589,   67.9598923,           0.
    463,   85.8232727,   92.0395966,           0.
    464,       85.875,   88.5408554,           0.
    465,   70.4583664,    58.736908,           0.
    466,   89.1128235,    55.717865,           0.
    467,   77.8900604,   104.509209,           0.
    468,   86.3017044,   102.000122,           0.
    469,   83.3873138,   101.588165,           0.
    470,   62.2652512,   107.510071,           0.
    471,   55.4398575,    107.45137,           0.
    472,    58.831337,     107.4972,           0.
    473,   65.7241211,   107.514046,           0.
    474,   70.9163437,   104.523659,           0.
    475,   74.3907242,   104.521202,           0.
    476,    50.060627,   109.835739,           0.
    477,   50.0321999,   105.910583,           0.
    478,   46.8672142,   110.659576,           0.
    479,   53.0651627,   93.4485703,           0.
    480,   53.0761032,   100.473312,           0.
    481,   53.0628395,   96.9771957,           0.
    482,   55.9107895,   77.7693253,           0.
    483,   55.9631157,   81.2241058,           0.
    484,   56.0071449,   84.7023315,           0.
    485,   56.0401459,   88.1926498,           0.
    486,   84.4885406,   58.9787674,           0.
    487,   80.9454956,   59.0068512,           0.
    488,   77.4025726,   58.8760605,           0.
    489,    73.918335,   58.7913094,           0.
    490,   53.3621254,   63.9398842,           0.
    491,   52.8452988,   67.4410095,           0.
    492,   68.6928864,   61.6687927,           0.
    493,   63.6066513,   58.5836754,           0.
    494,    82.952507,   76.4998016,           0.
    495,   82.9493103,   73.0868759,           0.
    496,   82.9434509,   79.9190445,           0.
    497,   82.8466339,   69.6489029,           0.
    498,   55.7452354,   74.2318954,           0.
    499,   82.1010742,   97.9343796,           0.
    500,   82.9295654,   83.3504562,           0.
    501,   82.8513336,   66.1728439,           0.
    502,   82.7916794,   62.4108582,           0.
    503,   82.6054306,   93.8711166,           0.
    504,    82.906044,   86.8011475,           0.
    505,   82.8293915,   90.2908783,           0.
    506,   79.8130417,   101.438164,           0.
    507,   67.4595413,   104.521835,           0.
    508,   64.0196075,   104.530243,           0.
    509,   60.5887604,   104.448586,           0.
    510,   57.1573792,    104.42852,           0.
    511,   72.6574402,   101.555405,           0.
    512,    76.182663,     101.5438,           0.
    513,   52.5397263,   107.574661,           0.
    514,   53.4397163,   104.275208,           0.
    515,   56.0524979,   91.7003479,           0.
    516,   55.9562035,   98.7786026,           0.
    517,    56.011734,   95.2486191,           0.
    518,   58.9129944,   79.4490662,           0.
    519,   58.9689064,   82.9216309,           0.
    520,   59.0141373,   86.4129944,           0.
    521,   79.0447159,   61.9236488,           0.
    522,   72.1362228,   61.7247162,           0.
    523,   75.5872421,   61.8050652,           0.
    524,   56.1514091,   66.3627319,           0.
    525,   65.0560226,   61.6028786,           0.
    526,   62.3868942,   55.7179375,           0.
    527,   79.9814377,   74.7950516,           0.
    528,   79.9753494,   78.2023468,           0.
    529,   55.3157272,   70.2860489,           0.
    530,    79.892868,   71.4481735,           0.
    531,   79.4100494,   67.8215637,           0.
    532,   79.9608688,   81.6230621,           0.
    533,   58.8211594,   75.9523773,           0.
    534,   79.9393158,    85.062027,           0.
    535,   79.6592636,   91.9688263,           0.
    536,   79.8657532,   88.5141525,           0.
    537,   70.3731232,   64.6908035,           0.
    538,   69.1965637,   101.534996,           0.
    539,   62.4384727,   101.462265,           0.
    540,   58.8584747,   100.965012,           0.
    541,     65.78125,   101.510353,           0.
    542,   74.4984512,   98.6368713,           0.
    543,   55.6975746,   101.784134,           0.
    544,   58.8908653,   97.0922165,           0.
    545,   59.0277824,   89.9191132,           0.
    546,   59.0343132,   93.4946365,           0.
    547,   61.9350357,   81.1443253,           0.
    548,   61.9804001,   84.6251984,           0.
    549,   77.2847824,   64.7775116,           0.
    550,   73.8431702,   64.7573853,           0.
    551,   80.2765121,   64.6212845,           0.
    552,   79.1650543,   95.3649445,           0.
    553,   56.9566841,    62.625988,           0.
    554,   60.9979095,    61.407383,           0.
    555,   66.7940979,   64.7421951,           0.
    556,   60.8490334,   58.1100578,           0.
    557,   77.0080261,   76.4941483,           0.
    558,   76.9968414,   73.1488724,           0.
    559,   52.1424713,   70.1041183,           0.
    560,   77.1544724,   70.2480545,           0.
    561,   76.9939346,   79.9006119,           0.
    562,   58.7056198,   72.3157806,           0.
    563,    76.973465,   83.3269577,           0.
    564,   76.9284363,   86.7588577,           0.
    565,   61.8825264,   77.6469421,           0.
    566,   76.7332001,   90.1651993,           0.
    567,   71.0205841,   98.5110703,           0.
    568,   61.3032837,   98.6824646,           0.
    569,   64.1791611,   98.5202713,           0.
    570,   77.9963684,   98.5360336,           0.
    571,   67.5464554,   98.5241623,           0.
    572,   61.9776268,    88.135643,           0.
    573,   62.2542686,    95.409668,           0.
    574,   76.4040909,   93.4771881,           0.
    575,   72.0709839,   67.7372894,           0.
    576,   64.9762497,   82.8999634,           0.
    577,   61.9462738,   91.6314774,           0.
    578,    58.031208,   58.9751396,           0.
    579,   59.4288902,   55.8163757,           0.
    580,   59.6357994,   65.1891479,           0.
    581,   63.1543999,   64.7743683,           0.
    582,   73.6250534,   91.7229462,           0.
    583,   74.0804214,   74.7004395,           0.
    584,   73.9233017,   71.0388794,           0.
    585,   74.0444336,   78.0804138,           0.
    586,   68.5751953,    67.744194,           0.
    587,   58.8647232,   68.6887436,           0.
    588,   74.0048828,   81.5164337,           0.
    589,   75.6144638,   67.7301102,           0.
    590,   61.8060837,    74.058815,           0.
    591,   73.9534607,   84.9393768,           0.
    592,   73.1284943,   95.2995224,           0.
    593,   73.8274231,   88.3535385,           0.
    594,   65.9131775,   95.4940338,           0.
    595,   64.9601822,   79.3852921,           0.
    596,   69.3680496,   95.4748154,           0.
    597,   64.9414749,    86.417572,           0.
    598,   64.8319016,    89.906105,           0.
    599,    64.853775,   68.2763443,           0.
    600,   71.4893417,    73.229744,           0.
    601,   71.1513062,   76.1873856,           0.
    602,   70.8112488,   89.9780579,           0.
    603,   71.0403137,   79.6259155,           0.
    604,   61.7761383,   70.4929047,           0.
    605,   70.2577286,   70.6751862,           0.
    606,   70.9896545,    83.082634,           0.
    607,   70.9069519,   86.5468292,           0.
    608,   64.9455185,   75.7824478,           0.
    609,    67.998024,   81.2204361,           0.
    610,   67.9485321,   84.7372131,           0.
    611,   67.7448044,   92.1368484,           0.
    612,    67.864151,   88.2871017,           0.
    613,   64.5380859,   92.9156265,           0.
    614,   70.9355316,   92.9224396,           0.
    615,   61.6569672,   67.4842987,           0.
    616,   68.2796478,   73.7467117,           0.
    617,      68.0625,   77.6580353,           0.
    618,    67.350174,   70.5225067,           0.
    619,   64.8352203,   72.1466217,           0.
    620,   76.2384949,   96.2629166,           0.
    621,   62.7740555,    50.704731,           0.
    622,    64.076416,   53.0160713,           0.
    623,   19.3592529,   50.1816177,           0.
    624,   28.8818512,     60.79002,           0.
    625,   25.8565426,   58.6464005,           0.
    626,   21.2141361,   53.1377525,           0.
    627,   23.2910843,   56.0573463,           0.
    628,   2.96700406,   66.1767044,           0.
    629,   2.96915722,   69.6163635,           0.
    630,   2.97271657,   73.0562744,           0.
    631,     2.976475,   76.4968109,           0.
    632,   2.97915077,   79.9375381,           0.
    633,   2.98053718,    83.378067,           0.
    634,   2.98107243,    86.818367,           0.
    635,   2.98124671,   90.2585678,           0.
    636,   2.98143601,   93.6987076,           0.
    637,   2.98170757,   97.1388168,           0.
    638,   2.98261046,    100.57888,           0.
    639,    2.9925375,   104.021423,           0.
    640,   3.02595544,   107.488617,           0.
    641,   3.12476921,   111.067314,           0.
    642,    3.1426425,   114.834923,           0.
    643,   3.18421602,   48.5140152,           0.
    644,   3.13431358,    52.278965,           0.
    645,   3.01759672,   55.8395882,           0.
    646,   2.97860026,    59.295639,           0.
    647,   2.96765232,   62.7368813,           0.
    648,   19.0230713,   116.474464,           0.
    649,   22.4856243,    116.48671,           0.
    650,   25.9755154,   116.455406,           0.
    651,   29.5763016,   116.355286,           0.
    652,   33.3636017,   116.339012,           0.
    653,   35.0124397,   100.400902,           0.
    654,   35.0440407,   89.9844818,           0.
    655,   35.0446129,    83.039444,           0.
    656,   34.9055977,   107.356514,           0.
    657,   34.9457283,   103.876167,           0.
    658,   35.0353203,   96.9289017,           0.
    659,   35.0421944,   93.4567795,           0.
    660,    35.044384,   86.5120087,           0.
    661,   35.0464363,   79.5664139,           0.
    662,   35.0337677,   76.0516434,           0.
    663,   35.0122757,   72.4624329,           0.
    664,   35.2110558,    65.375473,           0.
    665,   8.89832497,   47.1577072,           0.
    666,   12.8518496,   47.7371368,           0.
    667,   16.9701118,   47.1761932,           0.
    668,   32.4521332,   62.7270813,           0.
    669,    15.820878,   50.5010719,           0.
    670,   5.96380234,   91.9785156,           0.
    671,   5.96358204,   88.5383224,           0.
    672,   5.96048975,   81.6567154,           0.
    673,   6.06308746,   109.229561,           0.
    674,   5.97093344,    102.29837,           0.
    675,   5.96565151,   98.8587418,           0.
    676,   6.58453846,   50.3423157,           0.
    677,   5.93025351,   67.8937607,           0.
    678,   5.92516518,    64.455658,           0.
    679,   5.95537424,   78.2146378,           0.
    680,   5.96277618,   85.0977173,           0.
    681,    5.9646225,   95.4185867,           0.
    682,   5.98856449,   105.752998,           0.
    683,   5.93909264,   57.5980873,           0.
    684,   5.94719934,   74.7726669,           0.
    685,   5.93755198,   71.3320847,           0.
    686,   6.02837849,   54.1675606,           0.
    687,   5.92200994,   61.0238152,           0.
    688,   15.5567207,    116.41143,           0.
    689,   12.0871553,   116.365669,           0.
    690,   8.65935135,   116.385208,           0.
    691,   5.74378157,   116.663879,           0.
    692,   20.7600517,   113.464317,           0.
    693,   27.7242508,   113.402382,           0.
    694,   24.2297745,   113.473778,           0.
    695,   34.9237785,   110.797714,           0.
    696,   35.0461922,   68.8653107,           0.
    697,    31.895237,   102.127815,           0.
    698,   32.0401878,   88.2482071,           0.
    699,   32.0435371,    81.301712,           0.
    700,   31.7280693,   105.635902,           0.
    701,   31.9964161,   77.7431259,           0.
    702,   31.9127846,   74.0558853,           0.
    703,   35.2015419,    113.72789,           0.
    704,   31.9895954,    98.661705,           0.
    705,   32.0291405,   95.1923141,           0.
    706,   32.0379868,   91.7204971,           0.
    707,   32.0414658,   84.7751617,           0.
    708,   5.87309217,   46.7294579,           0.
    709,   10.2813549,   50.5740395,           0.
    710,   25.7194023,   62.1790199,           0.
    711,   17.9738045,   53.2872772,           0.
    712,   22.2520065,   59.7729263,           0.
    713,   19.9951782,   56.2770538,           0.
    714,   6.54237318,   113.126671,           0.
    715,   31.6448402,   112.921638,           0.
    716,   14.8558064,   53.5510902,           0.
    717,   28.9304123,   64.3762436,           0.
    718,    8.9477911,   90.2582169,           0.
    719,   8.94698524,   86.8174744,           0.
    720,   8.94876194,   93.6985931,           0.
    721,   8.87769794,   62.7432175,           0.
    722,   8.84681606,   59.3206139,           0.
    723,   8.94404888,   83.3753052,           0.
    724,   8.95074463,   97.1404419,           0.
    725,   8.88283825,    66.174118,           0.
    726,   8.96469593,   100.594231,           0.
    727,   8.96488571,   104.062859,           0.
    728,   8.94280434,    107.52655,           0.
    729,   8.93690395,    79.931221,           0.
    730,   8.92447472,   76.4865112,           0.
    731,   8.79543114,   55.9411964,           0.
    732,   8.89302349,   69.6061859,           0.
    733,   8.90826035,    73.043869,           0.
    734,    8.6593895,   53.0003052,           0.
    735,   32.0603065,   66.6370773,           0.
    736,   17.3073635,   113.382187,           0.
    737,   10.3025074,   113.222031,           0.
    738,   25.9951992,   110.521378,           0.
    739,    22.533329,   110.476234,           0.
    740,   13.8099957,   113.228401,           0.
    741,   8.76203823,   110.562256,           0.
    742,   31.7336864,   109.150253,           0.
    743,    28.912693,   96.9357452,           0.
    744,   28.9220562,   93.4681625,           0.
    745,   28.9135456,    89.999321,           0.
    746,   28.9067955,   86.5289917,           0.
    747,    28.906189,   83.0569687,           0.
    748,   28.8334084,    100.38829,           0.
    749,    28.819025,    79.486824,           0.
    750,   28.7202797,   103.794403,           0.
    751,   28.6040554,   75.7227554,           0.
    752,   29.0554657,   110.699333,           0.
    753,   31.9163017,   70.3335342,           0.
    754,   11.6123724,   53.9973183,           0.
    755,   16.7175484,   56.2679214,           0.
    756,   11.9760971,   109.746712,           0.
    757,   28.2139473,   107.480698,           0.
    758,   11.8428488,   67.8577347,           0.
    759,   11.6766996,   57.5968399,           0.
    760,   11.8975973,   71.2798538,           0.
    761,   11.8241415,   64.4459457,           0.
    762,   11.9468145,   105.925751,           0.
    763,   12.0236273,   98.8944855,           0.
    764,   12.0218315,   95.4311981,           0.
    765,   12.0175304,   91.9745865,           0.
    766,   12.0607929,   102.405479,           0.
    767,     11.82722,   61.0138855,           0.
    768,   12.0166674,   88.5278854,           0.
    769,   12.0132084,   85.0826569,           0.
    770,   12.0113211,   81.6341553,           0.
    771,   12.0075817,   78.1811218,           0.
    772,   11.9816418,   74.7220001,           0.
    773,   15.6627779,   110.288223,           0.
    774,   24.3620892,   107.510437,           0.
    775,   19.0804596,   110.406929,           0.
    776,   25.6036167,    95.247612,           0.
    777,   25.5623608,   91.7782898,           0.
    778,   25.5464211,   88.3127823,           0.
    779,   25.5396576,   84.8458786,           0.
    780,   25.4672871,   81.3141937,           0.
    781,   25.6412392,   98.7111511,           0.
    782,   25.7216396,   102.097992,           0.
    783,   28.5780582,      71.8666,           0.
    784,   25.2313938,   77.6274414,           0.
    785,    25.729866,   65.8615494,           0.
    786,   35.7124367,   62.5324593,           0.
    787,   18.4598007,   59.2387276,           0.
    788,   28.7795334,    68.095192,           0.
    789,   22.7048359,   63.8311501,           0.
    790,   14.7248831,   66.0552979,           0.
    791,   14.9296894,   69.4204865,           0.
    792,   14.9269295,   59.2201424,           0.
    793,   14.6411438,   62.7654266,           0.
    794,   15.2854118,   97.2278824,           0.
    795,   15.2797909,   93.7013779,           0.
    796,    15.378685,   104.371239,           0.
    797,   15.2017479,   100.716621,           0.
    798,   15.2682991,   90.2256927,           0.
    799,   15.2609739,   86.7694016,           0.
    800,   15.2651844,   83.3118591,           0.
    801,   15.1260633,   72.8893204,           0.
    802,   15.2551775,   79.8448715,           0.
    803,   15.2068548,   76.3747711,           0.
    804,   17.4016781,   107.429131,           0.
    805,   20.8390541,   107.425102,           0.
    806,   24.6821346,     73.47892,           0.
    807,   25.9344616,   105.007629,           0.
    808,   22.1172733,   93.5904846,           0.
    809,   22.0811081,     90.11483,           0.
    810,     22.06674,   86.6495438,           0.
    811,    22.219656,   97.1309586,           0.
    812,   22.0415764,   83.1613617,           0.
    813,   22.5250149,   100.585014,           0.
    814,   21.9245033,   79.6220245,           0.
    815,   22.6452541,   104.189995,           0.
    816,   22.7193718,   67.2564774,           0.
    817,   25.4341679,   69.4997711,           0.
    818,   13.9578714,   56.1266632,           0.
    819,   17.6402397,   67.4342194,           0.
    820,   17.3164749,   64.2905884,           0.
    821,   18.4945869,   70.8874435,           0.
    822,   17.6992111,   102.215294,           0.
    823,   18.7123623,   95.4748077,           0.
    824,   18.8250713,   99.3544464,           0.
    825,   18.6727886,   91.9261551,           0.
    826,   18.6532364,   88.4464111,           0.
    827,   18.6466637,   84.9756546,           0.
    828,   18.6075821,   81.4896393,           0.
    829,    18.353838,   74.5621948,           0.
    830,   14.4732103,   107.552208,           0.
    831,    19.015995,   104.626884,           0.
    832,   18.5083447,   77.9975433,           0.
    833,    21.630209,   76.0659943,           0.
    834,   22.1036758,   70.4269257,           0.
    835,   20.0474796,   65.5825958,           0.
    836,   17.0075092,    61.573391,           0.
    837,   21.0528889,   73.0842972,           0.
    838,   20.1421089,   102.194328,           0.
    839,   19.6313515,   62.3815613,           0.
    840,   13.0844526,   51.2721291,           0.
    841,   20.2010708,   68.3175278,           0.
    842,   54.9437904,   34.5718765,           0.
    843,   47.3019066,    26.768158,           0.
    844,   52.8146362,   31.6470356,           0.
    845,   56.7285347,   37.6382332,           0.
    846,   50.2967949,   29.0525684,           0.
    847,   100.618431,   39.2332344,           0.
    848,   100.840469,   25.2802505,           0.
    849,   100.841759,    21.909544,           0.
    850,   100.841057,   18.5382633,           0.
    851,   100.838028,   15.1681871,           0.
    852,   100.807167,   11.7832251,           0.
    853,    100.70079,   8.28098297,           0.
    854,   100.670464,   4.59619045,           0.
    855,   41.2172508,   4.57216358,           0.
    856,   41.0015144,   15.2827034,           0.
    857,   40.9937782,   18.7561646,           0.
    858,   40.8549385,   22.2363205,           0.
    859,   81.2872391,   2.99466801,           0.
    860,   63.9916801,   2.98709917,           0.
    861,   88.2196121,    3.0075779,           0.
    862,   84.7486801,   2.99565482,           0.
    863,   77.8277893,   2.99449611,           0.
    864,   74.3684616,   2.99321103,           0.
    865,   70.9094849,   2.99104023,           0.
    866,   67.4504776,   2.98810029,           0.
    867,   60.5327835,   2.98568583,           0.
    868,   57.0738754,   2.98519325,           0.
    869,   53.6148376,   2.98553109,           0.
    870,   50.1768761,   2.97786212,           0.
    871,   46.7463417,    2.9868691,           0.
    872,   84.4935684,   40.7882118,           0.
    873,   80.9883728,   40.7862167,           0.
    874,   73.9786911,   40.7886848,           0.
    875,     66.93013,   40.6786118,           0.
    876,   59.0400047,   40.6359787,           0.
    877,   63.0697861,   40.1660385,           0.
    878,   95.0124435,    40.793705,           0.
    879,   77.4835129,   40.7865105,           0.
    880,   70.4731064,   40.7703743,           0.
    881,   43.6291504,   24.8201504,           0.
    882,   100.822701,   28.6481876,           0.
    883,   97.7809296,   10.0270786,           0.
    884,   97.9053574,   20.2265549,           0.
    885,   100.788101,   32.0328522,           0.
    886,   100.652542,   35.5543938,           0.
    887,   97.8643417,   13.4417439,           0.
    888,   97.8952408,    16.847765,           0.
    889,   97.9015121,   23.5972176,           0.
    890,   41.0657387,    11.848773,           0.
    891,   43.9770012,   17.1693535,           0.
    892,   41.1821289,   8.29894447,           0.
    893,   43.9410858,   20.8622551,           0.
    894,   91.7039185,   3.02751803,           0.
    895,     72.63694,   5.98232555,           0.
    896,   83.0179672,    5.9869504,           0.
    897,   69.1777344,   5.97565126,           0.
    898,   51.8533096,   5.96464872,           0.
    899,   79.5575027,   5.98810053,           0.
    900,   76.0966263,   5.98610258,           0.
    901,    62.261467,   5.96519804,           0.
    902,   86.4780731,   6.00337648,           0.
    903,   95.1500549,   3.03750944,           0.
    904,   98.0592728,   2.78358221,           0.
    905,   55.3390923,   5.96208239,           0.
    906,   65.7191544,   5.96858883,           0.
    907,   58.8022461,   5.96142149,           0.
    908,   48.3747025,   5.96040487,           0.
    909,   91.5268478,    40.793869,           0.
    910,   88.0066299,   40.7927132,           0.
    911,    65.493042,   37.4653664,           0.
    912,   75.7285767,   37.7629433,           0.
    913,   79.2346649,   37.7597084,           0.
    914,   68.7960968,    37.690731,           0.
    915,   82.7416611,   37.7632103,           0.
    916,   72.2390137,   37.7531242,           0.
    917,   58.2150917,   34.6782684,           0.
    918,   56.3912277,   31.2835407,           0.
    919,   53.7549057,   28.4308205,           0.
    920,   51.1478653,    25.150095,           0.
    921,   97.2740784,   6.20276642,           0.
    922,   47.2682953,   22.9597778,           0.
    923,   60.2243805,    37.456459,           0.
    924,   97.8365097,   30.3619041,           0.
    925,   95.0584335,   8.67872524,           0.
    926,   94.9571686,   21.9154205,           0.
    927,   94.9562302,   18.5389996,           0.
    928,   94.9410782,   15.1089249,           0.
    929,   94.9221878,   11.6837826,           0.
    930,   97.8790359,   26.9702435,           0.
    931,   44.1164551,   13.6400185,           0.
    932,   47.1224823,   19.1199493,           0.
    933,   44.6250648,   6.19425249,           0.
    934,   89.9833298,   6.09670115,           0.
    935,   53.5249519,    8.9179697,           0.
    936,   60.5305748,   8.93218613,           0.
    937,   57.0573006,   8.92551708,           0.
    938,   49.9821281,   8.86187077,           0.
    939,   63.9863586,   8.93952084,           0.
    940,   70.9019394,   8.96439743,           0.
    941,   67.4425659,   8.95091915,           0.
    942,   81.2650223,   8.96652222,           0.
    943,   77.8181686,   8.97520447,           0.
    944,   74.3613815,   8.97318268,           0.
    945,   84.6991348,   9.07472324,           0.
    946,    93.505188,   6.09114599,           0.
    947,   93.3806305,    37.710865,           0.
    948,   86.2625122,   37.7568169,           0.
    949,    77.475029,   34.7406769,           0.
    950,   80.9878006,   34.7408752,           0.
    951,    73.973114,   34.7496223,           0.
    952,   67.2266846,   34.6663589,           0.
    953,   70.5264359,   34.7329254,           0.
    954,   89.8375168,   37.6633873,           0.
    955,   97.7120667,   33.7936211,           0.
    956,   44.2512283,   10.0845308,           0.
    957,   97.1928558,    37.598938,           0.
    958,   40.3761101,   25.0946712,           0.
    959,   91.8845291,   9.52278042,           0.
    960,   61.2072678,    34.519455,           0.
    961,   94.8843155,   32.0896873,           0.
    962,   47.6853638,   11.8190689,           0.
    963,   94.9374771,   28.6770802,           0.
    964,    92.002449,   20.2267189,           0.
    965,   92.0779343,   13.2946577,           0.
    966,   92.0326385,   16.7668209,           0.
    967,   47.1329155,   15.5308371,           0.
    968,   94.9486084,   25.2879887,           0.
    969,    46.983696,   8.58402538,           0.
    970,   88.1600342,   9.16697121,           0.
    971,     72.62323,   11.9561195,           0.
    972,   58.7965393,   11.8874531,           0.
    973,   62.2510681,   11.8985586,           0.
    974,   65.7041321,   11.9165421,           0.
    975,   69.1609497,   11.9370689,           0.
    976,   55.1850967,   11.9073792,           0.
    977,   76.0839691,   11.9641914,           0.
    978,   62.8289223,   36.8300171,           0.
    979,   51.5548019,   11.7985516,           0.
    980,   82.8280334,   12.0346861,           0.
    981,   79.4930878,   11.9647131,           0.
    982,   84.5319519,   34.7312775,           0.
    983,   68.8779907,   31.7806625,           0.
    984,   91.8085785,   34.2212334,           0.
    985,    79.224762,   31.7238884,           0.
    986,   75.7053986,   31.7357159,           0.
    987,   72.2355194,     31.75387,           0.
    988,   88.0467987,   34.6704292,           0.
    989,   97.9700546,   41.0518265,           0.
    990,   59.4318542,   32.2122192,           0.
    991,   91.9399643,   30.4388561,           0.
    992,   49.8791351,   14.2907085,           0.
    993,   91.8992538,   26.9933891,           0.
    994,   89.0989685,   18.3883114,           0.
    995,   89.2356339,   14.8698473,           0.
    996,   50.0395126,   17.2182198,           0.
    997,   94.9956894,   35.0828705,           0.
    998,   89.5467224,   11.8834257,           0.
    999,    91.976326,   23.5879765,           0.
   1000,   64.1137238,   34.4138756,           0.
   1001,   60.5153961,   14.8454018,           0.
   1002,   63.9621239,   14.8695507,           0.
   1003,   67.4146423,   14.8998995,           0.
   1004,   86.3863754,   12.6072817,           0.
   1005,   56.9326401,    14.884903,           0.
   1006,    65.681778,   31.7258205,           0.
   1007,   70.8762512,    14.928915,           0.
   1008,   53.0492744,   15.1716785,           0.
   1009,   74.3447876,    14.948905,           0.
   1010,   77.7602081,   14.9291697,           0.
   1011,    81.061264,    14.937006,           0.
   1012,   82.7938919,   31.7412071,           0.
   1013,   89.3475876,   31.9628258,           0.
   1014,    70.427536,   28.8918743,           0.
   1015,   86.3186493,   31.7804928,           0.
   1016,   77.3475418,   28.7929745,           0.
   1017,   73.8298721,   28.8289261,           0.
   1018,   43.8128395,   2.75065708,           0.
   1019,   62.2866745,   31.3167152,           0.
   1020,   88.4814682,   28.8005104,           0.
   1021,   88.9371948,   25.2157383,           0.
   1022,   86.2746811,   16.4637871,           0.
   1023,   89.0149384,   21.8486309,           0.
   1024,   62.2203331,   17.7866783,           0.
   1025,    65.688324,   17.8241959,           0.
   1026,   58.6519051,   17.8682098,           0.
   1027,   55.1849442,   17.9637737,           0.
   1028,   69.1935349,   17.8244171,           0.
   1029,   67.1469574,   29.0810089,           0.
   1030,   72.6815262,   17.8230019,           0.
   1031,   76.1090012,   17.8013248,           0.
   1032,   79.4270554,   17.7742901,           0.
   1033,   80.9676819,   28.7581024,           0.
   1034,   84.6093369,   28.8373985,           0.
   1035,   71.8250122,   26.0771542,           0.
   1036,   75.2973633,   26.0116329,           0.
   1037,   59.2574425,   29.4474201,           0.
   1038,   86.1849899,   26.3942184,           0.
   1039,   86.0400314,   23.4827824,           0.
   1040,   56.7553711,   28.0771275,           0.
   1041,   86.0852509,   20.0137672,           0.
   1042,   60.3359642,   20.8502293,           0.
   1043,    64.002121,   20.7966652,           0.
   1044,   56.4689636,   21.1672916,           0.
   1045,   83.8943634,   14.8237133,           0.
   1046,   67.6470871,   20.6730022,           0.
   1047,   82.9544525,   18.0211639,           0.
   1048,   71.1668777,   20.6008034,           0.
   1049,    68.395256,   26.2716064,           0.
   1050,   74.6258621,   20.5407562,           0.
   1051,   77.9320908,   20.4240875,           0.
   1052,   78.8580093,   25.8680286,           0.
   1053,   82.8357162,   25.4426594,           0.
   1054,   50.7121773,    20.810442,           0.
   1055,   59.0466156,   26.3029442,           0.
   1056,   55.6097641,   25.0252476,           0.
   1057,   83.1201782,   21.7012463,           0.
   1058,   53.6514359,   20.1711998,           0.
   1059,   62.1895981,   24.1869106,           0.
   1060,   66.1693497,    23.654253,           0.
   1061,   53.5180397,   22.4648552,           0.
   1062,   62.0464058,    27.856472,           0.
   1063,   52.5274696,   18.2670631,           0.
   1064,   80.6924591,   20.1711178,           0.
   1065,   65.0646591,   26.7197647,           0.
   1066,   80.0105743,   22.7980309,           0.
   1067,   76.6605606,   23.1484604,           0.
   1068,   58.7301826,    23.506525,           0.
   1069,   64.4452972,   29.3399563,           0.
   1070,   73.2166672,    23.293272,           0.
   1071,   69.7367096,   23.4283485,           0.
   1072,   25.8417664,   28.9795742,           0.
   1073,   19.1479759,   37.5107079,           0.
   1074,   21.1741619,   34.5483017,           0.
   1075,   34.9242706,   4.56286669,           0.
   1076,   35.0928535,   15.4534264,           0.
   1077,   28.9062977,   26.9128914,           0.
   1078,   35.0838928,   19.1058578,           0.
   1079,   35.0189552,   22.8766079,           0.
   1080,   23.2591553,   31.6728115,           0.
   1081,   31.9331932,   25.0921135,           0.
   1082,    9.0043478,   40.5992126,           0.
   1083,   12.8476906,   40.5850677,           0.
   1084,   16.8353004,   40.6360283,           0.
   1085,   3.10240316,   4.60651255,           0.
   1086,   3.06829643,   8.27607727,           0.
   1087,   2.95679307,   11.7703943,           0.
   1088,   2.92682838,   15.1631117,           0.
   1089,    2.9173665,   18.5374622,           0.
   1090,   2.91430521,   21.9084835,           0.
   1091,   2.91391516,   25.2786064,           0.
   1092,   2.91657615,   28.6483479,           0.
   1093,   2.95227885,   32.0186577,           0.
   1094,    3.0854857,   35.4790764,           0.
   1095,   3.16481376,    39.177124,           0.
   1096,   29.3982964,   2.97506309,           0.
   1097,   22.4788342,   2.98358583,           0.
   1098,   19.0225925,   2.98477221,           0.
   1099,   15.5650005,   2.98397207,           0.
   1100,   12.0781136,    3.0243504,           0.
   1101,   8.63334179,   3.03494883,           0.
   1102,   5.83731222,    16.854784,           0.
   1103,   5.82346058,    23.593399,           0.
   1104,   5.85710478,   30.2806664,           0.
   1105,   5.82712936,   20.2246895,           0.
   1106,   5.82978439,   26.9525566,           0.
   1107,   6.02464724,   33.6018257,           0.
   1108,   5.97746372,   10.0239296,           0.
   1109,   5.88451815,   13.4325695,           0.
   1110,   35.0853882,   11.8977613,           0.
   1111,   32.1539955,   17.5066681,           0.
   1112,   25.9572334,   2.98525643,           0.
   1113,   17.2904167,   5.96037722,           0.
   1114,   20.7457294,   5.96094656,           0.
   1115,   13.7626085,   6.06833601,           0.
   1116,   32.3271751,   2.75404835,           0.
   1117,   10.2402382,   6.10257483,           0.
   1118,   5.89954281,   40.9548378,           0.
   1119,    11.153121,   37.0014381,           0.
   1120,   29.0636597,   23.3449879,           0.
   1121,   20.2562981,    31.703064,           0.
   1122,   25.7983074,   25.4257679,           0.
   1123,   17.4201355,    34.041008,           0.
   1124,   21.6962261,   27.9185238,           0.
   1125,   6.73814821,   37.3537064,           0.
   1126,   6.48310852,   6.22782183,           0.
   1127,   31.5709972,   6.22158241,           0.
   1128,   32.0757561,    21.261795,           0.
   1129,   8.85945797,   34.6373291,           0.
   1130,   8.73001385,   25.2726135,           0.
   1131,   8.73059654,   21.9096985,           0.
   1132,   8.73840714,   18.5384216,           0.
   1133,   8.75535202,   15.1033401,           0.
   1134,   8.74672318,   28.5743828,           0.
   1135,   8.78178692,   11.6832123,           0.
   1136,   8.78782368,   31.7843342,           0.
   1137,   34.9716949,     8.304883,           0.
   1138,   32.1693497,   13.7939482,           0.
   1139,   24.2869968,    6.0756464,           0.
   1140,   18.9913483,   8.93091106,           0.
   1141,    15.534729,   9.01704407,           0.
   1142,   11.8184195,   9.52664471,           0.
   1143,   27.8245716,    6.1105485,           0.
   1144,   5.71918392,   2.77385664,           0.
   1145,   11.4901791,   33.3963394,           0.
   1146,   29.1871719,   19.6162491,           0.
   1147,   11.6320505,    26.907629,           0.
   1148,   11.6201477,   30.1885262,           0.
   1149,   11.7072849,   13.2954941,           0.
   1150,   11.7586775,   16.7562218,           0.
   1151,   11.6717396,   20.2013283,           0.
   1152,    11.637536,    23.577179,           0.
   1153,   8.66020298,   8.71283627,           0.
   1154,   29.1700554,   15.8624029,           0.
   1155,   32.0867805,   10.1590443,           0.
   1156,   22.4493198,   9.03665447,           0.
   1157,   14.2621498,   11.7244368,           0.
   1158,   17.2512836,   11.8513689,           0.
   1159,   26.1169949,   9.70602703,           0.
   1160,   29.3766556,    8.8261137,           0.
   1161,   29.1320705,   12.0953188,           0.
   1162,   14.4459372,   31.8793621,           0.
   1163,   14.5940132,   28.5476894,           0.
   1164,   15.1274824,   14.8510923,           0.
   1165,   14.5922308,   25.2234039,           0.
   1166,   14.6614857,   18.4936314,           0.
   1167,   14.5891504,    21.860445,           0.
   1168,   20.5955448,   11.8035688,           0.
   1169,   23.4662418,   11.8682671,           0.
   1170,   26.1408272,   21.7103405,           0.
   1171,   17.6829605,   30.1502438,           0.
   1172,   13.9427271,   34.7674828,           0.
   1173,   25.7481251,   14.1692867,           0.
   1174,   17.6780987,   26.7042866,           0.
   1175,   17.4631996,   23.3947487,           0.
   1176,   17.5010414,    20.093771,           0.
   1177,   18.8659286,   14.6989651,           0.
   1178,   17.3445396,   17.2190495,           0.
   1179,   22.1573429,   14.5800581,           0.
   1180,   26.2275887,   18.0667381,           0.
   1181,     22.91045,   23.6020374,           0.
   1182,   20.4794464,   17.9043903,           0.
   1183,   15.2244921,   37.4236221,           0.
   1184,     20.02318,   24.6632671,           0.
   1185,    20.299202,   21.6196499,           0.
   1186,   23.2931614,    19.980938,           0.
   1187,   23.5811329,   16.9402828,           0.
*Element, type=S3
  1, 341, 308, 207
  2, 271,  87, 207
  3, 264, 258, 233
  4, 206,  34,  35
  5, 225,  35,  36
  6, 357, 298, 299
  7, 207,  13,  14
  8, 284,  17, 280
  9, 280,  18, 208
 10, 208,  18,  19
 11, 270,  78,  79
 12, 209, 208,  19
 13, 210, 209,  20
 14, 211, 210,  21
 15, 213,  23,  24
 16, 212, 211,  22
 17, 214, 213,  24
 18, 215, 214,  25
 19, 309, 220, 303
 20, 216,  31, 204
 21, 309, 217, 218
 22, 220,  29,  30
 23,  28,   2,  29
 24,  35,   3,  36
 25, 219,  33, 205
 26, 220, 218,  29
 27,  48,   4,  49
 28, 243,  49,  50
 29, 253, 242, 241
 30, 321, 261, 320
 31, 261, 238, 254
 32, 254, 238, 237
 33, 355, 296, 353
 34, 295,  44,  45
 35, 291,  41,  42
 36, 222,  40, 221
 37, 223,  39, 222
 38, 298, 223, 222
 39, 206, 205,  34
 40,  70,  69,   5
 41, 251,  70,  71
 42, 378, 307, 279
 43, 339, 338, 275
 44, 227,  66, 226
 45, 228,  65, 227
 46, 229,  64, 228
 47, 230,  63, 229
 48, 231,  62, 230
 49, 232,  61, 231
 50, 233,  60, 232
 51, 234,  59, 233
 52, 235,  58, 234
 53, 236,  57, 235
 54, 237,  56, 236
 55, 238,  55, 237
 56, 239,  54, 238
 57, 240,  53, 239
 58, 241,  52, 240
 59, 242,  51, 241
 60, 243,  50, 242
 61,  87,   1,  13
 62, 207,  87,  13
 63, 387, 331, 334
 64, 350, 342, 284
 65, 332, 330,  85
 66, 340, 208, 285
 67, 342, 286, 284
 68, 387, 381, 331
 69, 329,  81,  82
 70, 270, 244,  78
 71, 273,  79,  80
 72, 245,  77, 244
 73, 245,  76,  77
 74, 247,  75, 246
 75, 248,  74, 247
 76, 249,  73, 248
 77, 250,  72, 249
 78, 251,  71, 250
 79, 204,  31,  32
 80, 219,  32,  33
 81, 205,  33,  34
 82, 299, 222, 221
 83, 225,  36,  37
 84, 224,  38, 223
 85, 341,  15, 286
 86, 286,  16, 284
 87, 209,  19,  20
 88, 274, 245, 244
 89, 210,  20,  21
 90, 262, 255, 227
 91, 211,  21,  22
 92, 255, 228, 227
 93, 212,  22,  23
 94, 263, 228, 255
 95, 213, 212,  23
 96, 264, 232, 257
 97, 214,  24,  25
 98, 555, 492, 537
 99, 215,  25,  26
100, 288, 215, 281
101, 217,  26,  27
102, 281, 215, 217
103, 216,  30,  31
104, 304, 204, 301
105, 217, 215,  26
106, 218, 217,  27
107, 218,  27,  28
108, 218,  28,  29
109, 305, 205, 302
110, 219, 204,  32
111, 220,  30, 216
112, 303, 220, 216
113, 221,  40,  41
114, 265, 234, 258
115, 326, 302, 206
116, 222,  39,  40
117, 294, 224, 223
118, 223,  38,  39
119, 621, 224, 294
120, 224,  37,  38
121, 225, 206,  35
122, 225,  37, 224
123, 226,  66,  67
124, 252,  67,  68
125, 289, 210, 282
126, 227,  65,  66
127, 312, 310, 256
128, 228,  64,  65
129, 256, 230, 229
130, 229,  63,  64
131, 266, 230, 256
132, 230,  62,  63
133, 257, 232, 231
134, 231,  61,  62
135, 375, 318, 311
136, 232,  60,  61
137, 258, 234, 233
138, 233,  59,  60
139, 323, 265, 315
140, 234,  58,  59
141, 410, 357, 377
142, 235,  57,  58
143, 267, 237, 236
144, 236,  56,  57
145, 293,  43, 292
146, 237,  55,  56
147, 296, 295,  45
148, 238,  54,  55
149, 306, 300, 297
150, 239,  53,  54
151, 268, 241, 240
152, 240,  52,  53
153, 300,  46,  47
154, 241,  51,  52
155, 306, 242, 253
156, 242,  50,  51
157, 297,  48, 243
158, 243,  48,  49
159, 244,  77,  78
160, 338, 337, 276
161, 275, 245, 274
162, 246,  76, 245
163, 276, 246, 275
164, 246,  75,  76
165, 382, 337, 338
166, 247,  74,  75
167, 277, 247, 276
168, 248,  73,  74
169, 325, 252, 307
170, 249,  72,  73
171, 307, 251, 250
172, 250,  71,  72
173, 269,  69, 251
174, 251,  69,  70
175, 252, 226,  67
176, 269, 252,  68
177, 260, 240, 239
178, 295, 292,  44
179, 259, 236, 235
180, 320, 254, 317
181, 262, 227, 226
182, 344, 289, 343
183, 263, 256, 229
184, 311, 266, 310
185, 266, 257, 231
186, 290, 212, 283
187, 264, 233, 232
188, 347, 288, 346
189, 265, 259, 235
190, 317, 267, 316
191, 355, 295, 296
192, 261, 260, 239
193, 261, 239, 238
194, 354, 293, 292
195, 325, 226, 252
196, 278, 248, 277
197, 263, 229, 228
198, 313, 312, 263
199, 318, 257, 311
200, 318, 264, 257
201, 265, 235, 234
202, 348, 287, 347
203, 266, 231, 230
204, 371, 310, 370
205, 267, 254, 237
206, 267, 236, 259
207, 268, 253, 241
208, 268, 240, 260
209, 269,  68,  69
210, 307, 269, 251
211, 398, 340, 393
212, 328, 270, 273
213, 332,  86, 271
214, 271,  86,  87
215, 272,  80,  81
216, 333, 328, 273
217, 273, 270,  79
218, 273,  80, 272
219, 327, 244, 270
220, 434, 333, 390
221, 314, 313, 255
222, 275, 246, 245
223, 337, 336, 277
224, 276, 247, 246
225, 429, 423, 384
226, 277, 248, 247
227, 384, 376, 335
228, 278, 249, 248
229, 279, 250, 249
230, 279, 249, 278
231, 330,  84,  85
232, 280,  17,  18
233, 304, 303, 216
234, 287, 283, 213
235, 282, 210, 211
236, 290, 211, 212
237, 283, 212, 213
238, 287, 213, 214
239, 350, 280, 340
240, 284,  16,  17
241, 285, 208, 209
242, 289, 285, 209
243, 394, 286, 342
244, 286,  15,  16
245, 288, 287, 214
246, 559, 409, 450
247, 288, 214, 215
248, 615, 599, 604
249, 289, 209, 210
250, 419, 370, 418
251, 349, 283, 348
252, 290, 282, 211
253, 291, 221,  41
254, 293,  42,  43
255, 292,  43,  44
256, 319, 268, 260
257, 404, 355, 353
258, 293, 291,  42
259, 326, 206, 225
260, 298, 294, 223
261, 296,  45,  46
262, 322, 268, 319
263, 300,  47, 297
264, 364, 322, 319
265, 297,  47,  48
266, 306, 243, 242
267, 299, 298, 222
268, 411, 356, 401
269, 351, 221, 291
270, 410, 401, 357
271, 353, 300, 306
272, 300, 296,  46
273, 301, 204, 219
274, 305, 219, 205
275, 302, 205, 206
276, 622, 359, 621
277, 360, 309, 303
278, 304, 216, 204
279, 374, 323, 362
280, 408, 281, 363
281, 356, 294, 298
282, 305, 301, 219
283, 306, 297, 243
284, 379, 353, 306
285, 307, 252, 269
286, 307, 250, 279
287, 436, 332, 308
288, 308, 271, 207
289, 363, 217, 309
290, 309, 218, 220
291, 310, 266, 256
292, 312, 256, 263
293, 345, 343, 282
294, 311, 257, 266
295, 313, 263, 255
296, 468, 457, 416
297, 314, 255, 262
298, 423, 376, 384
299, 376, 262, 325
300, 336, 335, 278
301, 315, 265, 258
302, 324, 258, 264
303, 316, 267, 259
304, 323, 316, 259
305, 366, 320, 365
306, 317, 254, 267
307, 375, 311, 371
308, 392, 348, 391
309, 321, 260, 261
310, 320, 261, 254
311, 405, 358, 354
312, 365, 320, 317
313, 417, 364, 372
314, 321, 319, 260
315, 404, 353, 379
316, 322, 253, 268
317, 323, 259, 265
318, 362, 315, 361
319, 324, 315, 258
320, 324, 264, 318
321, 378, 335, 376
322, 325, 262, 226
323, 326, 225, 224
324, 621, 359, 326
325, 327, 274, 244
326, 328, 327, 270
327, 333, 273, 272
328, 542, 512, 511
329, 329, 272,  81
330, 331,  82,  83
331, 334,  84, 330
332, 438, 342, 397
333, 331, 329,  82
334, 334, 331,  83
335, 332,  85,  86
336, 332, 271, 308
337, 390, 272, 329
338, 442, 440, 398
339, 334,  83,  84
340, 478, 438, 476
341, 335, 279, 278
342, 336, 278, 277
343, 337, 277, 276
344, 338, 276, 275
345, 339, 275, 274
346, 383, 337, 382
347, 380, 274, 327
348, 429, 368, 423
349, 389, 327, 328
350, 427, 383, 382
351, 340, 280, 208
352, 393, 285, 344
353, 341, 207,  14
354, 341,  14,  15
355, 388, 387, 334
356, 350, 284, 280
357, 343, 289, 282
358, 345, 282, 290
359, 370, 312, 369
360, 344, 285, 289
361, 349, 290, 283
362, 375, 373, 318
363, 346, 288, 281
364, 408, 363, 360
365, 396, 391, 347
366, 347, 287, 288
367, 441, 391, 437
368, 348, 283, 287
369, 400, 349, 392
370, 349, 345, 290
371, 431, 430, 381
372, 398, 397, 350
373, 351, 299, 221
374, 358, 291, 293
375, 354, 292, 352
376, 352, 292, 295
377, 353, 296, 300
378, 379, 306, 253
379, 403, 402, 352
380, 358, 293, 354
381, 466, 404, 364
382, 355, 352, 295
383, 451, 411, 401
384, 357, 356, 298
385, 377, 299, 351
386, 448, 405, 447
387, 414, 374, 413
388, 358, 351, 291
389, 579, 359, 526
390, 359, 302, 326
391, 407, 303, 304
392, 409, 346, 408
393, 361, 315, 324
394, 373, 324, 318
395, 523, 522, 489
396, 362, 323, 315
397, 363, 281, 217
398, 363, 309, 360
399, 372, 319, 321
400, 366, 321, 320
401, 367, 317, 316
402, 367, 365, 317
403, 447, 405, 402
404, 372, 321, 366
405, 374, 367, 316
406, 454, 452, 413
407, 369, 313, 368
408, 368, 313, 314
409, 369, 312, 313
410, 385, 382, 338
411, 499, 457, 469
412, 370, 310, 312
413, 399, 395, 343
414, 371, 311, 310
415, 466, 446, 403
416, 372, 364, 319
417, 400, 399, 345
418, 373, 361, 324
419, 374, 316, 323
420, 413, 362, 412
421, 424, 371, 419
422, 424, 375, 371
423, 376, 314, 262
424, 378, 376, 325
425, 377, 357, 299
426, 406, 351, 358
427, 378, 325, 307
428, 378, 279, 335
429, 379, 253, 322
430, 404, 403, 355
431, 380, 339, 274
432, 389, 328, 386
433, 430, 390, 381
434, 381, 329, 331
435, 385, 338, 339
436, 426, 339, 380
437, 429, 416, 368
438, 383, 336, 337
439, 384, 335, 336
440, 384, 336, 383
441, 435, 380, 389
442, 468, 429, 427
443, 386, 328, 333
444, 481, 439, 479
445, 388, 334, 330
446, 397, 342, 350
447, 436, 330, 332
448, 477, 476, 438
449, 473, 386, 434
450, 389, 380, 327
451, 390, 333, 272
452, 390, 329, 381
453, 391, 348, 347
454, 396, 347, 346
455, 415, 412, 361
456, 392, 349, 348
457, 393, 340, 285
458, 439, 344, 395
459, 394, 308, 341
460, 394, 341, 286
461, 395, 344, 343
462, 399, 343, 345
463, 450, 408, 360
464, 450, 409, 408
465, 432, 431, 387
466, 398, 350, 340
467, 472, 431, 471
468, 442, 393, 439
469, 400, 345, 349
470, 463, 419, 458
471, 443, 392, 441
472, 445, 400, 443
473, 493, 411, 451
474, 401, 356, 357
475, 405, 354, 402
476, 402, 354, 352
477, 403, 352, 355
478, 466, 417, 446
479, 404, 379, 322
480, 404, 322, 364
481, 486, 417, 459
482, 406, 358, 405
483, 421, 420, 366
484, 406, 377, 351
485, 407, 360, 303
486, 490, 304, 301
487, 408, 346, 281
488, 450, 360, 407
489, 615, 580, 581
490, 409, 396, 346
491, 449, 377, 406
492, 422, 367, 414
493, 526, 411, 493
494, 622, 411, 526
495, 412, 362, 361
496, 415, 361, 373
497, 492, 451, 465
498, 413, 374, 362
499, 502, 486, 459
500, 414, 367, 374
501, 425, 373, 375
502, 483, 441, 482
503, 418, 369, 416
504, 416, 369, 368
505, 420, 372, 366
506, 420, 417, 372
507, 418, 370, 369
508, 475, 426, 435
509, 458, 418, 457
510, 419, 371, 370
511, 421, 366, 365
512, 486, 446, 417
513, 422, 421, 365
514, 550, 522, 523
515, 422, 365, 367
516, 455, 414, 452
517, 423, 368, 314
518, 423, 314, 376
519, 463, 424, 419
520, 425, 375, 424
521, 445, 444, 399
522, 425, 415, 373
523, 426, 385, 339
524, 435, 389, 433
525, 428, 382, 385
526, 428, 427, 382
527, 469, 468, 427
528, 467, 385, 426
529, 429, 384, 383
530, 429, 383, 427
531, 470, 434, 430
532, 431, 381, 387
533, 432, 387, 388
534, 440, 397, 398
535, 476, 388, 436
536, 514, 477, 440
537, 433, 389, 386
538, 540, 539, 509
539, 434, 386, 333
540, 434, 390, 430
541, 507, 433, 473
542, 435, 426, 380
543, 436, 388, 330
544, 478, 308, 394
545, 437, 391, 396
546, 453, 396, 409
547, 438, 394, 342
548, 477, 438, 397
549, 439, 393, 344
550, 479, 395, 444
551, 514, 513, 477
552, 442, 398, 393
553, 456, 454, 412
554, 441, 392, 391
555, 509, 508, 470
556, 517, 479, 515
557, 460, 456, 415
558, 443, 400, 392
559, 444, 395, 399
560, 445, 399, 400
561, 484, 443, 483
562, 485, 445, 484
563, 447, 402, 446
564, 446, 402, 403
565, 459, 417, 420
566, 448, 406, 405
567, 502, 459, 461
568, 449, 406, 448
569, 462, 422, 455
570, 449, 410, 377
571, 490, 407, 304
572, 525, 451, 492
573, 465, 401, 410
574, 488, 449, 448
575, 452, 414, 413
576, 454, 413, 412
577, 453, 437, 396
578, 580, 553, 554
579, 456, 412, 415
580, 496, 494, 454
581, 530, 495, 527
582, 455, 422, 414
583, 460, 415, 425
584, 528, 527, 494
585, 457, 418, 416
586, 506, 469, 428
587, 464, 424, 463
588, 458, 419, 418
589, 461, 420, 421
590, 461, 459, 420
591, 464, 425, 424
592, 519, 483, 518
593, 462, 461, 421
594, 550, 523, 549
595, 462, 421, 422
596, 495, 452, 494
597, 570, 552, 499
598, 503, 458, 499
599, 520, 484, 519
600, 464, 460, 425
601, 465, 451, 401
602, 489, 410, 449
603, 466, 403, 404
604, 466, 364, 417
605, 467, 428, 385
606, 475, 435, 474
607, 468, 416, 429
608, 469, 427, 428
609, 469, 457, 468
610, 506, 428, 467
611, 508, 507, 473
612, 472, 430, 431
613, 471, 431, 432
614, 543, 514, 480
615, 480, 440, 442
616, 472, 470, 430
617, 473, 433, 386
618, 473, 434, 470
619, 474, 435, 433
620, 546, 515, 545
621, 506, 499, 469
622, 475, 467, 426
623, 476, 432, 388
624, 478, 476, 436
625, 513, 476, 477
626, 477, 397, 440
627, 478, 436, 308
628, 478, 394, 438
629, 479, 439, 395
630, 515, 444, 485
631, 514, 510, 471
632, 481, 480, 442
633, 481, 442, 439
634, 541, 508, 539
635, 482, 441, 437
636, 498, 437, 453
637, 500, 496, 456
638, 483, 443, 441
639, 505, 464, 463
640, 484, 445, 443
641, 505, 463, 503
642, 485, 444, 445
643, 487, 447, 486
644, 486, 447, 446
645, 488, 448, 487
646, 487, 448, 447
647, 501, 462, 497
648, 489, 449, 488
649, 497, 455, 495
650, 489, 465, 410
651, 491, 407, 490
652, 578, 301, 305
653, 559, 491, 529
654, 491, 450, 407
655, 522, 465, 489
656, 615, 604, 587
657, 578, 554, 553
658, 556, 526, 493
659, 494, 452, 454
660, 496, 454, 456
661, 523, 489, 488
662, 495, 455, 452
663, 500, 456, 460
664, 532, 528, 496
665, 521, 487, 502
666, 497, 462, 455
667, 498, 482, 437
668, 529, 491, 524
669, 570, 512, 542
670, 499, 458, 457
671, 504, 460, 464
672, 561, 557, 528
673, 551, 502, 501
674, 501, 461, 462
675, 502, 487, 486
676, 502, 461, 501
677, 505, 504, 464
678, 503, 463, 458
679, 548, 519, 547
680, 504, 500, 460
681, 612, 610, 607
682, 566, 564, 536
683, 512, 467, 475
684, 511, 475, 474
685, 507, 474, 433
686, 508, 473, 470
687, 509, 470, 472
688, 568, 540, 544
689, 510, 509, 472
690, 516, 480, 481
691, 510, 472, 471
692, 543, 516, 540
693, 538, 474, 507
694, 598, 572, 597
695, 512, 506, 467
696, 512, 475, 511
697, 513, 471, 432
698, 513, 432, 476
699, 514, 471, 513
700, 514, 440, 480
701, 515, 479, 444
702, 545, 485, 520
703, 543, 540, 510
704, 517, 516, 481
705, 517, 481, 479
706, 569, 541, 539
707, 518, 483, 482
708, 533, 482, 498
709, 534, 532, 500
710, 519, 484, 483
711, 536, 505, 535
712, 520, 485, 484
713, 523, 488, 521
714, 521, 488, 487
715, 558, 527, 557
716, 522, 492, 465
717, 619, 599, 618
718, 531, 497, 530
719, 524, 491, 490
720, 553, 524, 490
721, 525, 493, 451
722, 605, 584, 600
723, 579, 526, 556
724, 622, 526, 359
725, 527, 495, 494
726, 528, 494, 496
727, 532, 496, 500
728, 585, 583, 557
729, 529, 498, 453
730, 559, 529, 453
731, 551, 549, 521
732, 530, 497, 495
733, 551, 531, 549
734, 531, 501, 497
735, 534, 500, 504
736, 563, 561, 532
737, 533, 518, 482
738, 562, 498, 529
739, 536, 504, 505
740, 588, 585, 561
741, 535, 505, 503
742, 552, 503, 499
743, 593, 566, 582
744, 536, 534, 504
745, 537, 492, 522
746, 589, 575, 550
747, 538, 511, 474
748, 541, 507, 508
749, 539, 508, 509
750, 544, 516, 517
751, 540, 509, 510
752, 544, 540, 516
753, 573, 544, 546
754, 541, 538, 507
755, 574, 566, 535
756, 567, 511, 538
757, 543, 510, 514
758, 543, 480, 516
759, 546, 517, 515
760, 545, 515, 485
761, 572, 520, 548
762, 577, 545, 572
763, 573, 568, 544
764, 546, 544, 517
765, 547, 519, 518
766, 565, 518, 533
767, 564, 563, 534
768, 548, 520, 519
769, 549, 523, 521
770, 589, 531, 560
771, 560, 530, 558
772, 550, 537, 522
773, 551, 521, 502
774, 551, 501, 531
775, 552, 535, 503
776, 570, 499, 506
777, 553, 490, 301
778, 578, 556, 554
779, 554, 493, 525
780, 581, 525, 555
781, 586, 537, 575
782, 555, 525, 492
783, 579, 556, 578
784, 556, 493, 554
785, 557, 527, 528
786, 561, 528, 532
787, 584, 560, 558
788, 558, 530, 527
789, 559, 453, 409
790, 559, 450, 491
791, 589, 549, 531
792, 560, 531, 530
793, 563, 532, 534
794, 617, 608, 616
795, 562, 533, 498
796, 587, 524, 580
797, 564, 534, 536
798, 591, 588, 563
799, 566, 536, 535
800, 607, 593, 602
801, 565, 547, 518
802, 590, 533, 562
803, 574, 535, 552
804, 620, 592, 574
805, 567, 542, 511
806, 571, 538, 541
807, 569, 539, 568
808, 568, 539, 540
809, 577, 573, 546
810, 571, 541, 569
811, 570, 506, 512
812, 620, 574, 552
813, 594, 569, 573
814, 571, 567, 538
815, 572, 545, 520
816, 597, 548, 576
817, 573, 569, 568
818, 577, 546, 545
819, 620, 552, 570
820, 592, 582, 574
821, 575, 537, 550
822, 617, 616, 601
823, 576, 548, 547
824, 595, 547, 565
825, 612, 607, 602
826, 613, 573, 577
827, 578, 553, 301
828, 579, 578, 305
829, 579, 305, 302
830, 579, 302, 359
831, 580, 524, 553
832, 581, 580, 554
833, 581, 554, 525
834, 599, 555, 586
835, 582, 566, 574
836, 614, 602, 582
837, 583, 558, 557
838, 585, 557, 561
839, 589, 584, 575
840, 584, 558, 583
841, 588, 561, 563
842, 603, 601, 585
843, 616, 600, 601
844, 586, 555, 537
845, 587, 562, 529
846, 587, 529, 524
847, 591, 563, 564
848, 609, 603, 606
849, 589, 550, 549
850, 589, 560, 584
851, 590, 565, 533
852, 619, 618, 616
853, 593, 591, 564
854, 606, 603, 588
855, 592, 542, 567
856, 596, 567, 571
857, 593, 564, 566
858, 614, 611, 602
859, 594, 571, 569
860, 613, 611, 594
861, 595, 576, 547
862, 608, 565, 590
863, 596, 592, 567
864, 596, 571, 594
865, 597, 572, 548
866, 610, 606, 607
867, 613, 598, 611
868, 598, 577, 572
869, 599, 581, 555
870, 618, 605, 616
871, 600, 584, 583
872, 601, 600, 583
873, 601, 583, 585
874, 603, 585, 588
875, 602, 593, 582
876, 614, 582, 592
877, 606, 588, 591
878, 617, 603, 609
879, 604, 590, 562
880, 604, 562, 587
881, 605, 586, 575
882, 605, 575, 584
883, 607, 606, 591
884, 610, 609, 606
885, 607, 591, 593
886, 612, 602, 611
887, 608, 595, 565
888, 619, 608, 590
889, 609, 576, 595
890, 617, 609, 595
891, 610, 597, 576
892, 610, 576, 609
893, 611, 596, 594
894, 612, 611, 598
895, 612, 598, 597
896, 612, 597, 610
897, 613, 594, 573
898, 613, 577, 598
899, 614, 592, 596
900, 614, 596, 611
901, 615, 587, 580
902, 615, 581, 599
903, 619, 604, 599
904, 616, 605, 600
905, 617, 595, 608
906, 617, 601, 603
907, 618, 599, 586
908, 618, 586, 605
909, 619, 616, 608
910, 619, 590, 604
911, 620, 570, 542
912, 620, 542, 592
913, 621, 326, 224
914, 622, 621, 294
915, 622, 294, 356
916, 622, 356, 411
 917, 786, 664, 668
 918, 729, 723, 672
 919, 624, 128, 129
 920, 630, 111, 629
 921, 627, 127, 625
 922, 626, 623, 125
 923, 708, 119, 120
 924,  13,   1,  88
 925, 652,  88,  89
 926, 694, 693, 650
 927, 692, 649, 648
 928, 695,  15,  14
 929, 740, 689, 737
 930, 659,  19, 658
 931, 705, 659, 658
 932, 671, 670, 635
 933, 660, 655,  22
 934, 723, 719, 680
 935, 701, 661, 699
 936, 661,  23, 655
 937, 663,  25, 662
 938, 696,  26, 663
 939, 664,  28,  27
 940,  98,  97,   6
 941, 642,  98,  99
 942, 728, 682, 727
 943, 726, 675, 724
 944, 675, 674, 638
 945, 688,  93,  94
 946, 649,  92, 648
 947, 650,  91, 649
 948, 651,  90, 650
 949, 652,  89, 651
 950, 118,   7, 119
 951, 643, 118, 119
 952, 644, 117, 643
 953, 686, 644, 676
 954, 646, 115, 645
 955, 627, 626, 126
 956, 684, 679, 631
 957, 761, 758, 725
 958, 629, 112, 628
 959, 631, 110, 630
 960, 632, 109, 631
 961, 633, 108, 632
 962, 634, 107, 633
 963, 635, 106, 634
 964, 636, 105, 635
 965, 637, 104, 636
 966, 638, 103, 637
 967, 639, 102, 638
 968, 640, 101, 639
 969, 641, 100, 640
 970, 642,  99, 641
 971, 665, 120, 121
 972, 708, 676, 643
 973, 667, 123, 124
 974, 667, 124, 623
 975, 123,   8, 124
 976, 786,   2,  28
 977, 625, 128, 624
 978, 623, 124, 125
 979, 666, 665, 121
 980, 626, 125, 126
 981, 786, 668, 130
 982, 702, 662, 701
 983, 646, 114, 115
 984, 625, 127, 128
 985, 627, 126, 127
 986, 645, 116, 644
 987, 677, 629, 628
 988, 678, 677, 628
 989, 628, 112, 113
 990, 647, 113, 114
 991, 717, 710, 624
 992, 629, 111, 112
 993, 662,  24, 661
 994, 630, 110, 111
 995, 679, 672, 632
 996, 631, 109, 110
 997, 660,  21, 654
 998, 632, 108, 109
 999, 680, 633, 672
1000, 633, 107, 108
1001, 658,  19,  18
1002, 634, 106, 107
1003, 658,  18, 653
1004, 635, 105, 106
1005, 681, 636, 670
1006, 636, 104, 105
1007, 689, 688,  94
1008, 637, 103, 104
1009, 737, 690, 714
1010, 638, 102, 103
1011, 674, 639, 638
1012, 639, 101, 102
1013, 690, 689,  95
1014, 640, 100, 101
1015, 714, 641, 673
1016, 641,  99, 100
1017, 691,  97, 642
1018, 642,  97,  98
1019, 643, 117, 118
1020, 708, 665, 676
1021, 754, 734, 709
1022, 644, 116, 117
1023, 686, 683, 645
1024, 645, 115, 116
1025, 687, 646, 683
1026, 647, 114, 646
1027, 793, 767, 792
1028, 647, 628, 113
1029, 657,  16, 656
1030, 648,  92,  93
1031, 700, 697, 657
1032, 649,  91,  92
1033, 695, 656,  15
1034, 650,  90,  91
1035, 715, 695, 703
1036, 651,  89,  90
1037, 703,  13, 652
1038, 652,  13,  88
1039, 653,  18,  17
1040, 657,  17,  16
1041, 654,  21,  20
1042, 659,  20,  19
1043, 655,  23,  22
1044, 660,  22,  21
1045, 656,  16,  15
1046, 693, 651, 650
1047, 694, 649, 692
1048, 657, 653,  17
1049, 781, 776, 743
1050, 704, 653, 697
1051, 705, 658, 704
1052, 659, 654,  20
1053, 719, 718, 671
1054, 707, 660, 698
1055, 685, 684, 630
1056, 661,  24,  23
1057, 685, 629, 677
1058, 662,  25,  24
1059, 788, 753, 783
1060, 663,  26,  25
1061, 735, 664, 696
1062, 696, 664,  27
1063, 666, 121, 122
1064, 840, 666, 669
1065, 667, 666, 122
1066, 669, 666, 667
1067, 667, 122, 123
1068, 669, 667, 623
1069, 668, 624, 129
1070, 668, 129, 130
1071, 711, 623, 626
1072, 767, 722, 759
1073, 670, 636, 635
1074, 671, 635, 634
1075, 680, 634, 633
1076, 745, 706, 744
1077, 672, 633, 632
1078, 679, 632, 631
1079, 673, 641, 640
1080, 682, 640, 639
1081, 675, 638, 637
1082, 838, 822, 824
1083, 681, 675, 637
1084, 720, 670, 718
1085, 676, 644, 643
1086, 709, 676, 665
1087, 678, 628, 647
1088, 710, 625, 624
1089, 687, 647, 646
1090, 789, 712, 710
1091, 684, 631, 630
1092, 812, 779, 810
1093, 707, 699, 655
1094, 680, 671, 634
1095, 681, 637, 636
1096, 764, 763, 724
1097, 682, 673, 640
1098, 682, 639, 674
1099, 683, 646, 645
1100, 755, 711, 713
1101, 732, 677, 725
1102, 814, 780, 812
1103, 685, 630, 629
1104, 791, 758, 790
1105, 686, 645, 644
1106, 734, 676, 709
1107, 713, 627, 712
1108, 687, 678, 647
1109, 688, 648,  93
1110, 689,  94,  95
1111, 690,  95,  96
1112, 830, 804, 773
1113, 691, 690,  96
1114, 714, 690, 691
1115, 691,  96,  97
1116, 714, 691, 642
1117, 700, 657, 656
1118, 736, 648, 688
1119, 742, 695, 715
1120, 694, 650, 649
1121, 750, 748, 697
1122, 757, 742, 752
1123, 703, 695,  14
1124, 715, 652, 651
1125, 696,  27,  26
1126, 753, 663, 702
1127, 727, 674, 726
1128, 697, 653, 657
1129, 698, 660, 654
1130, 706, 654, 659
1131, 699, 661, 655
1132, 707, 655, 660
1133, 752, 715, 693
1134, 738, 693, 694
1135, 730, 729, 679
1136, 701, 662, 661
1137, 733, 685, 732
1138, 702, 663, 662
1139, 703,  14,  13
1140, 715, 703, 652
1141, 724, 681, 720
1142, 704, 658, 653
1143, 811, 808, 776
1144, 706, 659, 705
1145, 744, 705, 743
1146, 706, 698, 654
1147, 809, 777, 808
1148, 810, 778, 809
1149, 708, 643, 119
1150, 708, 120, 665
1151, 709, 665, 666
1152, 840, 716, 754
1153, 725, 678, 721
1154, 717, 624, 668
1155, 711, 669, 623
1156, 713, 626, 627
1157, 712, 627, 625
1158, 712, 625, 710
1159, 722, 721, 687
1160, 713, 711, 626
1161, 714, 642, 641
1162, 741, 737, 714
1163, 715, 651, 693
1164, 752, 742, 715
1165, 759, 731, 754
1166, 716, 669, 711
1167, 735, 668, 664
1168, 735, 717, 668
1169, 718, 670, 671
1170, 719, 671, 680
1171, 723, 680, 672
1172, 746, 698, 745
1173, 765, 764, 720
1174, 720, 681, 670
1175, 721, 678, 687
1176, 722, 687, 683
1177, 731, 722, 683
1178, 818, 759, 754
1179, 729, 672, 679
1180, 747, 707, 746
1181, 748, 743, 704
1182, 724, 675, 681
1183, 788, 785, 717
1184, 725, 677, 678
1185, 831, 815, 805
1186, 726, 674, 675
1187, 762, 756, 728
1188, 727, 682, 674
1189, 756, 740, 737
1190, 728, 673, 682
1191, 730, 679, 684
1192, 749, 699, 747
1193, 733, 684, 685
1194, 751, 701, 749
1195, 731, 683, 686
1196, 734, 731, 686
1197, 732, 685, 677
1198, 758, 732, 725
1199, 760, 732, 758
1200, 733, 730, 684
1201, 734, 686, 676
1202, 840, 754, 709
1203, 753, 696, 663
1204, 783, 753, 702
1205, 736, 692, 648
1206, 756, 737, 741
1207, 737, 689, 690
1208, 741, 714, 673
1209, 739, 694, 692
1210, 739, 738, 694
1211, 775, 692, 736
1212, 797, 763, 794
1213, 740, 736, 688
1214, 740, 688, 689
1215, 741, 673, 728
1216, 756, 741, 728
1217, 742, 700, 656
1218, 742, 656, 695
1219, 743, 705, 704
1220, 748, 704, 697
1221, 825, 823, 795
1222, 744, 706, 705
1223, 768, 765, 718
1224, 745, 698, 706
1225, 769, 768, 719
1226, 746, 707, 698
1227, 770, 769, 723
1228, 747, 699, 707
1229, 750, 697, 700
1230, 807, 782, 750
1231, 771, 770, 729
1232, 749, 701, 699
1233, 757, 700, 742
1234, 774, 757, 738
1235, 772, 733, 760
1236, 751, 702, 701
1237, 752, 693, 738
1238, 757, 752, 738
1239, 753, 735, 696
1240, 783, 702, 751
1241, 755, 716, 711
1242, 754, 731, 734
1243, 836, 820, 793
1244, 787, 755, 713
1245, 773, 740, 756
1246, 762, 728, 727
1247, 774, 738, 739
1248, 757, 750, 700
1249, 761, 725, 721
1250, 821, 791, 819
1251, 759, 722, 731
1252, 818, 754, 716
1253, 772, 771, 730
1254, 760, 733, 732
1255, 767, 761, 721
1256, 836, 793, 792
1257, 766, 727, 726
1258, 830, 773, 756
1259, 763, 726, 724
1260, 764, 724, 720
1261, 765, 720, 718
1262, 795, 794, 764
1263, 768, 718, 719
1264, 777, 744, 776
1265, 766, 762, 727
1266, 766, 726, 763
1267, 767, 721, 722
1268, 792, 755, 787
1269, 769, 719, 723
1270, 778, 745, 777
1271, 770, 723, 729
1272, 779, 746, 778
1273, 771, 729, 730
1274, 780, 747, 779
1275, 772, 730, 733
1276, 784, 749, 780
1277, 801, 760, 791
1278, 841, 834, 821
1279, 775, 736, 773
1280, 773, 736, 740
1281, 782, 781, 748
1282, 805, 739, 775
1283, 775, 739, 692
1284, 830, 796, 804
1285, 776, 744, 743
1286, 781, 743, 748
1287, 798, 795, 765
1288, 777, 745, 744
1289, 799, 798, 768
1290, 778, 746, 745
1291, 800, 799, 769
1292, 779, 747, 746
1293, 802, 800, 770
1294, 780, 749, 747
1295, 782, 748, 750
1296, 813, 811, 781
1297, 807, 750, 757
1298, 831, 796, 822
1299, 806, 751, 784
1300, 788, 735, 753
1301, 803, 772, 801
1302, 784, 751, 749
1303, 816, 789, 785
1304, 785, 710, 717
1305, 786, 130,   2
1306, 786,  28, 664
1307, 787, 713, 712
1308, 839, 835, 820
1309, 788, 717, 735
1310, 817, 783, 806
1311, 835, 819, 820
1312, 789, 710, 785
1313, 790, 758, 761
1314, 836, 792, 787
1315, 817, 788, 783
1316, 791, 760, 758
1317, 792, 767, 759
1318, 818, 792, 759
1319, 793, 790, 761
1320, 793, 761, 767
1321, 794, 763, 764
1322, 795, 764, 765
1323, 798, 765, 768
1324, 823, 808, 811
1325, 796, 762, 766
1326, 797, 796, 766
1327, 797, 766, 763
1328, 824, 794, 823
1329, 799, 768, 769
1330, 825, 809, 808
1331, 800, 769, 770
1332, 826, 810, 809
1333, 802, 770, 771
1334, 827, 812, 810
1335, 803, 802, 771
1336, 801, 772, 760
1337, 803, 771, 772
1338, 828, 814, 812
1339, 829, 801, 821
1340, 837, 834, 806
1341, 805, 775, 804
1342, 804, 775, 773
1343, 815, 813, 782
1344, 805, 774, 739
1345, 806, 783, 751
1346, 833, 784, 814
1347, 807, 757, 774
1348, 815, 774, 805
1349, 808, 777, 776
1350, 811, 776, 781
1351, 826, 825, 798
1352, 809, 778, 777
1353, 827, 826, 799
1354, 810, 779, 778
1355, 813, 781, 782
1356, 824, 811, 813
1357, 828, 827, 800
1358, 812, 780, 779
1359, 815, 782, 807
1360, 838, 824, 813
1361, 832, 803, 829
1362, 814, 784, 780
1363, 815, 807, 774
1364, 838, 831, 822
1365, 834, 816, 817
1366, 817, 816, 785
1367, 817, 785, 788
1368, 841, 821, 819
1369, 818, 716, 755
1370, 818, 755, 792
1371, 819, 791, 790
1372, 820, 819, 790
1373, 839, 820, 836
1374, 820, 790, 793
1375, 837, 821, 834
1376, 821, 801, 791
1377, 822, 796, 797
1378, 824, 823, 811
1379, 823, 794, 795
1380, 825, 795, 798
1381, 824, 822, 797
1382, 824, 797, 794
1383, 826, 798, 799
1384, 825, 808, 823
1385, 827, 799, 800
1386, 826, 809, 825
1387, 828, 800, 802
1388, 827, 810, 826
1389, 832, 802, 803
1390, 828, 812, 827
1391, 833, 832, 829
1392, 829, 803, 801
1393, 830, 756, 762
1394, 830, 762, 796
1395, 831, 805, 804
1396, 831, 804, 796
1397, 832, 814, 828
1398, 832, 828, 802
1399, 833, 806, 784
1400, 833, 814, 832
1401, 834, 817, 806
1402, 837, 806, 833
1403, 835, 789, 816
1404, 841, 835, 816
1405, 839, 787, 712
1406, 839, 836, 787
1407, 837, 833, 829
1408, 837, 829, 821
1409, 838, 813, 815
1410, 838, 815, 831
1411, 839, 712, 789
1412, 839, 789, 835
1413, 840, 709, 666
1414, 840, 669, 716
1415, 841, 819, 835
1416, 841, 816, 834
1417,  958,  858,  881
1418,  958,  881,  174
1419,  868,  143,  867
1420,  873,  872,   43
1421,  989,   48,   47
1422,  844,  170,  171
1423,  916,  880,  914
1424,  137,   10,  138
1425,  855,  137,  138
1426,  871,  140,  870
1427,  890,  856,  134
1428,  890,  134,  135
1429,  857,  133,  856
1430,  858,  131,  132
1431,  155,   11,  156
1432,  854,  156,  157
1433,  883,  853,  852
1434,  884,  850,  849
1435,  902,  896,  862
1436, 1013,  984,  988
1437,  926,  884,  889
1438,  863,  149,  859
1439,  864,  148,  863
1440,  865,  147,  864
1441,  897,  865,  895
1442,  844,  842,  170
1443,  846,  844,  171
1444,  867,  144,  860
1445,  869,  142,  868
1446,  898,  870,  869
1447,  870,  141,  869
1448, 1018,  138,  139
1449,   48,  167,    4
1450,  847,  167,   48
1451,  878,   47,   46
1452,  885,  882,  164
1453,  955,  885,  886
1454,  882,  163,  164
1455,  849,  162,  848
1456,  850,  161,  849
1457,  851,  160,  850
1458,  852,  159,  851
1459,  853,  158,  852
1460,  854,  157,  853
1461,  909,   46,   45
1462,  989,  878,  957
1463,  910,   44,  872
1464,  872,   44,   43
1465,  879,   41,  874
1466,  899,  859,  896
1467,  880,   39,  875
1468,  975,  940,  971
1469,  899,  863,  859
1470,  923,  845,  917
1471,  923,  877,  876
1472,  845,  168,  169
1473,   36,    3,  168
1474,  958,    9,  131
1475,  846,  172,  843
1476,  845,  169,  842
1477,  877,   38,   37
1478,  842,  169,  170
1479,  843,  172,  173
1480,  891,  857,  856
1481,  846,  171,  172
1482,  973,  972,  936
1483,  876,   36,  168
1484,  876,  168,  845
1485,  901,  867,  860
1486,  979,  935,  976
1487,  886,  885,  165
1488,  847,  166,  167
1489,  862,  151,  861
1490,  848,  162,  163
1491,  894,  152,  153
1492,  849,  161,  162
1493,  946,  921,  925
1494,  850,  160,  161
1495,  928,  888,  927
1496,  851,  159,  160
1497,  903,  894,  153
1498,  852,  158,  159
1499,  921,  853,  883
1500,  853,  157,  158
1501,  904,  155,  854
1502,  854,  155,  156
1503,  892,  136,  855
1504,  855,  136,  137
1505,  856,  133,  134
1506,  976,  937,  972
1507,  932,  922,  893
1508,  857,  132,  133
1509,  893,  857,  891
1510,  858,  132,  857
1511,  859,  149,  150
1512,  862,  150,  151
1513,  860,  144,  145
1514,  866,  145,  146
1515,  861,  151,  152
1516,  959,  925,  929
1517,  888,  850,  884
1518,  862,  859,  150
1519,  943,  900,  899
1520,  863,  148,  149
1521,  953,  914,  952
1522,  864,  147,  148
1523,  866,  146,  865
1524,  865,  146,  147
1525,  906,  866,  897
1526,  866,  860,  145
1527,  907,  867,  901
1528,  867,  143,  144
1529,  938,  898,  935
1530,  868,  142,  143
1531,  908,  870,  898
1532,  869,  141,  142
1533,  956,  892,  933
1534,  870,  140,  141
1535, 1018,  871,  933
1536,  871,  139,  140
1537,  889,  884,  849
1538,  873,   43,   42
1539,  879,   42,   41
1540,  913,  879,  912
1541,  874,   41,   40
1542,  880,   40,   39
1543,  875,   39,   38
1544,  918,  917,  842
1545,  876,   37,   36
1546,  917,  845,  842
1547,  877,  875,   38
1548,  877,   37,  876
1549,  909,  878,   46
1550,  947,  878,  909
1551,  981,  942,  980
1552,  879,  873,   42
1553,  914,  875,  911
1554,  880,  874,   40
1555,  881,  843,  173
1556,  881,  173,  174
1557,  882,  848,  163
1558,  885,  164,  165
1559,  887,  852,  851
1560,  927,  884,  926
1561,  902,  862,  861
1562,  889,  849,  848
1563,  886,  165,  166
1564,  997,  957,  947
1565,  886,  166,  847
1566,  989,  957,  847
1567,  887,  883,  852
1568,  888,  887,  851
1569,  888,  851,  850
1570, 1004,  945,  970
1571,  930,  848,  882
1572,  950,  913,  949
1573,  892,  135,  136
1574,  892,  890,  135
1575,  922,  881,  893
1576,  931,  856,  890
1577,  933,  871,  908
1578, 1005,  972, 1001
1579,  893,  881,  858
1580,  893,  858,  857
1581,  894,  861,  152
1582,  903,  153,  154
1583,  895,  865,  864
1584,  900,  864,  863
1585,  915,  873,  913
1586,  896,  859,  862
1587,  919,  918,  844
1588,  897,  866,  865
1589,  905,  869,  868
1590, 1054,  932,  996
1591, 1066, 1053, 1052
1592,  900,  863,  899
1593,  943,  899,  942
1594,  900,  895,  864
1595,  906,  901,  860
1596,  972,  937,  936
1597,  934,  861,  894
1598,  964,  927,  926
1599,  904,  903,  154
1600,  921,  904,  854
1601,  904,  154,  155
1602,  921,  854,  853
1603,  905,  898,  869
1604,  907,  905,  868
1605,  906,  860,  866
1606, 1059, 1042, 1043
1607,  907,  868,  867
1608,  939,  936,  901
1609,  969,  956,  933
1610,  908,  871,  870
1611,  910,   45,   44
1612,  910,  909,   45
1613,  948,  872,  915
1614,  997,  961,  955
1615,  911,  875,  877
1616,  960,  923,  917
1617,  912,  879,  874
1618,  916,  874,  880
1619, 1010, 1009,  977
1620,  913,  873,  879
1621,  914,  880,  875
1622,  974,  973,  939
1623,  988,  948,  982
1624,  915,  872,  873
1625,  951,  949,  912
1626,  916,  912,  874
1627,  918,  842,  844
1628, 1000,  911,  978
1629,  919,  844,  846
1630, 1002, 1001,  973
1631,  920,  919,  846
1632, 1008,  979,  976
1633,  920,  846,  843
1634,  922,  920,  843
1635,  925,  921,  883
1636,  921,  903,  904
1637,  922,  843,  881
1638,  932,  893,  891
1639,  978,  877,  923
1640,  923,  876,  845
1641,  963,  924,  961
1642,  924,  882,  885
1643,  959,  946,  925
1644,  929,  883,  887
1645,  945,  942,  896
1646,  968,  889,  930
1647,  970,  934,  959
1648,  927,  888,  884
1649,  965,  959,  929
1650,  928,  887,  888
1651,  929,  925,  883
1652,  929,  887,  928
1653,  930,  889,  848
1654,  930,  882,  924
1655,  931,  891,  856
1656,  969,  933,  908
1657,  967,  931,  962
1658,  935,  898,  905
1659,  933,  892,  855
1660, 1018,  933,  855
1661,  934,  902,  861
1662,  946,  934,  894
1663,  937,  905,  907
1664, 1008,  976, 1005
1665,  936,  907,  901
1666,  939,  901,  906
1667,  937,  935,  905
1668,  937,  907,  936
1669,  969,  962,  956
1670,  938,  908,  898
1671,  941,  906,  897
1672, 1002,  973,  974
1673,  940,  897,  895
1674,  944,  895,  900
1675,  941,  939,  906
1676,  941,  897,  940
1677,  942,  899,  896
1678,  945,  896,  902
1679,  977,  971,  944
1680,  944,  900,  943
1681,  986,  985,  949
1682,  944,  940,  895
1683,  970,  902,  934
1684,  966,  927,  964
1685,  946,  894,  903
1686,  946,  903,  921
1687,  954,  909,  910
1688,  948,  910,  872
1689,  982,  915,  950
1690,  984,  947,  954
1691,  949,  913,  912
1692,  951,  912,  916
1693, 1020,  991, 1013
1694,  950,  915,  913
1695,  953,  916,  914
1696,  987,  953,  983
1697,  952,  914,  911
1698, 1000,  978,  960
1699, 1007, 1003,  975
1700,  953,  951,  916
1701,  954,  947,  909
1702,  954,  910,  948
1703,  955,  924,  885
1704,  957,  955,  886
1705,  956,  931,  890
1706,  956,  890,  892
1707,  957,  886,  847
1708,  957,  878,  947
1709,  958,  174,    9
1710,  958,  131,  858
1711,  959,  934,  946
1712,  965,  929,  928
1713,  990,  917,  918
1714, 1006,  952, 1000
1715,  991,  961,  984
1716,  961,  924,  955
1717, 1026, 1001, 1024
1718,  962,  931,  956
1719, 1015,  982, 1012
1720,  963,  930,  924
1721, 1004,  970,  998
1722,  999,  926,  968
1723, 1004,  998,  995
1724,  966,  965,  928
1725,  966,  928,  927
1726, 1021,  999,  993
1727,  967,  932,  891
1728,  967,  891,  931
1729,  968,  926,  889
1730,  968,  930,  963
1731,  969,  908,  938
1732,  969,  938,  962
1733,  970,  945,  902
1734,  998,  959,  965
1735,  971,  940,  944
1736,  977,  944,  943
1737,  973,  936,  939
1738, 1063, 1008, 1027
1739,  974,  939,  941
1740, 1037, 1019,  990
1741,  975,  941,  940
1742,  975,  974,  941
1743,  987,  986,  951
1744, 1003, 1002,  974
1745,  992,  962,  979
1746,  976,  935,  937
1747,  981,  943,  942
1748, 1031, 1030, 1009
1749,  978,  911,  877
1750,  978,  923,  960
1751,  979,  962,  938
1752,  979,  938,  935
1753,  980,  942,  945
1754,  994,  966,  964
1755, 1011, 1010,  981
1756,  981,  977,  943
1757,  982,  948,  915
1758, 1012,  950,  985
1759,  983,  953,  952
1760, 1019, 1000,  960
1761,  997,  984,  961
1762,  988,  984,  954
1763,  985,  950,  949
1764,  986,  949,  951
1765,  987,  951,  953
1766, 1009, 1007,  971
1767, 1028, 1025, 1003
1768, 1017, 1016,  986
1769,  988,  954,  948
1770, 1015, 1013,  988
1771,  989,  847,   48
1772,  989,   47,  878
1773,  990,  960,  917
1774, 1040, 1037,  918
1775,  993,  963,  991
1776,  991,  963,  961
1777,  996,  967,  992
1778,  992,  967,  962
1779, 1034, 1012, 1033
1780,  993,  968,  963
1781, 1047, 1045, 1022
1782, 1023,  964,  999
1783,  995,  965,  966
1784,  995,  966,  994
1785, 1054,  922,  932
1786,  996,  932,  967
1787,  997,  955,  957
1788,  997,  947,  984
1789,  998,  970,  959
1790,  998,  965,  995
1791,  999,  964,  926
1792,  999,  968,  993
1793, 1000,  952,  911
1794, 1019,  960,  990
1795, 1044, 1026, 1042
1796, 1001,  972,  973
1797, 1003,  974,  975
1798, 1025, 1024, 1002
1799, 1007,  975,  971
1800, 1062, 1055, 1059
1801, 1022, 1004,  995
1802, 1004,  980,  945
1803, 1027, 1008, 1005
1804, 1005,  976,  972
1805, 1006,  983,  952
1806, 1019, 1006, 1000
1807, 1009,  971,  977
1808, 1030, 1028, 1007
1809, 1008,  996,  992
1810, 1008,  992,  979
1811, 1010,  977,  981
1812, 1017,  987, 1014
1813, 1011,  981,  980
1814, 1032, 1031, 1010
1815, 1045, 1004, 1022
1816, 1053, 1038, 1034
1817, 1012,  982,  950
1818, 1033,  985, 1016
1819, 1013,  991,  984
1820, 1015,  988,  982
1821, 1014,  987,  983
1822, 1029,  983, 1006
1823, 1066, 1051, 1064
1824, 1020, 1013, 1015
1825, 1016,  985,  986
1826, 1017,  986,  987
1827, 1071, 1049, 1060
1828, 1070, 1050, 1067
1829, 1018,  855,  138
1830, 1018,  139,  871
1831, 1068, 1059, 1055
1832, 1043, 1042, 1024
1833, 1021,  993, 1020
1834, 1020,  993,  991
1835, 1038, 1020, 1034
1836, 1053, 1034, 1033
1837, 1022,  995,  994
1838, 1041,  994, 1023
1839, 1023,  994,  964
1840, 1023,  999, 1021
1841, 1024, 1001, 1002
1842, 1025, 1002, 1003
1843, 1028, 1003, 1007
1844, 1046, 1043, 1025
1845, 1061, 1058, 1044
1846, 1026, 1005, 1001
1847, 1063, 1054,  996
1848, 1027, 1005, 1026
1849, 1030, 1007, 1009
1850, 1071, 1060, 1046
1851, 1029, 1014,  983
1852, 1069, 1006, 1019
1853, 1031, 1009, 1010
1854, 1070, 1067, 1036
1855, 1032, 1010, 1011
1856, 1036, 1017, 1035
1857, 1047, 1011, 1045
1858, 1066, 1064, 1057
1859, 1033, 1012,  985
1860, 1052, 1016, 1036
1861, 1034, 1020, 1015
1862, 1034, 1015, 1012
1863, 1035, 1017, 1014
1864, 1049, 1014, 1029
1865, 1051, 1050, 1031
1866, 1036, 1016, 1017
1867, 1037,  990,  918
1868, 1040,  918,  919
1869, 1039, 1021, 1038
1870, 1038, 1021, 1020
1871, 1057, 1039, 1053
1872, 1039, 1023, 1021
1873, 1061,  920, 1054
1874, 1068, 1055, 1056
1875, 1041, 1022,  994
1876, 1041, 1023, 1039
1877, 1042, 1026, 1024
1878, 1043, 1024, 1025
1879, 1046, 1025, 1028
1880, 1065, 1059, 1060
1881, 1068, 1056, 1044
1882, 1044, 1027, 1026
1883, 1045, 1011,  980
1884, 1045,  980, 1004
1885, 1048, 1046, 1028
1886, 1071, 1046, 1048
1887, 1047, 1032, 1011
1888, 1047, 1022, 1041
1889, 1048, 1028, 1030
1890, 1050, 1048, 1030
1891, 1049, 1035, 1014
1892, 1065, 1062, 1059
1893, 1050, 1030, 1031
1894, 1051, 1031, 1032
1895, 1064, 1047, 1057
1896, 1067, 1051, 1066
1897, 1052, 1033, 1016
1898, 1067, 1052, 1036
1899, 1053, 1039, 1038
1900, 1053, 1033, 1052
1901, 1054,  920,  922
1902, 1063, 1058, 1054
1903, 1055, 1037, 1040
1904, 1056, 1055, 1040
1905, 1056, 1040,  919
1906, 1056,  919,  920
1907, 1057, 1047, 1041
1908, 1057, 1041, 1039
1909, 1058, 1027, 1044
1910, 1061, 1044, 1056
1911, 1060, 1059, 1043
1912, 1069, 1062, 1065
1913, 1060, 1043, 1046
1914, 1065, 1049, 1029
1915, 1061, 1056,  920
1916, 1061, 1054, 1058
1917, 1062, 1019, 1037
1918, 1062, 1037, 1055
1919, 1063,  996, 1008
1920, 1063, 1027, 1058
1921, 1064, 1051, 1032
1922, 1064, 1032, 1047
1923, 1065, 1060, 1049
1924, 1069, 1065, 1029
1925, 1066, 1057, 1053
1926, 1067, 1066, 1052
1927, 1070, 1036, 1035
1928, 1067, 1050, 1051
1929, 1068, 1044, 1042
1930, 1068, 1042, 1059
1931, 1069, 1029, 1006
1932, 1069, 1019, 1062
1933, 1071, 1070, 1035
1934, 1070, 1048, 1050
1935, 1071, 1048, 1070
1936, 1071, 1035, 1049
1937, 1110,  134, 1076
1938, 1138, 1076, 1111
1939, 1088,  190, 1087
1940, 1125, 1119, 1082
1941, 1084,  181,  123
1942, 1074,  180, 1073
1943, 1075,  137,  136
1944, 1076,  134,  133
1945, 1098,  199, 1097
1946, 1128, 1081, 1120
1947, 1077,  177, 1072
1948, 1128, 1078, 1079
1949, 1081,  175,  176
1950,  131,    9,  175
1951,  181,    8,  123
1952, 1080,  179, 1074
1953, 1081, 1079,  175
1954,  119,    7,  182
1955, 1095,  119,  182
1956, 1118,  119, 1095
1957, 1083,  121, 1082
1958, 1084,  123,  122
1959,  194,  193,   12
1960, 1085,  193,  194
1961, 1101,  196, 1100
1962, 1086,  191,  192
1963, 1113, 1099, 1098
1964, 1089,  189, 1088
1965, 1102, 1089, 1088
1966, 1090,  188, 1089
1967, 1103, 1091, 1090
1968, 1093,  185, 1092
1969, 1094,  184, 1093
1970, 1125, 1095, 1094
1971,  203,   10,  137
1972, 1075,  203,  137
1973, 1116, 1096,  202
1974, 1143, 1139, 1112
1975, 1112,  201, 1096
1976, 1164, 1157, 1158
1977, 1114, 1113, 1098
1978, 1099,  198, 1098
1979, 1135, 1133, 1109
1980, 1144,  194,  195
1981, 1072,  177,  178
1982, 1080,  178,  179
1983, 1073,  180,  181
1984, 1104, 1093, 1092
1985, 1092,  186, 1091
1986, 1074,  179,  180
1987, 1116,  203, 1075
1988, 1137,  135, 1110
1989, 1112, 1097,  200
1990, 1078,  133,  132
1991, 1077,  176,  177
1992, 1133, 1132, 1102
1993, 1078, 1076,  133
1994, 1079, 1078,  132
1995, 1079,  132,  131
1996, 1079,  131,  175
1997, 1091,  187, 1090
1998, 1080, 1072,  178
1999, 1081,  176, 1077
2000, 1120, 1081, 1077
2001, 1082,  121,  120
2002, 1148, 1136, 1134
2003, 1183, 1119, 1172
2004, 1083,  122,  121
2005, 1084, 1073,  181
2006, 1084,  122, 1083
2007, 1086,  192, 1085
2008, 1085,  192,  193
2009, 1100,  197, 1099
2010, 1087,  191, 1086
2011, 1150, 1133, 1149
2012, 1087,  190,  191
2013, 1124, 1122, 1072
2014, 1088,  189,  190
2015, 1105, 1089, 1102
2016, 1089,  188,  189
2017, 1134, 1106, 1130
2018, 1090,  187,  188
2019, 1106, 1091, 1103
2020, 1091,  186,  187
2021, 1163, 1162, 1148
2022, 1092,  185,  186
2023, 1107, 1093, 1104
2024, 1093,  184,  185
2025, 1125, 1094, 1107
2026, 1094,  183,  184
2027, 1095,  182,  183
2028, 1095,  183, 1094
2029, 1096,  201,  202
2030, 1161, 1138, 1154
2031, 1097,  199,  200
2032, 1154, 1138, 1111
2033, 1126, 1108, 1086
2034, 1098,  198,  199
2035, 1144, 1126, 1085
2036, 1099,  197,  198
2037, 1117, 1101, 1100
2038, 1100,  196,  197
2039, 1144, 1101, 1126
2040, 1101,  195,  196
2041, 1124, 1080, 1121
2042, 1109, 1088, 1087
2043, 1105, 1103, 1090
2044, 1147, 1134, 1130
2045, 1106, 1104, 1092
2046, 1183, 1073, 1084
2047, 1105, 1090, 1089
2048, 1132, 1131, 1105
2049, 1106, 1092, 1091
2050, 1131, 1130, 1103
2051, 1125, 1118, 1095
2052, 1107, 1094, 1093
2053, 1108, 1087, 1086
2054, 1115, 1099, 1113
2055, 1109, 1102, 1088
2056, 1109, 1087, 1108
2057, 1155, 1110, 1138
2058, 1110,  135,  134
2059, 1111, 1076, 1078
2060, 1122, 1120, 1077
2061, 1112,  200,  201
2062, 1143, 1096, 1127
2063, 1114, 1098, 1097
2064, 1151, 1132, 1150
2065, 1139, 1097, 1112
2066, 1187, 1182, 1179
2067, 1141, 1113, 1140
2068, 1115, 1100, 1099
2069, 1116,  202,  203
2070, 1127, 1116, 1075
2071, 1153, 1126, 1117
2072, 1117, 1100, 1115
2073, 1118, 1082,  120
2074, 1118,  120,  119
2075, 1183, 1172, 1123
2076, 1119, 1083, 1082
2077, 1146, 1128, 1120
2078, 1122, 1077, 1072
2079, 1121, 1080, 1074
2080, 1123, 1121, 1074
2081, 1124, 1072, 1080
2082, 1182, 1177, 1179
2083, 1123, 1074, 1073
2084, 1145, 1119, 1129
2085, 1165, 1147, 1152
2086, 1165, 1163, 1147
2087, 1129, 1125, 1107
2088, 1125, 1082, 1118
2089, 1126, 1086, 1085
2090, 1126, 1101, 1117
2091, 1127, 1096, 1116
2092, 1137, 1127, 1075
2093, 1128, 1111, 1078
2094, 1128, 1079, 1081
2095, 1129, 1119, 1125
2096, 1136, 1107, 1104
2097, 1130, 1106, 1103
2098, 1131, 1103, 1105
2099, 1132, 1105, 1102
2100, 1166, 1150, 1164
2101, 1133, 1102, 1109
2102, 1149, 1135, 1142
2103, 1135, 1109, 1108
2104, 1157, 1149, 1142
2105, 1172, 1162, 1123
2106, 1134, 1104, 1106
2107, 1153, 1135, 1108
2108, 1142, 1117, 1115
2109, 1136, 1129, 1107
2110, 1136, 1104, 1134
2111, 1137, 1075,  136
2112, 1137,  136,  135
2113, 1138, 1110, 1076
2114, 1169, 1168, 1156
2115, 1139, 1114, 1097
2116, 1143, 1112, 1096
2117, 1140, 1113, 1114
2118, 1156, 1114, 1139
2119, 1157, 1142, 1141
2120, 1141, 1115, 1113
2121, 1153, 1142, 1135
2122, 1142, 1115, 1141
2123, 1160, 1127, 1155
2124, 1161, 1160, 1155
2125, 1144, 1085,  194
2126, 1144,  195, 1101
2127, 1172, 1145, 1162
2128, 1145, 1129, 1136
2129, 1146, 1111, 1128
2130, 1170, 1120, 1122
2131, 1152, 1130, 1131
2132, 1163, 1148, 1147
2133, 1148, 1145, 1136
2134, 1148, 1134, 1147
2135, 1164, 1149, 1157
2136, 1149, 1133, 1135
2137, 1176, 1175, 1167
2138, 1150, 1132, 1133
2139, 1166, 1151, 1150
2140, 1151, 1131, 1132
2141, 1152, 1147, 1130
2142, 1152, 1131, 1151
2143, 1153, 1108, 1126
2144, 1153, 1117, 1142
2145, 1168, 1158, 1140
2146, 1154, 1111, 1146
2147, 1155, 1127, 1137
2148, 1155, 1137, 1110
2149, 1156, 1140, 1114
2150, 1159, 1156, 1139
2151, 1158, 1141, 1140
2152, 1158, 1157, 1141
2153, 1168, 1140, 1156
2154, 1182, 1178, 1177
2155, 1159, 1139, 1143
2156, 1160, 1159, 1143
2157, 1160, 1143, 1127
2158, 1161, 1155, 1138
2159, 1173, 1161, 1154
2160, 1161, 1159, 1160
2161, 1171, 1123, 1162
2162, 1162, 1145, 1148
2163, 1174, 1163, 1165
2164, 1171, 1162, 1163
2165, 1184, 1174, 1175
2166, 1164, 1150, 1149
2167, 1167, 1152, 1151
2168, 1174, 1171, 1163
2169, 1177, 1164, 1158
2170, 1175, 1174, 1165
2171, 1167, 1165, 1152
2172, 1167, 1151, 1166
2173, 1169, 1156, 1159
2174, 1187, 1173, 1180
2175, 1173, 1159, 1161
2176, 1173, 1169, 1159
2177, 1170, 1146, 1120
2178, 1185, 1181, 1184
2179, 1171, 1124, 1121
2180, 1171, 1121, 1123
2181, 1183, 1123, 1073
2182, 1172, 1119, 1145
2183, 1180, 1154, 1146
2184, 1180, 1146, 1170
2185, 1175, 1165, 1167
2186, 1174, 1124, 1171
2187, 1176, 1167, 1166
2188, 1184, 1181, 1124
2189, 1178, 1164, 1177
2190, 1186, 1185, 1182
2191, 1177, 1158, 1168
2192, 1179, 1177, 1168
2193, 1178, 1176, 1166
2194, 1178, 1166, 1164
2195, 1179, 1168, 1169
2196, 1179, 1169, 1173
2197, 1180, 1173, 1154
2198, 1186, 1170, 1181
2199, 1181, 1170, 1122
2200, 1181, 1122, 1124
2201, 1182, 1176, 1178
2202, 1187, 1186, 1182
2203, 1183, 1084, 1083
2204, 1183, 1083, 1119
2205, 1184, 1124, 1174
2206, 1185, 1184, 1175
2207, 1185, 1175, 1176
2208, 1185, 1176, 1182
2209, 1186, 1180, 1170
2210, 1186, 1181, 1185
2211, 1187, 1179, 1173
2212, 1187, 1180, 1186
*Orientation, name=Ori-1
1., 0., 0., 0., 1., 0.
3, 0.
** Region: (CompositeLayup-1-1: Generated From Layup)
*Elset, elset=CompositeLayup-1-1, generate
    1,  2212,     1
** Section: CompositeLayup-1-1
*Shell Section, elset=CompositeLayup-1-1, composite, orientation=Ori-1, layup=CompositeLayup-1
0.25, 1, ABQ_PLY_FABRIC, 45., Ply-1
0.25, 1, ABQ_PLY_FABRIC, -45., Ply-2
0.25, 1, ABQ_PLY_FABRIC, -45., Ply-3
0.25, 1, ABQ_PLY_FABRIC, 45., Ply-4
*End Part
**  
**
** ASSEMBLY
**
*Assembly, name=Assembly
**  
*Instance, name=Plate-1, part=PLATE
*End Instance
**  
*Nset, nset=Set-1, instance=Plate-1
   6,   7,  12,  98,  99, 100, 101, 102, 103, 104, 105, 106, 107, 108, 109, 110
 111, 112, 113, 114, 115, 116, 117, 118, 182, 183, 184, 185, 186, 187, 188, 189
 190, 191, 192, 193
*Elset, elset=Set-1, instance=Plate-1
  940,  941,  950,  983,  989,  990,  992,  994,  996,  998, 1000, 1002, 1004, 1006, 1008, 1010
 1012, 1014, 1016, 1019, 1022, 1024, 1954, 1959, 1962, 2008, 2012, 2014, 2016, 2018, 2020, 2022
 2024, 2026, 2027
*Nset, nset=Set-2, instance=Plate-1
   4,   5,  11,  49,  50,  51,  52,  53,  54,  55,  56,  57,  58,  59,  60,  61
  62,  63,  64,  65,  66,  67,  68,  69, 156, 157, 158, 159, 160, 161, 162, 163
 164, 165, 166, 167
*Elset, elset=Set-2, instance=Plate-1
   27,   28,   40,  123,  124,  126,  128,  130,  132,  134,  136,  138,  140,  142,  144,  146
  148,  150,  152,  154,  156,  209, 1431, 1432, 1449, 1454, 1488, 1490, 1492, 1494, 1496, 1498
 1500, 1558, 1563
*End Assembly
*Amplitude, name=Ramp, time=TOTAL TIME
             0.,              0.,            0.01,              1.
** 
** MATERIALS
** 
*Material, name=ABQ_PLY_FABRIC
*Density
 1.594e-09,
*Depvar, delete=16
     16,
*User Material, constants=40
27500., 27500.,   0.11,  2900., 27500., 27500.,   0.11,     0.
   604.,   291.,   604.,   291.,    75.,     0.,     0.,     0.
 20.438, 4.6257, 20.438, 4.6257, 0.3221,     1.,     0.,     0.
    75., 0.0008,  0.552,     0.,     0.,     0.,     0.,     0.
     0.,     1.,  1e+09,  1e+09, -1e+09,     0.,     0.,     0.
** ----------------------------------------------------------------
** 
** STEP: Step-1
** 
*Step, name=Step-1, nlgeom=NO
*Dynamic, Explicit
, 0.01
*Bulk Viscosity
0.06, 1.2
** 
** BOUNDARY CONDITIONS
** 
** Name: BC-1 Type: Symmetry/Antisymmetry/Encastre
*Boundary
Set-1, ENCASTRE
** Name: BC-2 Type: Displacement/Rotation
*Boundary, amplitude=Ramp
Set-2, 1, 1, 1.52632
** 
** OUTPUT REQUESTS
** 
*Restart, write, number interval=1, time marks=NO
** 
** FIELD OUTPUT: F-Output-1
** 
*Output, field, number interval=1
*Element Output, position=NODES, directions=YES
LE, PEEQ, SDV
** 
** HISTORY OUTPUT: H-Output-1
** 
*Output, history, variable=PRESELECT
*End Step
