*Heading
** Job name: Plate_nonlinear_359 Model name: Model-1
** Generated by: Abaqus/CAE 2024.HF3
*Preprint, echo=NO, model=NO, history=NO, contact=NO
**
** PARTS
**
*Part, name=PLATE
*Node
      1,   92.3469009,   119.938789,           0.
      2,   92.3469009,   86.2968063,           0.
      3,   108.679413,   69.9642944,           0.
      4,    158.30896,   69.9642944,           0.
      5,    158.30896,   119.938789,           0.
      6,           0.,   119.938789,           0.
      7,           0.,   69.9642944,           0.
      8,   76.0143814,   69.9642944,           0.
      9,   92.3469009,   53.6317749,           0.
     10,   92.3469009,           0.,           0.
     11,    158.30896,           0.,           0.
     12,           0.,           0.,           0.
     13,   92.3469009,   115.733536,           0.
     14,   92.3469009,    111.52829,           0.
     15,   92.3469009,   107.323044,           0.
     16,   92.3469009,   103.117798,           0.
     17,   92.3469009,   98.9125519,           0.
     18,   92.3469009,   94.7072983,           0.
     19,   92.3469009,   90.5020523,           0.
     20,   96.5740662,   85.7402878,           0.
     21,   100.513153,   84.1086655,           0.
     22,   103.895729,   81.5131226,           0.
     23,   106.491272,   78.1305466,           0.
     24,   108.122894,   74.1914597,           0.
     25,   112.815208,   69.9642944,           0.
     26,   116.951004,   69.9642944,           0.
     27,     121.0868,   69.9642944,           0.
     28,   125.222595,   69.9642944,           0.
     29,   129.358398,   69.9642944,           0.
     30,   133.494186,   69.9642944,           0.
     31,    137.62999,   69.9642944,           0.
     32,   141.765778,   69.9642944,           0.
     33,   145.901581,   69.9642944,           0.
     34,   150.037369,   69.9642944,           0.
     35,   154.173172,   69.9642944,           0.
     36,    158.30896,     74.12883,           0.
     37,    158.30896,   78.2933731,           0.
     38,    158.30896,   82.4579163,           0.
     39,    158.30896,   86.6224594,           0.
     40,    158.30896,   90.7869949,           0.
     41,    158.30896,   94.9515381,           0.
     42,    158.30896,   99.1160812,           0.
     43,    158.30896,   103.280624,           0.
     44,    158.30896,    107.44516,           0.
     45,    158.30896,   111.609703,           0.
     46,    158.30896,   115.774246,           0.
     47,   153.911499,   119.938789,           0.
     48,   149.514023,   119.938789,           0.
     49,   145.116547,   119.938789,           0.
     50,   140.719086,   119.938789,           0.
     51,   136.321609,   119.938789,           0.
     52,   131.924133,   119.938789,           0.
     53,   127.526665,   119.938789,           0.
     54,   123.129196,   119.938789,           0.
     55,   118.731728,   119.938789,           0.
     56,   114.334251,   119.938789,           0.
     57,   109.936783,   119.938789,           0.
     58,   105.539314,   119.938789,           0.
     59,   101.141838,   119.938789,           0.
     60,   96.7443695,   119.938789,           0.
     61,   88.1493073,   119.938789,           0.
     62,   83.9517212,   119.938789,           0.
     63,   79.7541351,   119.938789,           0.
     64,   75.5565491,   119.938789,           0.
     65,    71.358963,   119.938789,           0.
     66,    67.161377,   119.938789,           0.
     67,   62.9637947,   119.938789,           0.
     68,   58.7662086,   119.938789,           0.
     69,   54.5686226,   119.938789,           0.
     70,   50.3710365,   119.938789,           0.
     71,   46.1734505,   119.938789,           0.
     72,   41.9758606,   119.938789,           0.
     73,   37.7782745,   119.938789,           0.
     74,   33.5806885,   119.938789,           0.
     75,   29.3831043,   119.938789,           0.
     76,   25.1855183,   119.938789,           0.
     77,   20.9879303,   119.938789,           0.
     78,   16.7903442,   119.938789,           0.
     79,   12.5927591,   119.938789,           0.
     80,   8.39517212,   119.938789,           0.
     81,   4.19758606,   119.938789,           0.
     82,           0.,   115.774246,           0.
     83,           0.,   111.609703,           0.
     84,           0.,    107.44516,           0.
     85,           0.,   103.280624,           0.
     86,           0.,   99.1160812,           0.
     87,           0.,   94.9515381,           0.
     88,           0.,   90.7869949,           0.
     89,           0.,   86.6224594,           0.
     90,           0.,   82.4579163,           0.
     91,           0.,   78.2933731,           0.
     92,           0.,     74.12883,           0.
     93,   4.22302103,   69.9642944,           0.
     94,   8.44604206,   69.9642944,           0.
     95,   12.6690636,   69.9642944,           0.
     96,   16.8920841,   69.9642944,           0.
     97,   21.1151066,   69.9642944,           0.
     98,   25.3381271,   69.9642944,           0.
     99,   29.5611477,   69.9642944,           0.
    100,   33.7841682,   69.9642944,           0.
    101,   38.0071907,   69.9642944,           0.
    102,   42.2302132,   69.9642944,           0.
    103,   46.4532318,   69.9642944,           0.
    104,   50.6762543,   69.9642944,           0.
    105,   54.8992767,   69.9642944,           0.
    106,   59.1222954,   69.9642944,           0.
    107,   63.3453178,   69.9642944,           0.
    108,   67.5683365,   69.9642944,           0.
    109,   71.7913589,   69.9642944,           0.
    110,      76.5709,   74.1914597,           0.
    111,   78.2025223,   78.1305466,           0.
    112,   80.7980652,   81.5131226,           0.
    113,   84.1806412,   84.1086655,           0.
    114,   88.1197281,   85.7402878,           0.
    115,   92.3469009,   49.5062561,           0.
    116,   92.3469009,   45.3807335,           0.
    117,   92.3469009,   41.2552109,           0.
    118,   92.3469009,   37.1296921,           0.
    119,   92.3469009,   33.0041695,           0.
    120,   92.3469009,   28.8786488,           0.
    121,   92.3469009,   24.7531281,           0.
    122,   92.3469009,   20.6276054,           0.
    123,   92.3469009,   16.5020847,           0.
    124,   92.3469009,    12.376564,           0.
    125,   92.3469009,   8.25104237,           0.
    126,   92.3469009,   4.12552118,           0.
    127,   96.7443695,           0.,           0.
    128,   101.141838,           0.,           0.
    129,   105.539314,           0.,           0.
    130,   109.936783,           0.,           0.
    131,   114.334251,           0.,           0.
    132,   118.731728,           0.,           0.
    133,   123.129196,           0.,           0.
    134,   127.526665,           0.,           0.
    135,   131.924133,           0.,           0.
    136,   136.321609,           0.,           0.
    137,   140.719086,           0.,           0.
    138,   145.116547,           0.,           0.
    139,   149.514023,           0.,           0.
    140,   153.911499,           0.,           0.
    141,    158.30896,    4.3727684,           0.
    142,    158.30896,    8.7455368,           0.
    143,    158.30896,   13.1183043,           0.
    144,    158.30896,   17.4910736,           0.
    145,    158.30896,    21.863842,           0.
    146,    158.30896,   26.2366085,           0.
    147,    158.30896,   30.6093769,           0.
    148,    158.30896,   34.9821472,           0.
    149,    158.30896,   39.3549156,           0.
    150,    158.30896,    43.727684,           0.
    151,    158.30896,   48.1004486,           0.
    152,    158.30896,    52.473217,           0.
    153,    158.30896,   56.8459854,           0.
    154,    158.30896,   61.2187538,           0.
    155,    158.30896,   65.5915222,           0.
    156,   108.122894,   65.7371292,           0.
    157,   106.491272,   61.7980347,           0.
    158,   103.895729,   58.4154587,           0.
    159,   100.513153,   55.8199196,           0.
    160,   96.5740662,   54.1882935,           0.
    161,   88.1197281,   54.1882935,           0.
    162,   84.1806412,   55.8199196,           0.
    163,   80.7980652,   58.4154587,           0.
    164,   78.2025223,   61.7980347,           0.
    165,      76.5709,   65.7371292,           0.
    166,           0.,   65.5915222,           0.
    167,           0.,   61.2187538,           0.
    168,           0.,   56.8459854,           0.
    169,           0.,    52.473217,           0.
    170,           0.,   48.1004486,           0.
    171,           0.,    43.727684,           0.
    172,           0.,   39.3549156,           0.
    173,           0.,   34.9821472,           0.
    174,           0.,   30.6093769,           0.
    175,           0.,   26.2366085,           0.
    176,           0.,    21.863842,           0.
    177,           0.,   17.4910736,           0.
    178,           0.,   13.1183043,           0.
    179,           0.,    8.7455368,           0.
    180,           0.,    4.3727684,           0.
    181,   4.19758606,           0.,           0.
    182,   8.39517212,           0.,           0.
    183,   12.5927591,           0.,           0.
    184,   16.7903442,           0.,           0.
    185,   20.9879303,           0.,           0.
    186,   25.1855183,           0.,           0.
    187,   29.3831043,           0.,           0.
    188,   33.5806885,           0.,           0.
    189,   37.7782745,           0.,           0.
    190,   41.9758606,           0.,           0.
    191,   46.1734505,           0.,           0.
    192,   50.3710365,           0.,           0.
    193,   54.5686226,           0.,           0.
    194,   58.7662086,           0.,           0.
    195,   62.9637947,           0.,           0.
    196,    67.161377,           0.,           0.
    197,    71.358963,           0.,           0.
    198,   75.5565491,           0.,           0.
    199,   79.7541351,           0.,           0.
    200,   83.9517212,           0.,           0.
    201,   88.1493073,           0.,           0.
    202,   131.427139,   73.5568695,           0.
    203,   96.2777939,   114.253189,           0.
    204,   108.104118,   81.7889633,           0.
    205,   96.0377426,   100.967957,           0.
    206,   104.731781,   85.3549423,           0.
    207,   96.1021423,   96.6536026,           0.
    208,   96.1217804,   92.3024979,           0.
    209,   95.5684128,   88.7704468,           0.
    210,   111.140755,    77.258667,           0.
    211,   100.417831,   89.0798492,           0.
    212,   139.698975,   73.5509415,           0.
    213,   135.563766,    73.554863,           0.
    214,   127.291267,   73.5602951,           0.
    215,   123.135994,   73.5835342,           0.
    216,   118.852669,   73.6906128,           0.
    217,   114.519234,   73.6144485,           0.
    218,   154.401932,   114.242622,           0.
    219,   154.472473,   109.710983,           0.
    220,   154.630585,   105.394714,           0.
    221,    154.67334,   101.202484,           0.
    222,    154.68689,   97.0332413,           0.
    223,    154.69397,    92.868248,           0.
    224,   154.694183,   88.6962433,           0.
    225,   154.632965,   84.4248962,           0.
    226,   154.507263,   80.0269318,           0.
    227,   154.508392,   75.4930496,           0.
    228,    103.30909,   116.180992,           0.
    229,   107.704231,   116.155235,           0.
    230,   112.125351,   116.144272,           0.
    231,   116.531189,   116.140335,           0.
    232,   120.930275,   116.139931,           0.
    233,   125.328285,   116.141136,           0.
    234,   129.726074,    116.14357,           0.
    235,   134.123795,   116.146973,           0.
    236,   138.527969,   116.152084,           0.
    237,   142.980545,   116.127686,           0.
    238,   147.373459,   116.156189,           0.
    239,   143.814926,   73.5284424,           0.
    240,   125.201981,   77.2066269,           0.
    241,    116.31279,    78.101593,           0.
    242,   147.895386,   73.5177383,           0.
    243,   120.956383,   77.4122467,           0.
    244,   137.615555,   77.1585846,           0.
    245,   151.396683,    73.265831,           0.
    246,   129.358749,   77.1726074,           0.
    247,   133.496567,   77.1604385,           0.
    248,    150.95314,   82.1789703,           0.
    249,   151.048401,   99.1088562,           0.
    250,   150.991608,   103.316696,           0.
    251,   151.073029,   90.7607803,           0.
    252,   151.043503,   86.4812012,           0.
    253,   150.821671,   107.542068,           0.
    254,   151.063095,   94.9386444,           0.
    255,   96.0590591,   105.224014,           0.
    256,   99.9951782,   94.3129501,           0.
    257,   99.8270798,   98.7372894,           0.
    258,   111.055504,   72.9986343,           0.
    259,   99.5954437,   116.485703,           0.
    260,   123.130585,   112.351318,           0.
    261,   131.928528,   112.364021,           0.
    262,   105.309906,   112.252213,           0.
    263,   136.335983,   112.375671,           0.
    264,   145.350494,   112.337082,           0.
    265,   114.326279,    112.35218,           0.
    266,   127.529839,   112.358597,           0.
    267,   109.805305,   112.216362,           0.
    268,   118.730522,   112.351402,           0.
    269,   140.853577,   112.283539,           0.
    270,   150.135193,   112.218124,           0.
    271,   150.403732,   77.4358292,           0.
    272,   100.522934,   112.133507,           0.
    273,   145.909851,   77.2554474,           0.
    274,   119.190102,    81.086792,           0.
    275,   135.572372,   80.7438278,           0.
    276,   123.163376,   80.9068527,           0.
    277,   131.455399,   80.7614975,           0.
    278,   127.300568,   80.8168411,           0.
    279,   141.751831,   77.2922821,           0.
    280,   147.502365,   84.2487259,           0.
    281,   147.479294,    88.561142,           0.
    282,   147.444443,   92.8222351,           0.
    283,   147.420731,   97.0007553,           0.
    284,    147.37854,   101.220329,           0.
    285,    147.29985,   105.431282,           0.
    286,   96.2242508,   109.617249,           0.
    287,   99.7392654,   103.057167,           0.
    288,   116.529282,   108.572388,           0.
    289,   120.932343,   108.574646,           0.
    290,   112.128273,   108.477592,           0.
    291,   125.334267,   108.581276,           0.
    292,    129.74408,   108.593262,           0.
    293,   107.369812,   107.893967,           0.
    294,   138.643036,   108.557877,           0.
    295,   134.212387,   108.593941,           0.
    296,   143.412033,   108.026474,           0.
    297,   151.067215,   116.498901,           0.
    298,   143.928421,   81.5235901,           0.
    299,   129.546722,   84.4883347,           0.
    300,   133.731384,   84.3186111,           0.
    301,   125.286194,   84.5160522,           0.
    302,   121.155769,   84.5886917,           0.
    303,   139.601166,   80.8849258,           0.
    304,   143.808899,   94.8682556,           0.
    305,   143.800659,   90.5708389,           0.
    306,   143.671799,   99.0632248,           0.
    307,    143.95137,   86.2174149,           0.
    308,   143.615845,   103.351372,           0.
    309,   147.739502,    80.528511,           0.
    310,   99.8491364,   107.352852,           0.
    311,   147.403854,   109.111008,           0.
    312,   103.581818,   100.872772,           0.
    313,   103.281792,   108.967644,           0.
    314,   136.535843,   104.935722,           0.
    315,   123.139366,   104.815582,           0.
    316,   114.330177,   104.835602,           0.
    317,   140.324417,   105.215576,           0.
    318,   127.563057,   104.835335,           0.
    319,   118.733597,   104.816704,           0.
    320,   132.050354,   104.888947,           0.
    321,   110.520004,   105.069359,           0.
    322,   103.723976,    96.539032,           0.
    323,   109.343559,   86.3125458,           0.
    324,   113.208511,   82.5031738,           0.
    325,   103.512451,   105.211655,           0.
    326,    141.01561,   84.1985016,           0.
    327,   132.273605,   88.6173477,           0.
    328,   127.517815,   88.5274887,           0.
    329,   123.189362,   88.5864639,           0.
    330,   140.066193,   92.6369705,           0.
    331,   139.968185,   96.8084793,           0.
    332,    139.82254,   87.9700546,           0.
    333,   139.293625,   101.275208,           0.
    334,   137.614853,   84.2141495,           0.
    335,   117.141777,   84.4180527,           0.
    336,     107.4132,   98.7617569,           0.
    337,   125.352379,   100.959686,           0.
    338,   120.935272,   100.946205,           0.
    339,   134.438919,   101.225464,           0.
    340,   116.429283,   100.997894,           0.
    341,   129.893173,   100.953804,           0.
    342,   111.564941,   100.998749,           0.
    343,    103.59063,   92.7070999,           0.
    344,   105.970306,    89.665863,           0.
    345,   107.670631,   94.0574112,           0.
    346,   107.327042,   103.134712,           0.
    347,   136.494614,   98.1863708,           0.
    348,   125.313576,   92.7724228,           0.
    349,   129.737839,   92.7409515,           0.
    350,   136.302673,   90.6483536,           0.
    351,   136.438614,   94.6393814,           0.
    352,   118.818123,   88.6236801,           0.
    353,   109.844337,   90.3704681,           0.
    354,   123.134758,   96.9237213,           0.
    355,   127.644012,   96.8652649,           0.
    356,   132.573547,   96.7609024,           0.
    357,   118.720718,   96.9856567,           0.
    358,   114.371758,   97.0356293,           0.
    359,   112.170738,   93.2817154,           0.
    360,   133.465256,   92.6813889,           0.
    361,   120.951401,   92.8024826,           0.
    362,   113.865555,   88.3475113,           0.
    363,   110.638252,   96.8270493,           0.
    364,   116.483047,   92.8461151,           0.
    365,   135.949005,   87.1537018,           0.
    366,   116.463295,   81.5274048,           0.
    367,   80.4114914,   85.8126068,           0.
    368,   19.0032864,   73.6189117,           0.
    369,   88.7178802,   101.017113,           0.
    370,   88.6296616,    96.650589,           0.
    371,   85.0451126,   88.8229904,           0.
    372,   23.0865326,   116.303986,           0.
    373,   14.8041563,   73.6077499,           0.
    374,   27.2841434,   116.303329,           0.
    375,   27.4496384,   73.6203613,           0.
    376,   39.8770485,   116.302574,           0.
    377,   40.1187019,   73.6204758,           0.
    378,   48.5646935,   73.6206741,           0.
    379,   60.8649597,   116.300827,           0.
    380,   65.0626373,   116.300552,           0.
    381,   69.2602844,   116.300774,           0.
    382,   73.4653702,   116.296394,           0.
    383,   77.7670059,   116.229805,           0.
    384,   82.1956558,   116.093193,           0.
    385,   86.7660294,   116.083725,           0.
    386,   3.86836076,   75.5675201,           0.
    387,   10.6158915,    73.619812,           0.
    388,   3.61263013,   92.8690262,           0.
    389,   3.61214042,   97.0345001,           0.
    390,   3.61689019,   101.206818,           0.
    391,   3.68403435,    105.47097,           0.
    392,   3.82560015,   109.861641,           0.
    393,   3.84186912,   114.396255,           0.
    394,   23.2264652,   73.6195755,           0.
    395,   31.4818039,   116.302917,           0.
    396,   35.6794357,    116.30262,           0.
    397,    31.672657,   73.6203384,           0.
    398,   35.8956757,    73.620285,           0.
    399,   44.0746307,   116.302429,           0.
    400,   48.2721786,   116.302208,           0.
    401,   44.3417053,   73.6204147,           0.
    402,   52.4697037,   116.301628,           0.
    403,   56.6672745,   116.300896,           0.
    404,   52.7875824,   73.6212997,           0.
    405,   57.0104103,   73.6226807,           0.
    406,   61.2338181,   73.6243591,           0.
    407,   74.4171753,   77.8566666,           0.
    408,   65.3378906,   73.6267776,           0.
    409,   69.2939224,   73.6920242,           0.
    410,   73.1413193,   73.8455048,           0.
    411,   89.3460083,   88.7524414,           0.
    412,   76.2825775,   82.4641495,           0.
    413,   88.6883163,   92.2338028,           0.
    414,   3.63193488,   88.7046814,           0.
    415,   7.40210247,   107.725006,           0.
    416,   7.28196526,   103.402679,           0.
    417,   3.69958806,   84.4907074,           0.
    418,   7.23254156,   94.9569702,           0.
    419,   3.83063316,   80.1366959,           0.
    420,     7.238976,   99.1401672,           0.
    421,   18.8890343,   116.306801,           0.
    422,   80.0450668,   112.498085,           0.
    423,   71.3804703,    112.65239,           0.
    424,   62.9637375,   112.660248,           0.
    425,   14.7038307,   116.335358,           0.
    426,   33.5804062,   112.665985,           0.
    427,   37.7780991,   112.665436,           0.
    428,   46.1731911,   112.664803,           0.
    429,    50.370491,   112.663589,           0.
    430,   58.7657166,   112.660889,           0.
    431,   25.1845112,   112.668312,           0.
    432,   10.5529099,    116.35778,           0.
    433,   29.3824272,   112.666725,           0.
    434,   41.9756927,   112.665031,           0.
    435,   54.5678902,   112.661957,           0.
    436,   7.00029755,   116.622253,           0.
    437,   67.1669846,   112.657906,           0.
    438,   75.6944199,   112.607552,           0.
    439,   88.7334518,   105.205215,           0.
    440,    88.749054,   109.360184,           0.
    441,   84.9256363,   98.7273636,           0.
    442,   89.0102158,    112.91964,           0.
    443,   50.6755295,   77.2771301,           0.
    444,   16.8508072,   77.2697296,           0.
    445,   29.5610676,   77.2751923,           0.
    446,   42.2301865,   77.2756805,           0.
    447,   25.3377113,   77.2740784,           0.
    448,   46.4529686,   77.2759018,           0.
    449,   54.8976746,   77.2798309,           0.
    450,    12.606513,   77.2635956,           0.
    451,   21.1072063,   77.2716827,           0.
    452,   38.0071678,   77.2754211,           0.
    453,    33.784111,    77.275116,           0.
    454,   59.1208191,   77.2836227,           0.
    455,   63.2196655,   77.2771225,           0.
    456,   7.99194813,   112.462029,           0.
    457,   84.8224869,    111.91954,           0.
    458,   84.2056427,   94.0281296,           0.
    459,   7.43036413,   86.6295013,           0.
    460,   10.8358459,   101.339798,           0.
    461,   10.8583441,   97.0752716,           0.
    462,   10.8282337,    105.66568,           0.
    463,   7.28787851,   90.8179016,           0.
    464,   20.9868774,   112.673027,           0.
    465,   12.5317678,   112.625854,           0.
    466,    44.074028,   109.026192,           0.
    467,   77.9826965,   109.013191,           0.
    468,   39.8765717,   109.026657,           0.
    469,    31.480608,   109.028648,           0.
    470,   35.6787491,   109.027321,           0.
    471,   48.2709846,   109.024628,           0.
    472,   60.8643913,   109.017914,           0.
    473,   65.0683746,   109.016022,           0.
    474,   73.6239471,   109.019585,           0.
    475,   56.6656494,   109.019814,           0.
    476,   52.4679413,    109.02211,           0.
    477,   27.2797241,   109.029922,           0.
    478,   69.3101349,   109.016556,           0.
    479,   16.7377415,   112.561172,           0.
    480,   85.0066376,   107.353294,           0.
    481,   84.9308853,   103.083351,           0.
    482,   8.03257179,   77.5523605,           0.
    483,   44.3412666,   80.9298782,           0.
    484,   27.4486732,   80.9272156,           0.
    485,   40.1185226,   80.9292755,           0.
    486,    31.672226,    80.928299,           0.
    487,   35.8954659,   80.9286804,           0.
    488,   23.2227859,   80.9236374,           0.
    489,   48.5631409,   80.9312668,           0.
    490,   52.7841835,   80.9348373,           0.
    491,   18.8938026,   80.9030151,           0.
    492,   57.0059509,   80.9404526,           0.
    493,   61.1655807,   80.9311752,           0.
    494,   14.5763884,    80.826088,           0.
    495,   67.0645828,   77.1777725,           0.
    496,   7.58621454,   82.3139114,           0.
    497,   76.1224518,   87.4158325,           0.
    498,   79.8937912,   90.9516144,           0.
    499,   71.7415771,   81.2307129,           0.
    500,   11.7883186,   84.4260559,           0.
    501,   11.0986595,   88.8282394,           0.
    502,    14.391963,   103.617271,           0.
    503,   14.5296068,   99.2650528,           0.
    504,   10.6364412,   109.372803,           0.
    505,   10.9506216,   92.9115982,           0.
    506,   75.9955521,   105.369507,           0.
    507,   46.1713715,   105.384727,           0.
    508,   50.3676071,   105.381714,           0.
    509,   71.5943069,   105.263786,           0.
    510,   18.9223137,   108.935196,           0.
    511,   33.5785408,   105.388695,           0.
    512,   54.5645294,   105.377914,           0.
    513,   41.9745598,    105.38604,           0.
    514,   37.7769127,   105.387016,           0.
    515,   14.4912481,   108.338425,           0.
    516,   58.7634125,   105.374222,           0.
    517,   67.2340546,   105.334579,           0.
    518,   29.3753223,   105.390678,           0.
    519,   62.9792366,   105.362724,           0.
    520,   23.0745926,   109.010391,           0.
    521,    81.728714,   109.225838,           0.
    522,   80.7314758,    105.31163,           0.
    523,   81.3031845,   100.810043,           0.
    524,   10.9180012,   80.4764023,           0.
    525,   54.8902931,   84.5938797,           0.
    526,    50.670681,   84.5875092,           0.
    527,   46.4506874,   84.5838776,           0.
    528,   59.1080589,   84.5762329,           0.
    529,   29.5592403,   84.5786667,           0.
    530,   25.3339863,    84.574646,           0.
    531,   33.7832336,   84.5801468,           0.
    532,   38.0066872,   84.5811081,           0.
    533,   42.2291908,    84.582016,           0.
    534,   20.9605656,   84.6083374,           0.
    535,   16.5437012,   84.4518051,           0.
    536,   70.7000885,   77.3313217,           0.
    537,   65.2108612,   80.7069168,           0.
    538,   7.03717756,   73.3336563,           0.
    539,   14.5253763,   87.4252319,           0.
    540,   14.6254606,   90.9597778,           0.
    541,   18.5405025,   101.635529,           0.
    542,   14.5355988,   95.0537186,           0.
    543,    48.267231,   101.740402,           0.
    544,   52.4628944,   101.735634,           0.
    545,   44.0715294,   101.743057,           0.
    546,   73.9874191,   101.174011,           0.
    547,    21.024189,   105.390236,           0.
    548,   39.8747597,   101.744827,           0.
    549,   35.6816978,   101.776176,           0.
    550,   56.6605949,   101.730225,           0.
    551,   31.4882755,   101.857437,           0.
    552,   69.3079529,   101.660088,           0.
    553,   60.8657684,   101.721855,           0.
    554,    65.072876,   101.709778,           0.
    555,   25.1788254,   105.392929,           0.
    556,   77.9766388,   102.271248,           0.
    557,   52.7379951,   88.1115112,           0.
    558,   56.9860725,   88.0640945,           0.
    559,   48.5130081,   88.0731354,           0.
    560,   44.2947922,   88.0635986,           0.
    561,   40.0768242,   88.0611267,           0.
    562,   35.8629913,   88.0895004,           0.
    563,   27.4047794,   88.2052536,           0.
    564,   31.6474915,   88.1530228,           0.
    565,   23.1109943,   88.1852417,           0.
    566,   63.3808594,   84.3760529,           0.
    567,   18.4647045,   88.5767517,           0.
    568,   81.2232819,    96.870491,           0.
    569,   18.2364502,   93.0066147,           0.
    570,   18.2583981,   97.1313248,           0.
    571,   50.3849602,   98.1744232,           0.
    572,   46.1917267,   98.1893311,           0.
    573,   17.4740429,   105.583328,           0.
    574,   54.5929031,   98.2043076,           0.
    575,   41.9962654,   98.2001419,           0.
    576,   37.8103981,   98.2782593,           0.
    577,   33.6254616,   98.4234009,           0.
    578,   70.8693085,   98.3340378,           0.
    579,   23.0763493,   101.901909,           0.
    580,   58.8169136,   98.2107849,           0.
    581,   67.2168274,   98.0679626,           0.
    582,   27.2647724,   101.924889,           0.
    583,   63.0594788,   98.1576004,           0.
    584,   54.7798347,    91.430542,           0.
    585,   50.5367126,   91.4090347,           0.
    586,   46.3203735,   91.3959732,           0.
    587,   61.2292137,   87.9203415,           0.
    588,   42.1112862,   91.3990555,           0.
    589,   37.9137535,   91.4742355,           0.
    590,   33.7207146,   91.6050949,           0.
    591,   29.4241314,   91.6709366,           0.
    592,   25.1167698,   91.6000366,           0.
    593,   68.1104279,   84.1027527,           0.
    594,   77.7935715,   98.7627945,           0.
    595,   78.0737762,   94.8194809,           0.
    596,   48.3499832,   94.7648773,           0.
    597,   52.5673256,   94.7958069,           0.
    598,   44.1502457,   94.7771378,           0.
    599,   39.9587212,   94.8467712,           0.
    600,   56.8242149,   94.8029556,           0.
    601,   35.7688713,   94.9592743,           0.
    602,   25.0925903,   98.5573654,           0.
    603,   69.7993927,   94.1842957,           0.
    604,   61.0630112,   94.7225723,           0.
    605,    29.357275,   98.5054169,           0.
    606,   65.1831207,   94.5939789,           0.
    607,   21.4486809,   91.2835159,           0.
    608,   59.0216522,   91.3622589,           0.
    609,   65.4278183,   87.9682236,           0.
    610,   31.4974689,   95.0509338,           0.
    611,   27.1337872,   95.0722733,           0.
    612,   22.3829174,   95.0613174,           0.
    613,   21.4701519,   98.8574905,           0.
    614,   74.1592789,   96.4816666,           0.
    615,   63.1062088,   91.2942886,           0.
    616,   66.6805878,   91.4039078,           0.
    617,   70.0210114,   88.9991379,           0.
    618,   74.4701309,   91.5951996,           0.
    619,   72.5832062,   85.4211578,           0.
    620,    68.565506,   80.1098938,           0.
    621,    73.299202,   88.3578339,           0.
    622,   80.8491211,   94.1674271,           0.
    623,   96.2417679,   5.64387178,           0.
    624,   96.1618881,   10.1318502,           0.
    625,   95.9402542,    30.941433,           0.
    626,   96.0630035,   43.4758644,           0.
    627,   95.9715118,     47.80933,           0.
    628,   96.0022202,    14.406743,           0.
    629,    95.961586,   18.5596924,           0.
    630,   95.9491196,   22.6903019,           0.
    631,   95.9457169,   26.8165207,           0.
    632,   95.9648666,   39.2178078,           0.
    633,   95.9471893,   35.0705757,           0.
    634,   127.290421,   66.3526611,           0.
    635,   114.592049,   66.2244186,           0.
    636,   139.700638,     66.36483,           0.
    637,   135.565903,   66.3516769,           0.
    638,   131.427322,   66.3482056,           0.
    639,   123.105202,   66.3163528,           0.
    640,   118.885841,   66.2444534,           0.
    641,   111.122742,    66.759819,           0.
    642,   104.202644,   54.2032394,           0.
    643,   99.6682739,   51.2117348,           0.
    644,   111.531006,   61.9964027,           0.
    645,   107.835823,   57.6467705,           0.
    646,   154.892838,   62.6901665,           0.
    647,   154.565643,   59.0120392,           0.
    648,   154.534485,   50.2829247,           0.
    649,   154.530594,   45.9127579,           0.
    650,   154.528641,   41.5412521,           0.
    651,   154.526718,    37.168808,           0.
    652,   154.524765,   32.7961159,           0.
    653,   154.523071,   28.4233131,           0.
    654,   154.521576,   24.0504665,           0.
    655,   154.515244,   19.6699963,           0.
    656,   154.443542,   15.1905441,           0.
    657,   154.296631,   10.5790138,           0.
    658,   154.281921,   5.81758165,           0.
    659,   134.120621,   3.80280423,           0.
    660,   129.723648,   3.79991531,           0.
    661,   125.326866,   3.79604483,           0.
    662,   120.929474,   3.79189229,           0.
    663,   116.531967,   3.78755927,           0.
    664,   112.127159,   3.78112555,           0.
    665,    107.66848,   3.79731512,           0.
    666,   103.269623,   3.75651979,           0.
    667,   95.3815308,   51.2694778,           0.
    668,   99.7375641,   41.3880005,           0.
    669,   99.5530396,   33.0036774,           0.
    670,   100.490776,   46.0218315,           0.
    671,   99.5560532,   28.8804722,           0.
    672,   99.5750732,   20.6310978,           0.
    673,   99.7934418,   12.2895107,           0.
    674,    99.652832,   16.4519539,           0.
    675,   99.5667114,   24.7571316,           0.
    676,   99.5929947,   37.1537056,           0.
    677,   143.855103,   66.2869339,           0.
    678,   125.198692,   62.6823196,           0.
    679,   116.711456,   62.4488678,           0.
    680,   152.701614,   66.0013123,           0.
    681,   148.149124,   66.0932159,           0.
    682,   121.010582,   62.5740585,           0.
    683,   137.629089,   62.7511024,           0.
    684,   129.354492,   62.7096062,           0.
    685,   133.498062,   62.7178154,           0.
    686,     154.5401,   54.6676636,           0.
    687,   150.546417,   12.8211308,           0.
    688,   150.726013,   21.8545971,           0.
    689,   150.735657,   26.2362576,           0.
    690,   150.741287,   30.6109638,           0.
    691,   150.746292,   34.9841194,           0.
    692,    150.62883,   61.7696838,           0.
    693,    150.76265,   48.0995636,           0.
    694,   150.756271,   43.7277107,           0.
    695,   150.751678,   39.3567467,           0.
    696,   150.671982,   17.3622971,           0.
    697,   138.518311,   3.80211163,           0.
    698,   142.902924,   3.77527785,           0.
    699,   127.520279,   7.58773613,           0.
    700,   118.726402,    7.5663476,           0.
    701,   114.318489,    7.5518384,           0.
    702,   105.284279,   7.55327368,           0.
    703,   123.123558,   7.57559156,           0.
    704,   131.915848,    7.5950675,           0.
    705,   147.250931,   3.75523543,           0.
    706,   150.973099,   3.48004103,           0.
    707,   109.791847,   7.62652159,           0.
    708,   100.497978,   7.65678596,           0.
    709,   149.931946,   7.84568644,           0.
    710,   103.184219,   30.9429836,           0.
    711,   103.266792,   39.2003937,           0.
    712,   103.207542,   35.0695724,           0.
    713,   103.195351,   26.8242073,           0.
    714,     103.3311,   18.5608158,           0.
    715,   103.271416,   22.7174282,           0.
    716,   103.380241,   14.3956232,           0.
    717,   103.461227,   43.1479607,           0.
    718,   131.436493,   59.0615005,           0.
    719,   135.572052,   59.0570908,           0.
    720,   127.300804,   59.0356369,           0.
    721,   123.169884,   58.9397354,           0.
    722,   141.757431,   62.7096214,           0.
    723,   150.665573,   52.5760269,           0.
    724,   146.930893,   19.5202713,           0.
    725,   146.914429,   14.9612179,           0.
    726,   146.949524,   24.0125427,           0.
    727,   146.984863,   41.5436897,           0.
    728,   146.959885,   28.4189014,           0.
    729,   146.977432,   37.1739998,           0.
    730,   146.969437,   32.7998161,           0.
    731,   146.996796,   45.9156876,           0.
    732,   150.719711,   57.0514832,           0.
    733,   136.298538,   7.60800314,           0.
    734,   145.155655,   7.65875959,           0.
    735,   125.310692,   11.3578234,           0.
    736,   120.912796,   11.3385143,           0.
    737,   129.703201,   11.3741388,           0.
    738,   112.106758,   11.3645239,           0.
    739,   116.504166,   11.3395691,           0.
    740,   107.334183,   11.8617573,           0.
    741,   140.725754,   7.72691965,           0.
    742,   99.5791168,    3.4114356,           0.
    743,   119.017998,   58.9187126,           0.
    744,   106.854607,   41.1863785,           0.
    745,   106.836296,   33.0044479,           0.
    746,   106.841431,   28.8904991,           0.
    747,   107.203056,   16.4989262,           0.
    748,   106.856323,   37.1187057,           0.
    749,   106.962006,   24.8347569,           0.
    750,   107.192963,   20.7019005,           0.
    751,   133.615128,   55.2569733,           0.
    752,   125.282784,   55.3241577,           0.
    753,    129.48262,   55.2080803,           0.
    754,   145.962204,   62.5042801,           0.
    755,   139.711884,   58.9955025,           0.
    756,   121.050583,   55.3401146,           0.
    757,   103.258026,   10.7513905,           0.
    758,   147.513092,    59.120472,           0.
    759,   146.950104,   50.3003502,           0.
    760,   143.207169,   34.9944649,           0.
    761,    143.21962,   39.3630753,           0.
    762,   143.141571,   17.0761967,           0.
    763,   143.067764,   21.6716862,           0.
    764,   143.163712,   26.2034454,           0.
    765,    143.19223,   30.6126728,           0.
    766,   143.242874,   43.7260895,           0.
    767,   134.066605,   11.3978357,           0.
    768,    147.12265,   11.0693607,           0.
    769,   127.483551,   15.1755495,           0.
    770,   114.307465,   14.9874916,           0.
    771,   143.061981,    12.133419,           0.
    772,   123.089767,   15.1123323,           0.
    773,   118.694962,   15.0521708,           0.
    774,   110.499771,   14.6679163,           0.
    775,   138.384201,   11.5057716,           0.
    776,    146.44783,   55.0269928,           0.
    777,   115.238655,   59.0643158,           0.
    778,    108.81076,   52.7445717,           0.
    779,   104.766647,   49.0111122,           0.
    780,   143.864197,   58.9183846,           0.
    781,   123.151428,   51.6931381,           0.
    782,   110.499954,     30.95327,           0.
    783,   110.521019,   39.2191277,           0.
    784,   110.503235,    35.073185,           0.
    785,   110.625412,   26.9177094,           0.
    786,   110.849358,   22.9366035,           0.
    787,   127.325394,   51.5512695,           0.
    788,   131.827393,   50.9244614,           0.
    789,    106.51606,   45.0736008,           0.
    790,   137.681625,    55.209774,           0.
    791,   116.726265,   55.4468803,           0.
    792,   143.338074,   48.0985718,           0.
    793,   131.858582,   15.2496529,           0.
    794,   139.457916,   37.1864128,           0.
    795,   139.418121,   28.4347725,           0.
    796,   139.440964,   32.8158302,           0.
    797,   139.341187,   24.0365524,           0.
    798,   138.814667,   19.2386646,           0.
    799,   139.492783,   41.5500755,           0.
    800,    125.24128,   18.9561672,           0.
    801,   116.357323,   18.6386547,           0.
    802,   111.535316,   18.5756607,           0.
    803,   120.814438,   18.8369999,           0.
    804,   139.919067,   15.0276766,           0.
    805,   143.638657,   51.8884544,           0.
    806,   136.183273,   15.2714987,           0.
    807,   112.359253,   56.3359489,           0.
    808,   141.834793,   55.1503372,           0.
    809,   125.261971,   47.9925003,           0.
    810,   114.167763,    33.025589,           0.
    811,   114.256073,   28.9788113,           0.
    812,   114.230049,   37.2296944,           0.
    813,   114.401848,   25.0391941,           0.
    814,   128.857712,   48.1203041,           0.
    815,   118.910301,   51.6367493,           0.
    816,   135.716736,   52.0955887,           0.
    817,    110.36145,   43.4836731,           0.
    818,    114.02314,   51.1833611,           0.
    819,   139.552094,   46.0387535,           0.
    820,   129.616196,   19.1908875,           0.
    821,   135.689713,   26.2949619,           0.
    822,   135.688828,   30.6607456,           0.
    823,   135.703491,   35.0179787,           0.
    824,   135.721985,    39.395916,           0.
    825,   135.945496,   22.4777145,           0.
    826,   122.950241,   22.6703434,           0.
    827,   118.281174,   22.7840309,           0.
    828,   139.651001,    50.957901,           0.
    829,   127.772018,   43.9272728,           0.
    830,   117.836166,   31.0284328,           0.
    831,   117.848915,    35.199337,           0.
    832,   117.885529,   27.0768566,           0.
    833,   135.758255,   48.3154449,           0.
    834,   121.098076,   48.0185738,           0.
    835,   114.307327,   41.6084671,           0.
    836,   109.773239,   47.9282227,           0.
    837,   135.746414,   43.8414841,           0.
    838,   127.211006,   22.9816856,           0.
    839,   134.040588,   19.1729031,           0.
    840,   131.962006,   28.4710903,           0.
    841,   132.039871,   32.8797264,           0.
    842,   131.887817,   23.5933781,           0.
    843,   132.145493,   37.1547775,           0.
    844,   117.346519,   48.2157173,           0.
    845,   121.319153,   33.1385689,           0.
    846,   121.204002,   29.1276169,           0.
    847,    131.98201,   46.1287956,           0.
    848,   123.072212,   44.2577782,           0.
    849,   114.058556,   46.0977173,           0.
    850,   117.919334,   39.4634094,           0.
    851,   131.966415,   41.5584297,           0.
    852,   124.755005,   26.9714375,           0.
    853,    127.99704,   30.8818607,           0.
    854,   128.762573,   26.5798912,           0.
    855,   129.177292,    35.007225,           0.
    856,    121.01519,   25.7260571,           0.
    857,   114.285004,   21.5948296,           0.
    858,   118.425545,   44.1171036,           0.
    859,   124.523056,   40.1468163,           0.
    860,   121.343445,   37.3872719,           0.
    861,   128.476288,   38.8353233,           0.
    862,   124.109726,   31.0673828,           0.
    863,   121.056717,   41.0744743,           0.
    864,      125.278,   35.2092056,           0.
    865,   103.808678,   45.8136253,           0.
    866,   48.5646133,   66.3069611,           0.
    867,   88.4925766,   5.51297998,           0.
    868,   88.7639999,    30.937582,           0.
    869,   77.3328094,   58.1894341,           0.
    870,   88.7572937,   35.0662117,           0.
    871,   88.7234726,   39.2300758,           0.
    872,   80.5030212,   54.7541084,           0.
    873,    88.667038,   43.4645576,           0.
    874,    88.669281,   47.7514725,           0.
    875,   89.2089462,    51.228199,           0.
    876,   74.9759979,   62.0561256,           0.
    877,    84.553833,   51.0295792,           0.
    878,   5.76325512,   66.0755539,           0.
    879,   10.3600454,   66.1257858,           0.
    880,   14.7425079,   66.2615356,           0.
    881,   18.9975147,   66.2873459,           0.
    882,   23.2262611,   66.2955017,           0.
    883,    27.450346,   66.3000946,           0.
    884,   31.6733665,   66.3033752,           0.
    885,   35.8960228,    66.305687,           0.
    886,   40.1188393,   66.3068771,           0.
    887,   44.3417244,   66.3071823,           0.
    888,   52.7874947,   66.3060989,           0.
    889,   57.0104523,   66.3047714,           0.
    890,   61.2334938,   66.3032761,           0.
    891,   65.3630753,   66.2888641,           0.
    892,   69.4010925,   66.1821747,           0.
    893,   3.77576447,   32.7987976,           0.
    894,   3.77507496,   37.1704788,           0.
    895,    3.7738142,   41.5420647,           0.
    896,    3.7721715,   45.9145966,           0.
    897,    3.7698698,   50.2874832,           0.
    898,   3.80536079,    54.719738,           0.
    899,   3.80121827,   59.0870895,           0.
    900,   73.4572296,   3.63096166,           0.
    901,   69.2600479,   3.63242507,           0.
    902,   65.0628891,    3.6339581,           0.
    903,   60.8652611,   3.63526464,           0.
    904,   56.6674805,   3.63599801,           0.
    905,   52.4698181,   3.63618302,           0.
    906,   48.2722321,   3.63612676,           0.
    907,   44.0746536,   3.63614678,           0.
    908,    39.877182,   3.63670325,           0.
    909,   35.6798058,     3.637918,           0.
    910,   31.4824352,   3.64001226,           0.
    911,   27.2851753,   3.64345646,           0.
    912,   23.0879078,   3.64763951,           0.
    913,   18.8904247,   3.65219879,           0.
    914,   14.6777992,   3.69638443,           0.
    915,   10.3235846,    3.8454957,           0.
    916,   5.73414946,   3.90012074,           0.
    917,   84.8545837,   45.7467117,           0.
    918,   85.1631699,   32.9948387,           0.
    919,   85.0248413,   41.3540382,           0.
    920,   88.7659454,   22.6900558,           0.
    921,   88.7645187,   26.8119411,           0.
    922,   88.5753021,   14.3535128,           0.
    923,   85.1212158,   37.1477814,           0.
    924,   77.6352615,   3.60545254,           0.
    925,   67.1624908,   7.26593781,           0.
    926,   85.3332367,   3.30495191,           0.
    927,   46.1734695,   7.27314186,           0.
    928,   81.7929077,   3.60457873,           0.
    929,   58.7669678,   7.27184248,           0.
    930,   41.9763489,    7.2742672,           0.
    931,   50.3709488,   7.27327585,           0.
    932,    33.583065,    7.2813673,           0.
    933,   54.5687752,   7.27307844,           0.
    934,     37.77985,   7.27733755,           0.
    935,   62.9653511,    7.2692256,           0.
    936,    29.386858,   7.28913546,           0.
    937,   16.8267517,   7.34182453,           0.
    938,   20.9991169,   7.31365156,           0.
    939,   25.1917744,   7.30035543,           0.
    940,   71.3598251,   7.26133347,           0.
    941,   12.6263838,   7.46631241,           0.
    942,   50.6751785,   62.6487198,           0.
    943,   54.8974113,   62.6459923,           0.
    944,   38.0082741,   62.6483688,           0.
    945,   25.3423386,   62.6284523,           0.
    946,   42.2305832,   62.6499901,           0.
    947,   59.1192131,   62.6422462,           0.
    948,   63.2783241,   62.6209297,           0.
    949,   67.3223267,   62.5088768,           0.
    950,   21.1181965,   62.6169739,           0.
    951,     16.84235,   62.5881081,           0.
    952,   12.5447731,   62.4561195,           0.
    953,   46.4528542,    62.650013,           0.
    954,   33.7866859,    62.644062,           0.
    955,      29.5653,   62.6366463,           0.
    956,   73.3222656,   66.0318832,           0.
    957,   3.77307796,   28.4254208,           0.
    958,   3.83716607,   19.6431332,           0.
    959,    3.7817297,   24.0454826,           0.
    960,   7.54099131,      34.9888,           0.
    961,    7.5386014,    39.359642,           0.
    962,   7.53473902,   43.7305717,           0.
    963,   7.52991819,   48.1033897,           0.
    964,   7.64511538,   52.5884628,           0.
    965,   7.65723467,   57.0624008,           0.
    966,   3.91692686,   15.2097206,           0.
    967,    3.8801446,   10.8541546,           0.
    968,   3.49489498,   7.19698811,           0.
    969,   88.4654846,   10.0352917,           0.
    970,   7.87612534,   8.13382053,           0.
    971,    84.255806,   7.47405291,           0.
    972,   85.1700058,   24.7471104,           0.
    973,   88.6716843,     18.54389,           0.
    974,   81.5356216,   35.0499802,           0.
    975,    81.439209,    39.189537,           0.
    976,   85.1697464,   28.8664837,           0.
    977,   11.0749636,   10.8879032,           0.
    978,   75.5486908,   7.23343849,           0.
    979,   44.0757523,   10.9125776,           0.
    980,   39.8803253,   10.9164391,           0.
    981,   48.2724037,   10.9116678,           0.
    982,   52.4700089,   10.9113045,           0.
    983,   56.6688881,    10.909811,           0.
    984,   60.8684769,   10.9062891,           0.
    985,   69.2651215,   10.8935213,           0.
    986,   35.6856613,   10.9237337,           0.
    987,    65.067337,   10.9008112,           0.
    988,   31.4914856,    10.935544,           0.
    989,   27.2971554,   10.9512234,           0.
    990,    23.103384,   10.9705105,           0.
    991,   18.9371128,   11.0014982,           0.
    992,   14.7322111,   11.0673838,           0.
    993,   79.6870117,   7.18695831,           0.
    994,   40.1209641,    58.991703,           0.
    995,   44.3418579,   58.9933014,           0.
    996,   48.5627136,   58.9923782,           0.
    997,   35.9010162,   58.9862709,           0.
    998,   65.3247681,   58.8988152,           0.
    999,   61.1950378,   58.9628296,           0.
   1000,   56.9995537,   58.9815292,           0.
   1001,    52.782711,   58.9886055,           0.
   1002,   31.6817589,   58.9760094,           0.
   1003,   18.9382534,   58.9386978,           0.
   1004,   23.2221012,   58.9536362,           0.
   1005,   27.4586678,   58.9634285,           0.
   1006,   14.6530504,   58.9120598,           0.
   1007,   7.79828882,   61.8131523,           0.
   1008,   7.53775406,   30.6150036,           0.
   1009,   7.63525963,    21.849638,           0.
   1010,   7.79027796,   12.9016762,           0.
   1011,   7.79533052,   17.3889027,           0.
   1012,    11.292757,   37.1804733,           0.
   1013,    11.287344,   41.5511513,           0.
   1014,   11.2820225,   45.9478149,           0.
   1015,   11.3672142,    50.340313,           0.
   1016,   11.9729052,   55.0626183,           0.
   1017,   7.55690622,   26.2379436,           0.
   1018,   84.6386948,   12.1713715,           0.
   1019,   12.0691051,   14.9781342,           0.
   1020,   81.5578308,   26.7954617,           0.
   1021,   77.8727875,   37.0691719,           0.
   1022,   85.0412445,   20.6261654,           0.
   1023,   81.5565491,   30.9158192,           0.
   1024,   81.2471237,   43.3633499,           0.
   1025,   73.4767303,   10.8315125,           0.
   1026,   37.7891426,   14.5649319,           0.
   1027,   25.2071953,   14.6537952,           0.
   1028,    20.970871,   14.8265419,           0.
   1029,   67.1727142,   14.5288534,           0.
   1030,   33.5986786,   14.5807505,           0.
   1031,   29.4059486,   14.6112652,           0.
   1032,   16.7015305,     14.85606,           0.
   1033,   54.5706139,   14.5491066,           0.
   1034,     46.17519,   14.5522804,           0.
   1035,   50.3719254,   14.5510263,           0.
   1036,   41.9817047,   14.5570793,           0.
   1037,   58.7717323,   14.5452147,           0.
   1038,   62.9727707,   14.5384722,           0.
   1039,   77.6878586,   10.7086239,           0.
   1040,   84.7814178,   16.4374275,           0.
   1041,   33.7996483,   55.3179779,           0.
   1042,   29.5830288,   55.2996025,           0.
   1043,   16.7140045,   55.2101517,           0.
   1044,    46.451355,   55.3367004,           0.
   1045,   50.6701813,   55.3337898,           0.
   1046,    3.4725523,   62.7572136,           0.
   1047,    38.015934,   55.3295517,           0.
   1048,   42.2333031,   55.3350677,           0.
   1049,   63.2961693,   55.2906303,           0.
   1050,   54.8888969,   55.3278084,           0.
   1051,   59.0985909,   55.3146248,           0.
   1052,   21.0620365,   55.1512604,           0.
   1053,   25.3595963,   55.2557144,           0.
   1054,   69.3983078,   58.6723328,           0.
   1055,   10.9252501,   59.0612679,           0.
   1056,   81.3474731,    10.367713,           0.
   1057,   11.2901974,    32.805748,           0.
   1058,   11.4449005,   19.7229462,           0.
   1059,   15.0296879,   39.3754845,           0.
   1060,   14.7770929,   51.9699554,           0.
   1061,   15.0082283,   43.8024178,           0.
   1062,   14.9818716,   48.1871033,           0.
   1063,    11.332696,   24.0727386,           0.
   1064,   11.2969313,   28.4334259,           0.
   1065,   80.4655762,   14.2677622,           0.
   1066,   81.2301025,   18.6568451,           0.
   1067,    77.897316,   28.8643913,           0.
   1068,   81.4428711,    22.701458,           0.
   1069,   77.9154434,    32.957901,           0.
   1070,   77.7228928,   41.1575317,           0.
   1071,   18.7391052,      19.1334,           0.
   1072,   35.7067719,   18.2232742,           0.
   1073,   31.5200939,   18.2563801,           0.
   1074,   23.2369976,   18.4583702,           0.
   1075,    39.893383,   18.2068386,           0.
   1076,   27.3673058,   18.3147488,           0.
   1077,   71.4699783,   14.5251217,           0.
   1078,   44.0823097,   18.1978092,           0.
   1079,   48.2752113,   18.1934471,           0.
   1080,   52.4730034,   18.1905422,           0.
   1081,   65.0805511,   18.1679573,           0.
   1082,   56.6747322,   18.1860847,           0.
   1083,   60.8779449,    18.178648,           0.
   1084,   75.8098907,   14.3419638,           0.
   1085,   35.9181557,   51.6620445,           0.
   1086,    31.699995,    51.631691,           0.
   1087,   27.4814816,   51.5817223,           0.
   1088,   48.5585403,   51.6795845,           0.
   1089,   52.7754593,   51.6747627,           0.
   1090,   40.1300125,   51.6739922,           0.
   1091,    44.343647,   51.6790924,           0.
   1092,   18.7498989,   50.8868828,           0.
   1093,   23.2838364,   51.4601288,           0.
   1094,   56.9926682,   51.6663666,           0.
   1095,   61.2061539,   51.6524963,           0.
   1096,   67.4420319,   55.1573868,           0.
   1097,   80.8833466,   47.6320763,           0.
   1098,     15.03197,   34.9950371,           0.
   1099,   15.0203218,   21.8627014,           0.
   1100,   18.7893257,   41.6277885,           0.
   1101,   15.0525684,   26.1965866,           0.
   1102,   18.6803055,   46.0879097,           0.
   1103,   15.0552073,   30.5878582,           0.
   1104,   14.7949924,   18.1106472,           0.
   1105,   74.3246536,   31.0006523,           0.
   1106,   77.7450104,   20.7942543,           0.
   1107,   74.1525574,   39.0899315,           0.
   1108,    77.523674,   45.2663307,           0.
   1109,   77.8027649,   24.8407593,           0.
   1110,   74.2654572,    35.003376,           0.
   1111,   37.8149071,   21.8649673,           0.
   1112,   33.6366501,   21.8966026,           0.
   1113,   21.8110542,   21.8695087,           0.
   1114,   29.4924698,   21.9381027,           0.
   1115,    25.387249,   22.0145226,           0.
   1116,   41.9961891,    21.848568,           0.
   1117,   46.1827469,   21.8395824,           0.
   1118,   50.3767891,   21.8343945,           0.
   1119,   69.2691269,   18.1381607,           0.
   1120,   54.5777893,   21.8291397,           0.
   1121,   62.9834862,   21.8582439,           0.
   1122,   73.8559418,    18.483675,           0.
   1123,   58.7819672,    21.829216,           0.
   1124,    33.813549,   47.9610023,           0.
   1125,   29.5853958,   47.9109688,           0.
   1126,   38.0310516,   48.0006943,           0.
   1127,   50.6631927,   48.0223999,           0.
   1128,   42.2408562,   48.0176849,           0.
   1129,   25.3961735,    47.866333,           0.
   1130,   46.4510803,   48.0231171,           0.
   1131,   54.8787766,   48.0158005,           0.
   1132,   59.0955048,   48.0058708,           0.
   1133,   65.3849182,   51.6595421,           0.
   1134,   71.5392609,   54.7377853,           0.
   1135,    21.788723,   48.0564423,           0.
   1136,   18.7588291,   37.1815834,           0.
   1137,   18.7412891,   23.8775291,           0.
   1138,   22.9269161,   44.0235977,           0.
   1139,    18.851099,   28.3300648,           0.
   1140,   18.7851753,   32.7863884,           0.
   1141,    76.986496,   49.3126755,           0.
   1142,   74.0274811,   22.9769897,           0.
   1143,   70.7924957,   32.8984566,           0.
   1144,   70.5688782,   37.0652809,           0.
   1145,   74.1797104,   27.0867195,           0.
   1146,   35.7509422,   25.5359669,           0.
   1147,   39.9213104,    25.507309,           0.
   1148,    31.579277,   25.5632725,           0.
   1149,   74.0217285,   43.2214966,           0.
   1150,   22.9347286,   25.8666668,           0.
   1151,   27.4274483,   25.5495644,           0.
   1152,   44.0977631,   25.4909058,           0.
   1153,   48.2844505,   25.4816723,           0.
   1154,   31.7303047,   44.2738876,           0.
   1155,   35.9505959,   44.3134995,           0.
   1156,   67.1845856,   21.7848549,           0.
   1157,   52.4819374,   25.4747505,           0.
   1158,   70.8543091,   21.3682613,           0.
   1159,   56.6866379,   25.4678631,           0.
   1160,    60.867672,   25.5531406,           0.
   1161,   27.5347652,    44.280262,           0.
   1162,   40.1489487,   44.3475914,           0.
   1163,   48.5550308,   44.3689232,           0.
   1164,   44.3501892,    44.363369,           0.
   1165,   52.7722282,   44.3696632,           0.
   1166,   57.0557823,   44.3660736,           0.
   1167,   63.4204636,    47.957737,           0.
   1168,   69.3668823,   51.5373535,           0.
   1169,   22.6782131,   39.2740517,           0.
   1170,   22.5287895,   30.5044594,           0.
   1171,   22.7195969,   34.8167191,           0.
   1172,   77.8213043,   17.3089008,           0.
   1173,   73.8716049,   47.1165657,           0.
   1174,   67.0199585,   34.8330231,           0.
   1175,   71.2950439,   29.2989883,           0.
   1176,   37.6477928,   29.2342682,           0.
   1177,   33.3970795,   29.2320004,           0.
   1178,   41.7443047,   29.2357197,           0.
   1179,   29.2076569,   29.0480957,           0.
   1180,   34.0468216,   40.5902824,           0.
   1181,   70.3246918,   41.3149109,           0.
   1182,   45.9061813,   29.2314262,           0.
   1183,   38.2560692,   40.6180267,           0.
   1184,   50.1082993,   29.2211704,           0.
   1185,   65.1823502,   25.6727238,           0.
   1186,   46.6233101,   40.6539993,           0.
   1187,   42.4824181,   40.6256447,           0.
   1188,   50.8800583,   40.6510925,           0.
   1189,   54.3380051,   29.2121658,           0.
   1190,    58.539299,   29.2756195,           0.
   1191,   55.2353783,   40.6473923,           0.
   1192,   61.4022293,    44.323143,           0.
   1193,   67.6059113,   48.1854591,           0.
   1194,   73.1472397,   50.8641243,           0.
   1195,   26.3534126,   32.1364326,           0.
   1196,   27.2026482,   36.7894516,           0.
   1197,   29.8015785,   40.6213989,           0.
   1198,   26.0288239,   40.9977531,           0.
   1199,   25.6904068,   28.6210442,           0.
   1200,   70.4821243,   45.3936081,           0.
   1201,   32.2561302,   36.7887573,           0.
   1202,    34.960041,   33.0043182,           0.
   1203,   39.1435127,   33.0424423,           0.
   1204,   67.3117599,   30.0508595,           0.
   1205,   30.5628281,   32.8331757,           0.
   1206,   36.5490265,   36.8228226,           0.
   1207,   43.3108597,   33.0515862,           0.
   1208,   66.6665878,   39.1696739,           0.
   1209,   40.7710495,   36.8397141,           0.
   1210,   47.5143204,   33.0449715,           0.
   1211,   70.0050354,   25.4627705,           0.
   1212,   49.1873512,   36.8514557,           0.
   1213,   44.9815521,   36.8445625,           0.
   1214,   62.7207794,     29.41609,           0.
   1215,   51.7754326,   33.0374069,           0.
   1216,   53.5041962,   36.8480682,           0.
   1217,   56.0552368,    33.057457,           0.
   1218,   59.5835304,   40.6928711,           0.
   1219,   66.1639862,   43.9081535,           0.
   1220,   70.8947525,   48.6194229,           0.
   1221,   62.6812172,   36.9348297,           0.
   1222,   60.3172684,   33.0732841,           0.
   1223,   57.8961372,   36.8756485,           0.
   1224,    63.299511,   41.0057335,           0.
   1225,   64.0102005,    32.861618,           0.
   1226,   79.8168488,   51.3122597,           0.
   1227,   71.3001938,   62.2904739,           0.
   1228,    76.100975,   53.9231186,           0.
   1229,   73.4412537,   58.3115463,           0.
*Element, type=S3
  1, 287, 205, 257
  2, 259,  60, 203
  3, 243, 241, 216
  4, 258,   3,  25
  5, 318, 291, 315
  6, 203,  13,  14
  7, 233,  54, 232
  8, 205,  16,  17
  9, 346, 336, 342
 10, 206,  22, 204
 11, 207, 205,  17
 12, 208, 207,  18
 13, 209,   2,  20
 14, 210, 204,  23
 15, 256, 208, 211
 16,  35,   4,  36
 17, 227,  36,  37
 18, 309, 298, 273
 19, 242, 239,  33
 20, 239,  32,  33
 21, 213,  31, 212
 22, 305, 282, 304
 23, 214,  29, 202
 24, 214,  28,  29
 25, 240, 215, 214
 26, 217,  25,  26
 27,  47,  46,   5
 28, 218,  46,  47
 29, 238,  49, 237
 30, 219,  44,  45
 31, 220,  43,  44
 32, 221,  42,  43
 33, 266, 261, 234
 34, 224,  40, 223
 35, 225,  39, 224
 36, 226,  38, 225
 37, 227,  37, 226
 38,  60,   1,  13
 39, 203,  60,  13
 40, 259, 228,  59
 41, 229,  58, 228
 42, 267, 265, 230
 43, 230,  57, 229
 44, 231,  56, 230
 45, 232,  55, 231
 46, 234,  53, 233
 47, 235,  52, 234
 48, 250, 221, 220
 49, 295, 261, 292
 50, 269, 236, 263
 51, 297,  47,  48
 52, 202,  29,  30
 53, 213,  30,  31
 54, 286,  15, 255
 55, 255,  16, 205
 56, 204,  22,  23
 57, 210,  23,  24
 58, 207,  17,  18
 59, 256, 207, 208
 60, 206,  21,  22
 61, 265, 231, 230
 62, 208,  18,  19
 63, 211, 209,  20
 64, 209, 208,  19
 65, 211,  21, 206
 66, 209,  19,   2
 67, 211,  20,  21
 68, 258, 217, 210
 69, 216,  27, 215
 70, 344, 211, 206
 71, 211, 208, 209
 72, 212,  31,  32
 73, 254, 222, 249
 74, 223,  41, 222
 75, 213, 202,  30
 76, 215,  28, 214
 77, 266, 233, 260
 78, 243, 215, 240
 79, 215,  27,  28
 80, 241, 217, 216
 81, 216,  26,  27
 82, 258, 210,  24
 83, 217,  26, 216
 84, 219,  45, 218
 85, 218,  45,  46
 86, 237,  50, 236
 87, 220,  44, 219
 88, 236,  51, 235
 89, 221,  43, 220
 90, 250, 249, 221
 91, 222,  42, 221
 92, 279, 212, 239
 93, 222,  41,  42
 94, 251, 224, 223
 95, 223,  40,  41
 96, 281, 280, 252
 97, 224,  39,  40
 98, 309, 271, 248
 99, 225,  38,  39
100, 248, 226, 225
101, 226,  37,  38
102, 245,  35, 227
103, 227,  35,  36
104, 228,  58,  59
105, 272, 262, 228
106, 267, 229, 262
107, 229,  57,  58
108, 302, 276, 301
109, 230,  56,  57
110, 268, 231, 265
111, 231,  55,  56
112, 289, 268, 288
113, 232,  54,  55
114, 277, 247, 275
115, 233,  53,  54
116, 247, 213, 244
117, 234,  52,  53
118, 253, 250, 220
119, 235,  51,  52
120, 263, 235, 261
121, 236,  50,  51
122, 297, 270, 218
123, 237,  49,  50
124, 297, 238, 270
125, 238,  48,  49
126, 239, 212,  32
127, 242,  33,  34
128, 366, 241, 274
129, 246, 214, 202
130, 241, 210, 217
131, 243, 216, 215
132, 245, 242,  34
133, 271, 227, 226
134, 276, 274, 243
135, 274, 241, 243
136, 244, 213, 212
137, 332, 307, 305
138, 245,  34,  35
139, 271, 245, 227
140, 246, 240, 214
141, 247, 246, 202
142, 247, 202, 213
143, 365, 350, 327
144, 273, 242, 271
145, 252, 225, 224
146, 249, 222, 221
147, 283, 282, 254
148, 253, 220, 219
149, 269, 264, 237
150, 307, 280, 281
151, 254, 251, 223
152, 252, 248, 225
153, 252, 224, 251
154, 270, 253, 219
155, 264, 238, 237
156, 254, 223, 222
157, 284, 283, 249
158, 310, 255, 287
159, 255,  15,  16
160, 257, 207, 256
161, 321, 290, 293
162, 313, 272, 310
163, 257, 205, 207
164, 258,  24,   3
165, 258,  25, 217
166, 259,  59,  60
167, 272, 259, 203
168, 260, 233, 232
169, 268, 232, 231
170, 261, 235, 234
171, 266, 234, 233
172, 262, 229, 228
173, 272, 228, 259
174, 285, 284, 250
175, 263, 236, 235
176, 311, 270, 264
177, 269, 237, 236
178, 267, 230, 229
179, 288, 268, 265
180, 291, 260, 289
181, 355, 354, 348
182, 293, 290, 267
183, 290, 288, 265
184, 366, 335, 324
185, 268, 260, 232
186, 306, 304, 283
187, 294, 269, 263
188, 270, 219, 218
189, 270, 238, 264
190, 271, 242, 245
191, 271, 226, 248
192, 286, 272, 203
193, 325, 313, 310
194, 309, 280, 298
195, 273, 239, 242
196, 324, 210, 241
197, 276, 243, 240
198, 275, 247, 244
199, 303, 244, 279
200, 278, 240, 246
201, 361, 348, 354
202, 292, 266, 291
203, 277, 246, 247
204, 278, 276, 240
205, 278, 246, 277
206, 279, 244, 212
207, 279, 239, 273
208, 280, 248, 252
209, 281, 252, 251
210, 282, 251, 254
211, 282, 281, 251
212, 283, 254, 249
213, 356, 347, 339
214, 284, 249, 250
215, 295, 294, 263
216, 285, 250, 253
217, 314, 294, 295
218, 311, 285, 253
219, 296, 264, 269
220, 286, 203,  14
221, 286,  14,  15
222, 287, 255, 205
223, 321, 316, 290
224, 290, 265, 267
225, 364, 352, 361
226, 301, 278, 299
227, 289, 260, 268
228, 293, 267, 262
229, 325, 293, 313
230, 328, 299, 327
231, 291, 266, 260
232, 300, 299, 277
233, 292, 261, 266
234, 325, 310, 287
235, 312, 287, 257
236, 308, 306, 284
237, 295, 263, 261
238, 320, 292, 318
239, 333, 308, 317
240, 311, 296, 285
241, 296, 269, 294
242, 297, 218,  47
243, 297,  48, 238
244, 307, 298, 280
245, 298, 279, 273
246, 299, 278, 277
247, 300, 277, 275
248, 334, 303, 326
249, 304, 282, 283
250, 329, 301, 328
251, 301, 276, 278
252, 319, 288, 316
253, 302, 274, 276
254, 303, 275, 244
255, 303, 279, 298
256, 306, 283, 284
257, 331, 330, 304
258, 332, 305, 330
259, 305, 281, 282
260, 308, 284, 285
261, 333, 331, 306
262, 326, 298, 307
263, 307, 281, 305
264, 308, 285, 296
265, 317, 296, 294
266, 309, 273, 271
267, 309, 248, 280
268, 310, 272, 286
269, 310, 286, 255
270, 311, 253, 270
271, 311, 264, 296
272, 322, 257, 256
273, 322, 312, 257
274, 313, 293, 262
275, 313, 262, 272
276, 320, 295, 292
277, 351, 331, 347
278, 315, 291, 289
279, 319, 289, 288
280, 364, 361, 357
281, 316, 288, 290
282, 317, 308, 296
283, 317, 294, 314
284, 341, 339, 320
285, 318, 292, 291
286, 340, 338, 319
287, 319, 315, 289
288, 341, 318, 337
289, 320, 314, 295
290, 346, 293, 325
291, 336, 312, 322
292, 343, 256, 211
293, 345, 343, 344
294, 323, 206, 204
295, 324, 323, 204
296, 324, 204, 210
297, 335, 274, 302
298, 325, 287, 312
299, 346, 325, 312
300, 334, 275, 303
301, 326, 303, 298
302, 327, 299, 300
303, 350, 332, 330
304, 349, 348, 328
305, 328, 301, 299
306, 338, 337, 315
307, 329, 302, 301
308, 330, 305, 304
309, 331, 304, 306
310, 333, 306, 308
311, 347, 333, 339
312, 365, 332, 350
313, 332, 326, 307
314, 333, 317, 314
315, 339, 333, 314
316, 334, 300, 275
317, 334, 326, 332
318, 352, 302, 329
319, 362, 324, 335
320, 346, 342, 321
321, 345, 322, 343
322, 337, 318, 315
323, 338, 315, 319
324, 340, 319, 316
325, 357, 354, 338
326, 339, 314, 320
327, 341, 320, 318
328, 342, 340, 316
329, 363, 342, 336
330, 355, 337, 354
331, 356, 341, 355
332, 342, 316, 321
333, 345, 336, 322
334, 343, 322, 256
335, 344, 343, 211
336, 344, 206, 323
337, 353, 344, 323
338, 353, 345, 344
339, 363, 345, 359
340, 346, 312, 336
341, 346, 321, 293
342, 351, 350, 330
343, 347, 331, 333
344, 348, 329, 328
345, 349, 328, 327
346, 360, 327, 350
347, 356, 355, 349
348, 351, 330, 331
349, 365, 327, 300
350, 356, 351, 347
351, 360, 351, 356
352, 352, 335, 302
353, 361, 329, 348
354, 362, 323, 324
355, 362, 353, 323
356, 354, 337, 338
357, 357, 338, 340
358, 355, 348, 349
359, 355, 341, 337
360, 360, 356, 349
361, 356, 339, 341
362, 358, 357, 340
363, 364, 357, 358
364, 358, 340, 342
365, 363, 359, 358
366, 359, 345, 353
367, 362, 359, 353
368, 360, 349, 327
369, 360, 350, 351
370, 361, 352, 329
371, 361, 354, 357
372, 362, 335, 352
373, 364, 362, 352
374, 363, 358, 342
375, 363, 336, 345
376, 364, 358, 359
377, 364, 359, 362
378, 365, 300, 334
379, 365, 334, 332
380, 366, 324, 241
381, 366, 274, 335
382, 413,  18, 370
383, 371, 113, 114
384, 381,  66, 380
385, 394,  97,  98
386, 538,  93,  94
387, 406, 405, 106
388,  13,   1,  61
389, 385,  61,  62
390, 422, 384, 383
391, 440, 439,  15
392, 439,  16,  15
393, 370,  17, 369
394, 413, 411,  19
395,  81,   6,  82
396, 393,  82,  83
397, 415, 392, 391
398, 420, 390, 389
399, 465, 432, 456
400, 421,  77,  78
401, 414, 388,  88
402, 524, 482, 450
403, 373,  96, 368
404, 374,  76, 372
405, 486, 484, 445
406, 398, 101, 377
407, 448, 378, 443
408, 404, 104, 105
409, 519, 472, 516
410, 379,  67,  68
411, 380,  67, 379
412, 382,  65, 381
413, 383,  64, 382
414, 384,  63, 383
415, 385,  62, 384
416,  93,  92,   7
417, 386,  92,  93
418, 534, 488, 530
419, 387,  95, 373
420, 417, 414,  89
421, 414,  88,  89
422, 389,  87, 388
423, 390,  86, 389
424, 391,  85, 390
425, 392,  84, 391
426, 393,  83, 392
427, 447, 375, 445
428, 395,  75, 374
429, 426, 396, 395
430, 398, 397, 100
431, 427, 396, 426
432, 399,  72, 376
433, 428, 400, 399
434, 434, 428, 399
435, 400,  71, 399
436, 429, 400, 428
437, 435, 430, 403
438, 405, 404, 105
439, 493, 492, 454
440, 407, 110, 111
441, 410, 409, 109
442, 536, 410, 407
443, 410,   8, 110
444, 411,   2,  19
445, 412, 112, 367
446, 367, 112, 113
447, 441, 370, 369
448, 394,  98, 375
449, 368,  96,  97
450, 369,  17,  16
451, 437, 380, 424
452, 523, 481, 522
453, 370,  18,  17
454, 371, 367, 113
455, 411, 371, 114
456, 372,  76,  77
457, 573, 547, 510
458, 419,  91, 386
459, 373,  95,  96
460, 518, 511, 469
461, 374,  75,  76
462, 375,  98,  99
463, 397,  99, 100
464, 376,  72,  73
465, 396,  73,  74
466, 377, 101, 102
467, 401, 102, 103
468, 402,  70, 400
469, 378, 103, 104
470, 403,  68,  69
471, 475, 472, 430
472, 467, 422, 438
473, 380,  66,  67
474, 423, 382, 381
475, 381,  65,  66
476, 438, 383, 382
477, 382,  64,  65
478, 480, 440, 457
479, 383,  63,  64
480, 457, 384, 422
481, 384,  62,  63
482, 442,  13, 385
483, 385,  13,  61
484, 386,  91,  92
485, 538, 387, 482
486, 387,  94,  95
487, 494, 444, 491
488, 388,  87,  88
489, 460, 416, 420
490, 416, 415, 391
491, 389,  86,  87
492, 425, 421,  78
493, 390,  85,  86
494, 432, 425,  79
495, 391,  84,  85
496, 456, 392, 415
497, 392,  83,  84
498, 436,  81, 393
499, 393,  81,  82
500, 447, 394, 375
501, 394, 368,  97
502, 395,  74,  75
503, 433, 374, 431
504, 396, 376,  73
505, 396,  74, 395
506, 397, 375,  99
507, 398, 100, 101
508, 452, 377, 446
509, 452, 398, 377
510, 399,  71,  72
511, 434, 376, 427
512, 435, 402, 429
513, 400,  70,  71
514, 401, 377, 102
515, 401, 103, 378
516, 403,  69, 402
517, 402,  69,  70
518, 449, 443, 404
519, 403, 379,  68
520, 404, 378, 104
521, 405, 105, 106
522, 406, 106, 107
523, 454, 449, 405
524, 408, 107, 108
525, 552, 546, 509
526, 412, 111, 112
527, 412, 407, 111
528, 408, 406, 107
529, 409, 408, 108
530, 409, 108, 109
531, 495, 455, 408
532, 410, 109,   8
533, 410, 110, 407
534, 411, 114,   2
535, 413,  19,  18
536, 473, 424, 472
537, 455, 454, 406
538, 458, 370, 441
539, 413, 371, 411
540, 417,  89,  90
541, 496, 419, 482
542, 416, 391, 390
543, 462, 416, 460
544, 418, 389, 388
545, 479, 425, 465
546, 419,  90,  91
547, 419, 417,  90
548, 463, 388, 414
549, 530, 484, 529
550, 482, 387, 450
551, 450, 373, 444
552, 420, 416, 390
553, 420, 389, 418
554, 421, 372,  77
555, 425,  78,  79
556, 478, 423, 437
557, 522, 480, 521
558, 437, 381, 380
559, 481, 439, 480
560, 424, 380, 379
561, 430, 379, 403
562, 432,  79,  80
563, 515, 479, 465
564, 433, 395, 374
565, 485, 446, 483
566, 470, 426, 469
567, 427, 376, 396
568, 434, 399, 376
569, 489, 483, 448
570, 471, 428, 466
571, 429, 402, 400
572, 492, 490, 449
573, 430, 424, 379
574, 431, 374, 372
575, 464, 372, 421
576, 436, 432,  80
577, 456, 432, 436
578, 477, 469, 433
579, 433, 426, 395
580, 468, 466, 434
581, 514, 513, 468
582, 435, 403, 402
583, 476, 429, 471
584, 436,  80,  81
585, 456, 436, 393
586, 478, 437, 473
587, 437, 423, 381
588, 438, 422, 383
589, 438, 382, 423
590, 439, 369,  16
591, 440,  15,  14
592, 442, 440,  14
593, 457, 440, 442
594, 498, 371, 458
595, 481, 369, 439
596, 442,  14,  13
597, 457, 442, 385
598, 443, 378, 404
599, 449, 404, 405
600, 444, 373, 368
601, 451, 368, 394
602, 445, 375, 397
603, 453, 397, 398
604, 446, 377, 401
605, 448, 446, 401
606, 488, 447, 484
607, 451, 394, 447
608, 448, 401, 378
609, 527, 489, 526
610, 454, 405, 406
611, 598, 596, 572
612, 524, 496, 482
613, 450, 387, 373
614, 503, 502, 460
615, 451, 444, 368
616, 531, 529, 486
617, 487, 452, 485
618, 453, 445, 397
619, 453, 398, 452
620, 455, 406, 408
621, 593, 566, 537
622, 495, 408, 409
623, 620, 593, 537
624, 456, 393, 392
625, 504, 465, 456
626, 457, 385, 384
627, 521, 480, 457
628, 458, 371, 413
629, 458, 413, 370
630, 535, 491, 534
631, 459, 414, 417
632, 461, 420, 418
633, 461, 460, 420
634, 505, 418, 463
635, 491, 451, 488
636, 573, 515, 502
637, 462, 415, 416
638, 463, 418, 388
639, 463, 414, 459
640, 464, 431, 372
641, 515, 465, 504
642, 465, 425, 432
643, 504, 456, 415
644, 466, 428, 434
645, 468, 434, 427
646, 474, 438, 423
647, 614, 595, 594
648, 470, 427, 426
649, 598, 588, 586
650, 469, 426, 433
651, 477, 433, 431
652, 487, 486, 453
653, 470, 468, 427
654, 490, 489, 443
655, 471, 429, 428
656, 472, 424, 430
657, 475, 430, 435
658, 478, 474, 423
659, 473, 437, 424
660, 594, 556, 546
661, 474, 467, 438
662, 476, 475, 435
663, 512, 476, 508
664, 476, 435, 429
665, 508, 471, 507
666, 520, 431, 464
667, 579, 555, 547
668, 519, 473, 472
669, 509, 506, 474
670, 479, 464, 421
671, 479, 421, 425
672, 480, 439, 440
673, 521, 457, 422
674, 556, 522, 506
675, 481, 441, 369
676, 482, 419, 386
677, 538, 482, 386
678, 483, 446, 448
679, 489, 448, 443
680, 484, 447, 445
681, 486, 445, 453
682, 514, 470, 511
683, 485, 452, 446
684, 487, 453, 452
685, 551, 549, 511
686, 533, 483, 527
687, 532, 531, 487
688, 567, 535, 534
689, 488, 451, 447
690, 490, 443, 449
691, 526, 490, 525
692, 492, 449, 454
693, 559, 526, 557
694, 567, 534, 565
695, 491, 444, 451
696, 493, 454, 455
697, 516, 475, 512
698, 537, 455, 495
699, 550, 512, 544
700, 524, 500, 496
701, 494, 450, 444
702, 536, 409, 410
703, 499, 407, 412
704, 496, 459, 417
705, 496, 417, 419
706, 497, 412, 367
707, 498, 497, 367
708, 498, 367, 371
709, 568, 441, 523
710, 620, 537, 495
711, 619, 412, 497
712, 501, 459, 500
713, 500, 459, 496
714, 565, 530, 563
715, 501, 463, 459
716, 502, 462, 460
717, 503, 460, 461
718, 542, 461, 505
719, 612, 607, 592
720, 504, 415, 462
721, 515, 510, 479
722, 505, 461, 418
723, 505, 463, 501
724, 506, 467, 474
725, 509, 474, 478
726, 507, 471, 466
727, 513, 466, 468
728, 544, 508, 543
729, 508, 476, 471
730, 517, 478, 473
731, 552, 509, 517
732, 520, 464, 510
733, 510, 464, 479
734, 511, 470, 469
735, 518, 469, 477
736, 528, 525, 492
737, 512, 475, 476
738, 513, 507, 466
739, 514, 468, 470
740, 549, 548, 514
741, 548, 545, 513
742, 515, 504, 462
743, 515, 462, 502
744, 519, 517, 473
745, 516, 472, 475
746, 581, 552, 554
747, 517, 509, 478
748, 555, 477, 520
749, 592, 563, 591
750, 553, 516, 550
751, 554, 519, 553
752, 520, 477, 431
753, 573, 541, 547
754, 521, 422, 467
755, 522, 521, 467
756, 522, 481, 480
757, 522, 467, 506
758, 594, 523, 556
759, 523, 441, 481
760, 524, 450, 494
761, 524, 494, 500
762, 525, 490, 492
763, 528, 492, 493
764, 597, 585, 584
765, 526, 489, 490
766, 545, 543, 507
767, 527, 483, 489
768, 566, 493, 537
769, 574, 544, 571
770, 529, 484, 486
771, 531, 486, 487
772, 540, 505, 501
773, 530, 488, 484
774, 532, 487, 485
775, 564, 563, 529
776, 533, 532, 485
777, 599, 589, 588
778, 533, 485, 483
779, 596, 586, 585
780, 539, 500, 535
781, 534, 491, 488
782, 535, 500, 494
783, 535, 494, 491
784, 536, 495, 409
785, 536, 407, 499
786, 537, 493, 455
787, 620, 495, 536
788, 538, 386,  93
789, 538,  94, 387
790, 540, 501, 539
791, 539, 501, 500
792, 569, 540, 567
793, 611, 591, 610
794, 541, 502, 503
795, 570, 503, 542
796, 542, 503, 461
797, 542, 505, 540
798, 543, 508, 507
799, 545, 507, 513
800, 558, 557, 525
801, 544, 512, 508
802, 548, 513, 514
803, 560, 527, 559
804, 595, 568, 594
805, 546, 506, 509
806, 555, 520, 547
807, 547, 520, 510
808, 549, 514, 511
809, 561, 533, 560
810, 551, 511, 518
811, 562, 532, 561
812, 580, 550, 574
813, 550, 516, 512
814, 582, 518, 555
815, 564, 531, 562
816, 554, 517, 519
817, 581, 578, 552
818, 583, 553, 580
819, 553, 519, 516
820, 583, 581, 554
821, 554, 552, 517
822, 555, 518, 477
823, 579, 547, 541
824, 556, 523, 522
825, 556, 506, 546
826, 557, 526, 525
827, 558, 525, 528
828, 587, 528, 566
829, 600, 574, 597
830, 572, 571, 543
831, 559, 527, 526
832, 575, 572, 545
833, 560, 533, 527
834, 576, 575, 548
835, 561, 532, 533
836, 577, 576, 549
837, 562, 531, 532
838, 563, 530, 529
839, 564, 529, 531
840, 601, 590, 589
841, 591, 564, 590
842, 607, 567, 565
843, 565, 534, 530
844, 617, 616, 609
845, 566, 528, 493
846, 567, 540, 539
847, 567, 539, 535
848, 622, 458, 568
849, 568, 458, 441
850, 612, 592, 611
851, 569, 542, 540
852, 570, 541, 503
853, 570, 542, 569
854, 571, 544, 543
855, 572, 543, 545
856, 575, 545, 548
857, 599, 598, 575
858, 573, 510, 515
859, 573, 502, 541
860, 597, 571, 596
861, 574, 550, 544
862, 576, 548, 549
863, 601, 599, 576
864, 577, 549, 551
865, 610, 601, 577
866, 611, 605, 602
867, 610, 590, 601
868, 618, 498, 595
869, 578, 546, 552
870, 613, 541, 570
871, 582, 555, 579
872, 606, 583, 604
873, 580, 553, 550
874, 583, 554, 553
875, 616, 606, 615
876, 605, 551, 582
877, 582, 551, 518
878, 608, 604, 600
879, 615, 604, 608
880, 584, 557, 558
881, 608, 584, 558
882, 585, 559, 557
883, 585, 557, 584
884, 586, 560, 559
885, 586, 559, 585
886, 587, 558, 528
887, 609, 566, 593
888, 588, 561, 560
889, 588, 560, 586
890, 589, 562, 561
891, 589, 561, 588
892, 590, 564, 562
893, 590, 562, 589
894, 591, 563, 564
895, 605, 582, 602
896, 612, 569, 607
897, 592, 565, 563
898, 619, 617, 593
899, 618, 595, 614
900, 594, 568, 523
901, 614, 546, 578
902, 618, 614, 603
903, 622, 595, 498
904, 597, 596, 585
905, 596, 571, 572
906, 600, 597, 584
907, 597, 574, 571
908, 598, 586, 596
909, 598, 572, 575
910, 599, 588, 598
911, 599, 575, 576
912, 615, 608, 587
913, 600, 580, 574
914, 601, 589, 599
915, 601, 576, 577
916, 602, 582, 579
917, 613, 612, 602
918, 603, 578, 581
919, 606, 581, 583
920, 604, 583, 580
921, 604, 580, 600
922, 611, 610, 605
923, 605, 577, 551
924, 616, 615, 609
925, 606, 603, 581
926, 607, 569, 567
927, 607, 565, 592
928, 608, 600, 584
929, 608, 558, 587
930, 609, 587, 566
931, 619, 593, 499
932, 610, 591, 590
933, 610, 577, 605
934, 612, 611, 602
935, 611, 592, 591
936, 613, 602, 579
937, 612, 570, 569
938, 613, 579, 541
939, 613, 570, 612
940, 614, 594, 546
941, 614, 578, 603
942, 615, 606, 604
943, 615, 587, 609
944, 617, 603, 616
945, 616, 603, 606
946, 617, 609, 593
947, 621, 618, 617
948, 618, 603, 617
949, 618, 497, 498
950, 619, 499, 412
951, 621, 619, 497
952, 620, 536, 499
953, 620, 499, 593
954, 621, 617, 619
955, 621, 497, 618
956, 622, 498, 458
957, 622, 568, 595
 958, 667,   9, 115
 959, 633, 118, 119
 960, 676, 633, 669
 961, 651, 149, 650
 962, 682, 639, 640
 963, 680, 155,  35
 964, 126,  10, 127
 965, 623, 126, 127
 966, 666, 129, 665
 967, 624, 124, 125
 968, 628, 123, 124
 969, 629, 122, 123
 970, 630, 122, 629
 971, 631, 120, 121
 972, 633, 119, 625
 973, 632, 626, 117
 974, 626, 116, 117
 975, 627, 116, 626
 976, 140,  11, 141
 977, 658, 141, 142
 978, 725, 696, 724
 979, 798, 762, 763
 980, 741, 698, 734
 981, 690, 689, 653
 982, 691, 690, 652
 983, 661, 134, 660
 984, 737, 735, 699
 985, 662, 133, 661
 986, 703, 661, 699
 987, 700, 663, 662
 988, 707, 664, 701
 989, 742, 127, 128
 990,  35, 155,   4
 991, 680,  35,  34
 992, 692, 646, 680
 993, 686, 153, 647
 994, 686, 648, 152
 995, 723, 648, 686
 996, 649, 151, 648
 997, 650, 150, 649
 998, 652, 148, 651
 999, 653, 147, 652
1000, 654, 146, 653
1001, 655, 145, 654
1002, 656, 144, 655
1003, 657, 143, 656
1004, 658, 142, 657
1005, 681,  33, 677
1006, 677,  32, 636
1007, 636,  32,  31
1008, 638,  30,  29
1009, 638,  29, 634
1010, 637, 636,  31
1011, 639,  28,  27
1012, 640,  27,  26
1013, 635,  26,  25
1014, 641, 635,  25
1015, 641,   3, 156
1016, 717, 668, 711
1017, 644, 641, 156
1018, 624, 125, 623
1019, 623, 125, 126
1020, 665, 130, 664
1021, 628, 124, 624
1022, 643, 642, 159
1023, 625, 119, 120
1024, 667, 643, 160
1025, 632, 117, 118
1026, 667, 627, 643
1027, 627, 115, 116
1028, 664, 131, 663
1029, 629, 123, 628
1030, 707, 702, 665
1031, 630, 121, 122
1032, 663, 132, 662
1033, 713, 710, 671
1034, 631, 625, 120
1035, 631, 121, 630
1036, 633, 632, 118
1037, 668, 626, 632
1038, 704, 699, 660
1039, 671, 625, 631
1040, 634,  29,  28
1041, 679, 640, 635
1042, 640,  26, 635
1043, 640, 639,  27
1044, 647, 154, 646
1045, 637,  31,  30
1046, 638, 637,  30
1047, 683, 636, 637
1048, 684, 634, 678
1049, 732, 686, 647
1050, 679, 635, 644
1051, 639, 634,  28
1052, 645, 644, 157
1053, 645, 158, 642
1054, 641,  25,   3
1055, 644, 156, 157
1056, 660, 135, 659
1057, 642, 158, 159
1058, 643, 159, 160
1059, 670, 626, 668
1060, 644, 635, 641
1061, 645, 157, 158
1062, 694, 649, 693
1063, 721, 720, 678
1064, 646, 154, 155
1065, 692, 680, 681
1066, 776, 732, 758
1067, 647, 153, 154
1068, 648, 151, 152
1069, 718, 685, 684
1070, 730, 691, 729
1071, 649, 150, 151
1072, 694, 650, 649
1073, 650, 149, 150
1074, 812, 784, 810
1075, 651, 148, 149
1076, 697, 136, 137
1077, 652, 147, 148
1078, 698, 697, 137
1079, 653, 146, 147
1080, 734, 705, 709
1081, 654, 145, 146
1082, 688, 655, 654
1083, 655, 144, 145
1084, 705, 698, 138
1085, 656, 143, 144
1086, 709, 657, 687
1087, 657, 142, 143
1088, 706, 140, 658
1089, 658, 140, 141
1090, 728, 726, 689
1091, 659, 135, 136
1092, 671, 669, 625
1093, 660, 134, 135
1094, 716, 674, 673
1095, 661, 133, 134
1096, 674, 629, 628
1097, 662, 132, 133
1098, 708, 673, 624
1099, 663, 131, 132
1100, 736, 703, 735
1101, 664, 130, 131
1102, 742, 708, 623
1103, 665, 129, 130
1104, 742, 666, 708
1105, 666, 128, 129
1106, 667, 160,   9
1107, 667, 115, 627
1108, 865, 670, 717
1109, 676, 632, 633
1110, 669, 633, 625
1111, 713, 671, 675
1112, 670, 643, 627
1113, 670, 627, 626
1114, 675, 631, 630
1115, 703, 700, 662
1116, 672, 630, 629
1117, 701, 663, 700
1118, 673, 628, 624
1119, 702, 666, 665
1120, 674, 672, 629
1121, 674, 628, 673
1122, 675, 671, 631
1123, 675, 630, 672
1124, 699, 661, 660
1125, 676, 668, 632
1126, 677,  33,  32
1127, 722, 636, 683
1128, 678, 634, 639
1129, 731, 727, 694
1130, 807, 644, 645
1131, 720, 718, 684
1132, 680, 646, 155
1133, 681, 680,  34
1134, 681,  34,  33
1135, 754, 681, 677
1136, 682, 678, 639
1137, 682, 640, 679
1138, 685, 637, 638
1139, 684, 638, 634
1140, 720, 684, 678
1141, 719, 685, 718
1142, 685, 683, 637
1143, 685, 638, 684
1144, 686, 152, 153
1145, 732, 647, 692
1146, 687, 657, 656
1147, 696, 656, 655
1148, 689, 654, 653
1149, 689, 688, 654
1150, 690, 653, 652
1151, 729, 691, 695
1152, 691, 652, 651
1153, 729, 695, 727
1154, 695, 651, 650
1155, 787, 752, 781
1156, 692, 647, 646
1157, 780, 758, 754
1158, 833, 828, 816
1159, 693, 649, 648
1160, 836, 818, 778
1161, 731, 694, 693
1162, 695, 691, 651
1163, 695, 650, 694
1164, 696, 687, 656
1165, 696, 655, 688
1166, 697, 659, 136
1167, 698, 137, 138
1168, 705, 138, 139
1169, 775, 741, 771
1170, 842, 838, 820
1171, 704, 660, 659
1172, 739, 738, 701
1173, 703, 662, 661
1174, 716, 714, 674
1175, 701, 664, 663
1176, 757, 708, 702
1177, 707, 665, 664
1178, 735, 703, 699
1179, 770, 738, 739
1180, 733, 659, 697
1181, 724, 696, 688
1182, 706, 705, 139
1183, 709, 705, 706
1184, 706, 139, 140
1185, 709, 706, 658
1186, 739, 700, 736
1187, 738, 707, 701
1188, 708, 624, 623
1189, 708, 666, 702
1190, 709, 658, 657
1191, 768, 734, 709
1192, 712, 669, 710
1193, 710, 669, 671
1194, 711, 668, 676
1195, 712, 711, 676
1196, 712, 676, 669
1197, 765, 730, 760
1198, 715, 675, 672
1199, 785, 782, 746
1200, 714, 672, 674
1201, 774, 740, 738
1202, 715, 713, 675
1203, 715, 672, 714
1204, 757, 716, 673
1205, 740, 702, 707
1206, 779, 643, 670
1207, 717, 670, 668
1208, 721, 678, 682
1209, 766, 761, 727
1210, 828, 790, 816
1211, 719, 683, 685
1212, 743, 682, 679
1213, 756, 721, 743
1214, 743, 721, 682
1215, 756, 752, 721
1216, 722, 677, 636
1217, 755, 683, 719
1218, 723, 693, 648
1219, 732, 723, 686
1220, 726, 688, 689
1221, 726, 724, 688
1222, 771, 734, 768
1223, 725, 687, 696
1224, 728, 689, 690
1225, 769, 735, 737
1226, 865, 789, 779
1227, 727, 695, 694
1228, 730, 690, 691
1229, 764, 763, 726
1230, 761, 760, 729
1231, 784, 745, 782
1232, 820, 800, 769
1233, 730, 728, 690
1234, 759, 693, 723
1235, 751, 719, 718
1236, 758, 692, 754
1237, 828, 808, 790
1238, 733, 704, 659
1239, 741, 697, 698
1240, 734, 698, 705
1241, 768, 709, 687
1242, 746, 745, 710
1243, 737, 699, 704
1244, 802, 747, 774
1245, 736, 700, 703
1246, 767, 704, 733
1247, 763, 762, 724
1248, 747, 716, 740
1249, 739, 701, 700
1250, 772, 735, 769
1251, 786, 785, 749
1252, 757, 740, 716
1253, 740, 707, 738
1254, 804, 771, 762
1255, 741, 733, 697
1256, 742, 623, 127
1257, 742, 128, 666
1258, 777, 679, 644
1259, 779, 778, 642
1260, 744, 717, 711
1261, 748, 711, 712
1262, 745, 712, 710
1263, 746, 710, 713
1264, 749, 713, 715
1265, 773, 736, 772
1266, 750, 714, 747
1267, 747, 714, 716
1268, 748, 744, 711
1269, 748, 712, 745
1270, 749, 746, 713
1271, 750, 749, 715
1272, 750, 715, 714
1273, 802, 786, 750
1274, 753, 718, 720
1275, 799, 794, 761
1276, 752, 720, 721
1277, 799, 761, 766
1278, 753, 751, 718
1279, 753, 720, 752
1280, 754, 692, 681
1281, 754, 677, 722
1282, 755, 722, 683
1283, 790, 719, 751
1284, 791, 743, 777
1285, 815, 756, 791
1286, 757, 673, 708
1287, 757, 702, 740
1288, 758, 732, 692
1289, 780, 754, 722
1290, 759, 731, 693
1291, 776, 759, 723
1292, 760, 730, 729
1293, 761, 729, 727
1294, 766, 727, 731
1295, 809, 787, 781
1296, 762, 725, 724
1297, 763, 724, 726
1298, 793, 769, 737
1299, 764, 726, 728
1300, 765, 764, 728
1301, 796, 760, 794
1302, 765, 728, 730
1303, 831, 810, 830
1304, 792, 731, 759
1305, 788, 753, 787
1306, 767, 737, 704
1307, 775, 733, 741
1308, 768, 687, 725
1309, 771, 768, 725
1310, 785, 746, 749
1311, 793, 737, 767
1312, 773, 739, 736
1313, 772, 736, 735
1314, 771, 741, 734
1315, 771, 725, 762
1316, 800, 772, 769
1317, 813, 811, 785
1318, 803, 772, 800
1319, 773, 770, 739
1320, 774, 747, 740
1321, 774, 738, 770
1322, 806, 804, 798
1323, 775, 767, 733
1324, 776, 723, 732
1325, 780, 776, 758
1326, 777, 743, 679
1327, 818, 807, 778
1328, 778, 645, 642
1329, 818, 815, 791
1330, 779, 642, 643
1331, 789, 717, 744
1332, 780, 722, 755
1333, 808, 805, 776
1334, 781, 752, 756
1335, 849, 818, 836
1336, 856, 852, 846
1337, 782, 745, 746
1338, 783, 744, 748
1339, 784, 783, 748
1340, 784, 748, 745
1341, 822, 821, 795
1342, 786, 749, 750
1343, 803, 801, 773
1344, 802, 750, 747
1345, 801, 770, 773
1346, 843, 841, 823
1347, 787, 753, 752
1348, 828, 819, 792
1349, 788, 751, 753
1350, 817, 744, 783
1351, 836, 779, 789
1352, 790, 755, 719
1353, 816, 751, 788
1354, 791, 756, 743
1355, 807, 791, 777
1356, 792, 766, 731
1357, 805, 792, 759
1358, 806, 775, 804
1359, 797, 764, 795
1360, 794, 760, 761
1361, 824, 823, 794
1362, 795, 764, 765
1363, 796, 795, 765
1364, 796, 765, 760
1365, 823, 822, 796
1366, 839, 820, 793
1367, 797, 763, 764
1368, 806, 767, 775
1369, 798, 763, 797
1370, 833, 816, 788
1371, 814, 787, 809
1372, 811, 810, 782
1373, 820, 769, 793
1374, 857, 813, 786
1375, 803, 773, 772
1376, 802, 774, 770
1377, 802, 770, 801
1378, 854, 852, 838
1379, 826, 803, 800
1380, 804, 775, 771
1381, 804, 762, 798
1382, 805, 759, 776
1383, 808, 776, 780
1384, 839, 798, 825
1385, 806, 793, 767
1386, 807, 777, 644
1387, 807, 645, 778
1388, 808, 780, 755
1389, 808, 755, 790
1390, 834, 781, 815
1391, 861, 855, 843
1392, 810, 784, 782
1393, 811, 782, 785
1394, 813, 785, 786
1395, 846, 845, 830
1396, 849, 836, 817
1397, 812, 783, 784
1398, 857, 786, 802
1399, 827, 801, 803
1400, 837, 819, 833
1401, 814, 788, 787
1402, 858, 844, 849
1403, 815, 781, 756
1404, 816, 790, 751
1405, 833, 819, 828
1406, 817, 789, 744
1407, 835, 783, 812
1408, 818, 791, 807
1409, 836, 778, 779
1410, 819, 799, 766
1411, 819, 766, 792
1412, 842, 839, 825
1413, 821, 797, 795
1414, 838, 826, 800
1415, 822, 795, 796
1416, 823, 796, 794
1417, 841, 840, 822
1418, 824, 794, 799
1419, 851, 837, 847
1420, 837, 799, 819
1421, 829, 814, 809
1422, 825, 798, 797
1423, 825, 797, 821
1424, 832, 813, 827
1425, 838, 800, 820
1426, 857, 827, 813
1427, 827, 803, 826
1428, 828, 792, 805
1429, 828, 805, 808
1430, 848, 809, 834
1431, 864, 853, 855
1432, 830, 810, 811
1433, 832, 830, 811
1434, 858, 848, 834
1435, 831, 812, 810
1436, 832, 811, 813
1437, 856, 827, 826
1438, 847, 788, 814
1439, 847, 833, 788
1440, 863, 858, 850
1441, 834, 809, 781
1442, 835, 817, 783
1443, 850, 812, 831
1444, 836, 789, 817
1445, 849, 844, 818
1446, 847, 837, 833
1447, 837, 824, 799
1448, 842, 820, 839
1449, 840, 821, 822
1450, 839, 793, 806
1451, 839, 806, 798
1452, 841, 822, 823
1453, 854, 853, 852
1454, 843, 823, 824
1455, 855, 853, 841
1456, 842, 825, 821
1457, 842, 821, 840
1458, 851, 824, 837
1459, 864, 859, 860
1460, 844, 834, 815
1461, 844, 815, 818
1462, 845, 831, 830
1463, 846, 830, 832
1464, 856, 846, 832
1465, 852, 826, 838
1466, 847, 814, 829
1467, 851, 847, 829
1468, 863, 859, 848
1469, 848, 829, 809
1470, 849, 817, 835
1471, 858, 849, 835
1472, 850, 835, 812
1473, 860, 831, 845
1474, 861, 829, 859
1475, 851, 843, 824
1476, 854, 838, 842
1477, 853, 840, 841
1478, 855, 841, 843
1479, 862, 852, 853
1480, 854, 842, 840
1481, 854, 840, 853
1482, 864, 861, 859
1483, 864, 862, 853
1484, 856, 832, 827
1485, 856, 826, 852
1486, 857, 802, 801
1487, 857, 801, 827
1488, 858, 834, 844
1489, 858, 835, 850
1490, 859, 829, 848
1491, 863, 860, 859
1492, 860, 850, 831
1493, 864, 860, 845
1494, 861, 843, 851
1495, 861, 851, 829
1496, 862, 845, 846
1497, 862, 846, 852
1498, 863, 848, 858
1499, 863, 850, 860
1500, 864, 845, 862
1501, 864, 855, 861
1502, 865, 779, 670
1503, 865, 717, 789
1504,  969,  125,  124
1505,  926,  201,  867
1506, 1220, 1194, 1168
1507,  956,    8,  109
1508,  906,  192,  905
1509,  867,  126,  125
1510,  973,  122,  920
1511,  920,  122,  121
1512,  921,  120,  868
1513,  868,  120,  119
1514,  905,  193,  904
1515,  902,  195,  196
1516,  871,  118,  117
1517,  870,  868,  119
1518,  872,  163,  869
1519,  873,  871,  117
1520,  874,  873,  116
1521,  875,    9,  161
1522,  876,  869,  164
1523,  917,  874,  877
1524,   93,    7,  166
1525,  878,   93,  166
1526,  899,  168,  898
1527,  879,   95,   94
1528,  880,   96,   95
1529,  881,   97,   96
1530,  882,   98,   97
1531,  883,   99,   98
1532,  934,  932,  909
1533,  885,  100,  884
1534,  886,  101,  885
1535,  927,  907,  906
1536,  888,  104,  866
1537,  888,  105,  104
1538,  943,  888,  942
1539,  890,  106,  889
1540,  892,  109,  108
1541,  181,  180,   12
1542,  916,  181,  182
1543,  937,  914,  913
1544,  938,  937,  913
1545,  939,  911,  936
1546,  966,  958,  177
1547,  966,  177,  178
1548,  957,  174,  175
1549,  988,  932,  986
1550,  961,  894,  960
1551,  895,  172,  894
1552, 1042, 1041, 1002
1553,  962,  895,  961
1554, 1012,  961,  960
1555, 1046,  166,  167
1556,  201,   10,  126
1557,  867,  201,  126
1558,  928,  199,  200
1559,  924,  900,  198
1560,  924,  198,  199
1561, 1025,  940,  978
1562,  901,  197,  900
1563,  901,  196,  197
1564,  940,  901,  900
1565,  904,  194,  903
1566,  929,  904,  903
1567,  996,  953,  995
1568,  930,  907,  927
1569,  908,  190,  907
1570,  910,  188,  909
1571,  911,  187,  910
1572,  912,  186,  911
1573,  913,  185,  912
1574,  914,  184,  913
1575,  915,  183,  914
1576,  916,  182,  915
1577,  866,  104,  103
1578,  887,  103,  102
1579,  969,  124,  922
1580,  922,  124,  123
1581,  870,  119,  118
1582,  923,  870,  871
1583,  869,  163,  164
1584,  876,  164,  165
1585,  871,  870,  118
1586, 1096,  998, 1049
1587,  873,  117,  116
1588,  917,  873,  874
1589,  872,  162,  163
1590,  935,  902,  925
1591,  874,  116,  115
1592,  877,  875,  161
1593,  875,  874,  115
1594,  877,  162,  872
1595,  875,  115,    9
1596,  877,  161,  162
1597, 1227,  956,  892
1598,  891,  107,  890
1599, 1226,  877,  872
1600,  877,  874,  875
1601,  879,   94,  878
1602,  878,   94,   93
1603,  898,  169,  897
1604,  880,   95,  879
1605,  897,  170,  896
1606,  881,   96,  880
1607,  896,  171,  895
1608,  882,   97,  881
1609,  894,  173,  893
1610,  883,   98,  882
1611, 1047,  997, 1041
1612,  884,   99,  883
1613,  909,  189,  908
1614,  884,  100,   99
1615,  907,  191,  906
1616,  885,  101,  100
1617,  887,  102,  886
1618,  886,  102,  101
1619,  946,  886,  944
1620,  887,  866,  103
1621,  889,  105,  888
1622,  983,  982,  933
1623,  947,  889,  943
1624,  889,  106,  105
1625,  948,  890,  947
1626,  890,  107,  106
1627,  949,  891,  948
1628,  891,  108,  107
1629,  956,  876,  165
1630,  892,  108,  891
1631,  893,  173,  174
1632,  932,  910,  909
1633,  950,  945,  882
1634,  894,  172,  173
1635,  951,  950,  881
1636,  895,  171,  172
1637,  952,  951,  880
1638,  896,  170,  171
1639, 1046, 1007,  878
1640,  897,  169,  170
1641,  964,  897,  963
1642,  898,  168,  169
1643, 1046,  899, 1007
1644,  899,  167,  168
1645,  900,  197,  198
1646, 1039, 1025,  978
1647,  974,  918,  923
1648,  902,  196,  901
1649, 1000,  999,  947
1650,  903,  195,  902
1651,  935,  929,  903
1652,  903,  194,  195
1653,  933,  904,  929
1654,  904,  193,  194
1655,  981,  979,  927
1656,  905,  192,  193
1657, 1090, 1047, 1085
1658,  906,  191,  192
1659, 1078, 1075, 1036
1660,  907,  190,  191
1661,  934,  908,  930
1662,  908,  189,  190
1663,  955,  883,  945
1664,  909,  188,  189
1665,  936,  910,  932
1666,  910,  187,  188
1667,  938,  913,  912
1668,  911,  186,  187
1669, 1019, 1011, 1010
1670,  912,  185,  186
1671,  967,  966,  178
1672,  913,  184,  185
1673,  941,  914,  937
1674,  914,  183,  184
1675,  970,  915,  941
1676,  915,  182,  183
1677,  968,  180,  916
1678,  916,  180,  181
1679,  975,  923,  919
1680,  919,  873,  917
1681,  940,  925,  901
1682,  918,  868,  870
1683,  919,  871,  873
1684, 1021,  974,  975
1685,  921,  121,  120
1686,  921,  920,  121
1687,  976,  868,  918
1688,  976,  972,  921
1689,  993,  924,  928
1690,  973,  123,  122
1691,  923,  918,  870
1692,  923,  871,  919
1693,  928,  200,  926
1694,  971,  926,  867
1695, 1077,  985, 1025
1696,  925,  902,  901
1697,  926,  200,  201
1698,  971,  867,  969
1699,  931,  906,  905
1700, 1093, 1052, 1092
1701, 1018,  969,  922
1702,  928,  924,  199
1703,  935,  903,  902
1704,  982,  981,  931
1705,  986,  934,  980
1706,  930,  908,  907
1707,  931,  927,  906
1708,  933,  931,  905
1709, 1014,  962, 1013
1710, 1008,  893,  957
1711,  933,  905,  904
1712, 1001,  942,  996
1713,  934,  909,  908
1714,  980,  930,  979
1715,  987,  925,  985
1716, 1049,  998,  999
1717,  990,  939,  989
1718,  936,  911,  910
1719, 1011,  958,  966
1720,  959,  176,  958
1721,  939,  938,  912
1722, 1104, 1099, 1058
1723,  939,  912,  911
1724,  989,  936,  988
1725,  978,  900,  924
1726, 1065, 1039, 1056
1727, 1010,  970,  977
1728,  941,  915,  914
1729,  942,  888,  866
1730,  953,  866,  887
1731,  984,  983,  929
1732,  943,  889,  888
1733,  944,  886,  885
1734,  954,  885,  884
1735,  945,  883,  882
1736,  950,  882,  881
1737,  995,  946,  994
1738,  946,  887,  886
1739, 1054,  949,  998
1740,  947,  890,  889
1741,  998,  949,  948
1742,  948,  891,  890
1743, 1227,  892,  949
1744,  949,  892,  891
1745,  951,  881,  880
1746,  963,  896,  962
1747,  952,  880,  879
1748, 1013,  961, 1012
1749, 1007,  952,  879
1750,  965,  899,  898
1751,  953,  942,  866
1752,  953,  887,  946
1753,  954,  944,  885
1754,  955,  954,  884
1755,  955,  884,  883
1756, 1092, 1043, 1060
1757,  956,  165,    8
1758,  956,  109,  892
1759,  957,  893,  174
1760,  959,  175,  176
1761,  958,  176,  177
1762, 1019, 1010,  977
1763, 1104, 1071, 1099
1764,  959,  957,  175
1765,  960,  894,  893
1766, 1030,  986, 1026
1767, 1006,  951,  952
1768,  961,  895,  894
1769, 1006, 1003,  951
1770,  962,  896,  895
1771, 1061, 1013, 1059
1772,  963,  897,  896
1773, 1015,  963, 1014
1774,  964,  898,  897
1775, 1055, 1007,  965
1776,  965,  898,  964
1777,  967,  178,  179
1778, 1019,  977,  992
1779,  968,  967,  179
1780,  970,  968,  916
1781,  968,  179,  180
1782,  970,  916,  915
1783,  969,  867,  125
1784,  993,  978,  924
1785,  977,  970,  941
1786,  970,  967,  968
1787,  993,  928,  971
1788,  971,  928,  926
1789,  972,  920,  921
1790, 1023, 1020,  976
1791,  973,  922,  123
1792, 1022,  920,  972
1793, 1024,  919,  917
1794,  975,  974,  923
1795, 1024,  975,  919
1796, 1096, 1054,  998
1797,  976,  921,  868
1798, 1023,  918,  974
1799,  992,  941,  937
1800,  991,  938,  990
1801, 1084, 1025, 1039
1802,  978,  940,  900
1803,  979,  930,  927
1804,  981,  927,  931
1805,  997,  994,  944
1806,  980,  934,  930
1807,  982,  931,  933
1808, 1079, 1078, 1034
1809,  983,  933,  929
1810, 1045,  996, 1044
1811,  984,  929,  935
1812, 1050, 1001, 1045
1813,  987,  935,  925
1814, 1038,  987, 1029
1815,  985,  925,  940
1816, 1084, 1039, 1065
1817, 1002,  997,  954
1818,  986,  932,  934
1819, 1037, 1033,  983
1820,  987,  984,  935
1821, 1137, 1071, 1113
1822,  988,  936,  932
1823, 1071, 1032, 1028
1824,  989,  939,  936
1825, 1027,  990,  989
1826,  990,  938,  939
1827, 1028,  990, 1027
1828,  991,  937,  938
1829,  992,  977,  941
1830,  992,  937,  991
1831, 1018,  971,  969
1832, 1056,  971, 1018
1833,  994,  946,  944
1834,  997,  944,  954
1835, 1075, 1072, 1026
1836,  995,  953,  946
1837, 1035,  982, 1033
1838,  996,  942,  953
1839, 1002,  954,  955
1840, 1116, 1111, 1075
1841,  999,  948,  947
1842,  999,  998,  948
1843, 1000,  947,  943
1844, 1083, 1037, 1038
1845, 1001, 1000,  943
1846, 1051, 1000, 1050
1847, 1001,  943,  942
1848, 1080, 1079, 1035
1849, 1005,  955,  945
1850, 1086, 1085, 1041
1851, 1004,  950, 1003
1852, 1003,  950,  951
1853, 1087, 1086, 1042
1854, 1004,  945,  950
1855, 1005, 1002,  955
1856, 1005,  945, 1004
1857, 1055, 1006,  952
1858, 1016,  965,  964
1859, 1007,  879,  878
1860, 1007,  899,  965
1861, 1008,  960,  893
1862, 1017,  957,  959
1863, 1009,  959,  958
1864, 1058, 1011, 1019
1865, 1010,  966,  967
1866, 1010,  967,  970
1867, 1011, 1009,  958
1868, 1011,  966, 1010
1869, 1057,  960, 1008
1870, 1150, 1113, 1115
1871, 1060, 1043, 1016
1872, 1013,  962,  961
1873, 1043, 1006, 1016
1874, 1014,  963,  962
1875, 1060, 1016, 1015
1876, 1015,  964,  963
1877, 1055, 1016, 1006
1878, 1016,  964, 1015
1879, 1017, 1008,  957
1880, 1017,  959, 1009
1881, 1040,  922,  973
1882, 1066, 1040, 1022
1883, 1032,  992,  991
1884, 1076, 1031, 1073
1885, 1020,  972,  976
1886, 1069, 1067, 1023
1887, 1038,  984,  987
1888, 1070,  975, 1024
1889, 1022,  973,  920
1890, 1068,  972, 1020
1891, 1023,  976,  918
1892, 1069,  974, 1021
1893, 1097,  917,  877
1894, 1133, 1049, 1095
1895, 1025,  985,  940
1896, 1039,  978,  993
1897, 1026,  986,  980
1898, 1036,  980,  979
1899, 1031,  989,  988
1900, 1073, 1030, 1072
1901, 1113, 1071, 1074
1902, 1028,  991,  990
1903, 1029,  987,  985
1904, 1142, 1122, 1106
1905, 1030,  988,  986
1906, 1161, 1154, 1125
1907, 1031, 1027,  989
1908, 1031,  988, 1030
1909, 1032, 1019,  992
1910, 1032,  991, 1028
1911, 1033,  982,  983
1912, 1037,  983,  984
1913, 1034,  979,  981
1914, 1035, 1034,  981
1915, 1035,  981,  982
1916, 1118, 1117, 1079
1917, 1036, 1026,  980
1918, 1036,  979, 1034
1919, 1038, 1037,  984
1920, 1095, 1051, 1094
1921, 1119, 1029, 1077
1922, 1083, 1082, 1037
1923, 1056, 1039,  993
1924, 1065, 1056, 1018
1925, 1040, 1018,  922
1926, 1040,  973, 1022
1927, 1041,  997, 1002
1928, 1042, 1002, 1005
1929, 1053, 1005, 1004
1930, 1059, 1013, 1012
1931, 1052, 1003, 1043
1932, 1043, 1003, 1006
1933, 1044,  996,  995
1934, 1048,  995,  994
1935, 1094, 1050, 1089
1936, 1045, 1001,  996
1937, 1046,  878,  166
1938, 1046,  167,  899
1939, 1047,  994,  997
1940, 1155, 1124, 1154
1941, 1048, 1044,  995
1942, 1048,  994, 1047
1943, 1132, 1094, 1131
1944, 1051,  999, 1000
1945, 1050, 1000, 1001
1946, 1089, 1045, 1088
1947, 1131, 1089, 1127
1948, 1051, 1049,  999
1949, 1062, 1014, 1061
1950, 1052, 1004, 1003
1951, 1053, 1042, 1005
1952, 1053, 1004, 1052
1953, 1229,  876, 1227
1954, 1229, 1227, 1054
1955, 1055,  952, 1007
1956, 1055,  965, 1016
1957, 1056,  993,  971
1958, 1065, 1018, 1040
1959, 1057, 1012,  960
1960, 1064, 1008, 1017
1961, 1063, 1009, 1058
1962, 1058, 1009, 1011
1963, 1098, 1012, 1057
1964, 1112, 1072, 1111
1965, 1062, 1015, 1014
1966, 1061, 1014, 1013
1967, 1125, 1124, 1086
1968, 1171, 1140, 1170
1969, 1092, 1060, 1062
1970, 1062, 1060, 1015
1971, 1104, 1058, 1019
1972, 1063, 1017, 1009
1973, 1064, 1057, 1008
1974, 1064, 1017, 1063
1975, 1066, 1065, 1040
1976, 1172, 1106, 1122
1977, 1068, 1066, 1022
1978, 1172, 1122, 1084
1979, 1067, 1020, 1023
1980, 1105, 1067, 1069
1981, 1068, 1022,  972
1982, 1109, 1020, 1067
1983, 1069, 1023,  974
1984, 1144, 1143, 1110
1985, 1070, 1021,  975
1986, 1108, 1024, 1097
1987, 1074, 1028, 1027
1988, 1114, 1073, 1112
1989, 1072, 1030, 1026
1990, 1075, 1026, 1036
1991, 1199, 1150, 1151
1992, 1073, 1031, 1030
1993, 1074, 1071, 1028
1994, 1076, 1074, 1027
1995, 1078, 1036, 1034
1996, 1128, 1090, 1126
1997, 1076, 1027, 1031
1998, 1177, 1146, 1176
1999, 1077, 1029,  985
2000, 1084, 1077, 1025
2001, 1079, 1034, 1035
2002, 1213, 1207, 1210
2003, 1080, 1035, 1033
2004, 1117, 1116, 1078
2005, 1082, 1033, 1037
2006, 1153, 1152, 1117
2007, 1083, 1038, 1081
2008, 1081, 1038, 1029
2009, 1149, 1070, 1108
2010, 1082, 1080, 1033
2011, 1211, 1145, 1175
2012, 1156, 1081, 1119
2013, 1172, 1066, 1106
2014, 1106, 1066, 1068
2015, 1085, 1047, 1041
2016, 1086, 1041, 1042
2017, 1087, 1042, 1053
2018, 1150, 1137, 1113
2019, 1093, 1053, 1052
2020, 1135, 1092, 1102
2021, 1088, 1045, 1044
2022, 1091, 1044, 1048
2023, 1120, 1118, 1080
2024, 1089, 1050, 1045
2025, 1090, 1048, 1047
2026, 1126, 1085, 1124
2027, 1091, 1088, 1044
2028, 1091, 1048, 1090
2029, 1092, 1052, 1043
2030, 1102, 1061, 1100
2031, 1100, 1061, 1059
2032, 1093, 1087, 1053
2033, 1123, 1083, 1121
2034, 1094, 1051, 1050
2035, 1219, 1200, 1193
2036, 1095, 1049, 1051
2037, 1168, 1096, 1133
2038, 1134, 1054, 1096
2039, 1097, 1024,  917
2040, 1228, 1194, 1141
2041, 1098, 1059, 1012
2042, 1103, 1057, 1064
2043, 1101, 1063, 1099
2044, 1099, 1063, 1058
2045, 1129, 1125, 1087
2046, 1136, 1059, 1098
2047, 1137, 1099, 1071
2048, 1101, 1064, 1063
2049, 1102, 1092, 1062
2050, 1102, 1062, 1061
2051, 1103, 1098, 1057
2052, 1103, 1064, 1101
2053, 1104, 1019, 1032
2054, 1104, 1032, 1071
2055, 1110, 1069, 1021
2056, 1224, 1221, 1208
2057, 1109, 1106, 1068
2058, 1158, 1122, 1142
2059, 1107, 1021, 1070
2060, 1224, 1218, 1221
2061, 1220, 1193, 1200
2062, 1108, 1070, 1024
2063, 1109, 1068, 1020
2064, 1145, 1067, 1105
2065, 1110, 1105, 1069
2066, 1110, 1021, 1107
2067, 1111, 1072, 1075
2068, 1116, 1075, 1078
2069, 1206, 1180, 1201
2070, 1112, 1073, 1072
2071, 1115, 1074, 1076
2072, 1201, 1197, 1196
2073, 1114, 1076, 1073
2074, 1148, 1112, 1146
2075, 1115, 1113, 1074
2076, 1115, 1076, 1114
2077, 1117, 1078, 1079
2078, 1152, 1147, 1116
2079, 1118, 1079, 1080
2080, 1182, 1178, 1152
2081, 1120, 1080, 1082
2082, 1157, 1153, 1118
2083, 1119, 1081, 1029
2084, 1122, 1119, 1077
2085, 1123, 1082, 1083
2086, 1215, 1210, 1184
2087, 1121, 1083, 1081
2088, 1143, 1105, 1110
2089, 1122, 1077, 1084
2090, 1142, 1106, 1109
2091, 1191, 1165, 1188
2092, 1123, 1120, 1082
2093, 1124, 1085, 1086
2094, 1125, 1086, 1087
2095, 1129, 1087, 1093
2096, 1161, 1129, 1138
2097, 1147, 1146, 1111
2098, 1126, 1090, 1085
2099, 1127, 1089, 1088
2100, 1130, 1088, 1091
2101, 1128, 1091, 1090
2102, 1183, 1155, 1180
2103, 1135, 1129, 1093
2104, 1138, 1135, 1102
2105, 1130, 1127, 1088
2106, 1130, 1091, 1128
2107, 1159, 1157, 1120
2108, 1131, 1094, 1089
2109, 1160, 1159, 1123
2110, 1132, 1095, 1094
2111, 1133, 1096, 1049
2112, 1167, 1095, 1132
2113, 1228, 1134, 1194
2114, 1229, 1134, 1228
2115, 1135, 1093, 1092
2116, 1138, 1102, 1100
2117, 1136, 1100, 1059
2118, 1140, 1098, 1103
2119, 1139, 1101, 1137
2120, 1137, 1101, 1099
2121, 1138, 1129, 1135
2122, 1169, 1100, 1136
2123, 1140, 1103, 1139
2124, 1139, 1103, 1101
2125, 1151, 1114, 1148
2126, 1140, 1136, 1098
2127, 1141, 1108, 1097
2128, 1226, 1141, 1097
2129, 1145, 1142, 1109
2130, 1211, 1175, 1204
2131, 1211, 1185, 1156
2132, 1144, 1110, 1107
2133, 1181, 1107, 1149
2134, 1223, 1222, 1221
2135, 1145, 1109, 1067
2136, 1175, 1105, 1143
2137, 1146, 1112, 1111
2138, 1147, 1111, 1116
2139, 1152, 1116, 1117
2140, 1162, 1126, 1155
2141, 1170, 1139, 1150
2142, 1148, 1114, 1112
2143, 1149, 1107, 1070
2144, 1173, 1108, 1141
2145, 1150, 1139, 1137
2146, 1151, 1150, 1115
2147, 1151, 1115, 1114
2148, 1179, 1148, 1177
2149, 1153, 1117, 1118
2150, 1164, 1128, 1162
2151, 1157, 1118, 1120
2152, 1184, 1182, 1153
2153, 1154, 1124, 1125
2154, 1161, 1125, 1129
2155, 1205, 1202, 1201
2156, 1155, 1126, 1124
2157, 1156, 1121, 1081
2158, 1158, 1156, 1119
2159, 1159, 1120, 1123
2160, 1165, 1127, 1163
2161, 1158, 1119, 1122
2162, 1211, 1142, 1145
2163, 1160, 1123, 1121
2164, 1166, 1131, 1165
2165, 1204, 1175, 1143
2166, 1174, 1143, 1144
2167, 1198, 1138, 1169
2168, 1205, 1195, 1179
2169, 1178, 1176, 1147
2170, 1162, 1128, 1126
2171, 1163, 1127, 1130
2172, 1164, 1163, 1130
2173, 1164, 1130, 1128
2174, 1213, 1209, 1207
2175, 1217, 1216, 1215
2176, 1165, 1131, 1127
2177, 1190, 1189, 1159
2178, 1166, 1132, 1131
2179, 1167, 1133, 1095
2180, 1192, 1132, 1166
2181, 1168, 1134, 1096
2182, 1193, 1133, 1167
2183, 1169, 1138, 1100
2184, 1171, 1136, 1140
2185, 1170, 1140, 1139
2186, 1199, 1195, 1170
2187, 1205, 1196, 1195
2188, 1171, 1169, 1136
2189, 1172, 1084, 1065
2190, 1172, 1065, 1066
2191, 1173, 1149, 1108
2192, 1194, 1173, 1141
2193, 1214, 1185, 1204
2194, 1208, 1144, 1181
2195, 1175, 1145, 1105
2196, 1211, 1204, 1185
2197, 1176, 1146, 1147
2198, 1178, 1147, 1152
2199, 1198, 1196, 1197
2200, 1177, 1148, 1146
2201, 1182, 1152, 1153
2202, 1187, 1162, 1183
2203, 1199, 1179, 1195
2204, 1179, 1151, 1148
2205, 1180, 1155, 1154
2206, 1197, 1154, 1161
2207, 1181, 1144, 1107
2208, 1200, 1149, 1173
2209, 1184, 1153, 1157
2210, 1210, 1207, 1182
2211, 1203, 1202, 1176
2212, 1183, 1162, 1155
2213, 1189, 1157, 1159
2214, 1188, 1163, 1186
2215, 1185, 1160, 1121
2216, 1185, 1121, 1156
2217, 1186, 1163, 1164
2218, 1187, 1186, 1164
2219, 1187, 1164, 1162
2220, 1209, 1203, 1207
2221, 1215, 1212, 1210
2222, 1188, 1165, 1163
2223, 1189, 1184, 1157
2224, 1190, 1159, 1160
2225, 1225, 1222, 1214
2226, 1224, 1208, 1219
2227, 1191, 1166, 1165
2228, 1217, 1215, 1189
2229, 1192, 1167, 1132
2230, 1218, 1166, 1191
2231, 1193, 1168, 1133
2232, 1219, 1208, 1181
2233, 1228, 1141, 1226
2234, 1194, 1134, 1168
2235, 1195, 1171, 1170
2236, 1205, 1201, 1196
2237, 1196, 1169, 1171
2238, 1196, 1171, 1195
2239, 1197, 1180, 1154
2240, 1198, 1197, 1161
2241, 1198, 1161, 1138
2242, 1198, 1169, 1196
2243, 1199, 1170, 1150
2244, 1199, 1151, 1179
2245, 1200, 1181, 1149
2246, 1220, 1200, 1173
2247, 1202, 1177, 1176
2248, 1201, 1180, 1197
2249, 1203, 1176, 1178
2250, 1206, 1202, 1203
2251, 1207, 1203, 1178
2252, 1209, 1206, 1203
2253, 1204, 1143, 1174
2254, 1225, 1221, 1222
2255, 1205, 1179, 1177
2256, 1205, 1177, 1202
2257, 1206, 1183, 1180
2258, 1206, 1201, 1202
2259, 1207, 1178, 1182
2260, 1210, 1182, 1184
2261, 1208, 1174, 1144
2262, 1219, 1181, 1200
2263, 1209, 1187, 1183
2264, 1209, 1183, 1206
2265, 1215, 1184, 1189
2266, 1213, 1210, 1212
2267, 1211, 1156, 1158
2268, 1211, 1158, 1142
2269, 1212, 1188, 1186
2270, 1213, 1212, 1186
2271, 1213, 1186, 1187
2272, 1213, 1187, 1209
2273, 1214, 1190, 1160
2274, 1214, 1160, 1185
2275, 1217, 1189, 1190
2276, 1216, 1212, 1215
2277, 1216, 1191, 1188
2278, 1216, 1188, 1212
2279, 1222, 1190, 1214
2280, 1223, 1216, 1217
2281, 1218, 1192, 1166
2282, 1223, 1218, 1191
2283, 1219, 1193, 1167
2284, 1219, 1167, 1192
2285, 1220, 1173, 1194
2286, 1220, 1168, 1193
2287, 1223, 1221, 1218
2288, 1221, 1174, 1208
2289, 1222, 1217, 1190
2290, 1225, 1214, 1204
2291, 1223, 1191, 1216
2292, 1223, 1217, 1222
2293, 1224, 1219, 1192
2294, 1224, 1192, 1218
2295, 1225, 1204, 1174
2296, 1225, 1174, 1221
2297, 1226, 1097,  877
2298, 1228, 1226,  872
2299, 1227,  876,  956
2300, 1227,  949, 1054
2301, 1228,  872,  869
2302, 1229, 1228,  869
2303, 1229,  869,  876
2304, 1229, 1054, 1134
*Orientation, name=Ori-1
1., 0., 0., 0., 1., 0.
3, 0.
** Region: (CompositeLayup-1-1: Generated From Layup)
*Elset, elset=CompositeLayup-1-1, generate
    1,  2304,     1
** Section: CompositeLayup-1-1
*Shell Section, elset=CompositeLayup-1-1, composite, orientation=Ori-1, layup=CompositeLayup-1
0.25, 1, ABQ_PLY_FABRIC, 45., Ply-1
0.25, 1, ABQ_PLY_FABRIC, -45., Ply-2
0.25, 1, ABQ_PLY_FABRIC, -45., Ply-3
0.25, 1, ABQ_PLY_FABRIC, 45., Ply-4
*End Part
**  
**
** ASSEMBLY
**
*Assembly, name=Assembly
**  
*Instance, name=Plate-1, part=PLATE
*End Instance
**  
*Nset, nset=Set-1, instance=Plate-1
   6,   7,  12,  82,  83,  84,  85,  86,  87,  88,  89,  90,  91,  92, 166, 167
 168, 169, 170, 171, 172, 173, 174, 175, 176, 177, 178, 179, 180
*Elset, elset=Set-1, instance=Plate-1
  395,  396,  416,  421,  484,  488,  491,  493,  495,  497,  540,  546, 1524, 1541, 1547, 1548
 1555, 1631, 1634, 1636, 1638, 1640, 1642, 1644, 1760, 1761, 1777, 1781
*Nset, nset=Set-2, instance=Plate-1
   4,   5,  11,  36,  37,  38,  39,  40,  41,  42,  43,  44,  45,  46, 141, 142
 143, 144, 145, 146, 147, 148, 149, 150, 151, 152, 153, 154, 155
*Elset, elset=Set-2, instance=Plate-1
   16,   17,   27,   30,   31,   32,   85,   93,   95,   97,   99,  101,  976,  977,  990, 1064
 1067, 1068, 1071, 1073, 1075, 1077, 1079, 1081, 1083, 1085, 1087, 1144
*End Assembly
*Amplitude, name=Ramp, time=TOTAL TIME
             0.,              0.,            0.01,              1.
** 
** MATERIALS
** 
*Material, name=ABQ_PLY_FABRIC
*Density
 1.594e-09,
*Depvar, delete=16
     16,
*User Material, constants=40
27500., 27500.,   0.11,  2900., 27500., 27500.,   0.11,     0.
   604.,   291.,   604.,   291.,    75.,     0.,     0.,     0.
 20.438, 4.6257, 20.438, 4.6257, 0.3221,     1.,     0.,     0.
    75., 0.0008,  0.552,     0.,     0.,     0.,     0.,     0.
     0.,     1.,  1e+09,  1e+09, -1e+09,     0.,     0.,     0.
** ----------------------------------------------------------------
** 
** STEP: Step-1
** 
*Step, name=Step-1, nlgeom=NO
*Dynamic, Explicit
, 0.01
*Bulk Viscosity
0.06, 1.2
** 
** BOUNDARY CONDITIONS
** 
** Name: BC-1 Type: Symmetry/Antisymmetry/Encastre
*Boundary
Set-1, ENCASTRE
** Name: BC-2 Type: Displacement/Rotation
*Boundary, amplitude=Ramp
Set-2, 1, 1, 3.
** 
** OUTPUT REQUESTS
** 
*Restart, write, number interval=1, time marks=NO
** 
** FIELD OUTPUT: F-Output-1
** 
*Output, field, number interval=1
*Element Output, position=NODES, directions=YES
LE, PEEQ, SDV
** 
** HISTORY OUTPUT: H-Output-1
** 
*Output, history, variable=PRESELECT
*End Step
