*Heading
** Job name: Plate_nonlinear_314 Model name: Model-1
** Generated by: Abaqus/CAE 2024.HF3
*Preprint, echo=NO, model=NO, history=NO, contact=NO
**
** PARTS
**
*Part, name=PLATE
*Node
      1,   65.8902664,   119.669617,           0.
      2,   65.8902664,   83.9788818,           0.
      3,   84.0508652,   65.8182907,           0.
      4,   119.800484,   65.8182907,           0.
      5,   119.800484,   119.669617,           0.
      6,           0.,   119.669617,           0.
      7,           0.,   65.8182907,           0.
      8,   47.7296715,   65.8182907,           0.
      9,   65.8902664,    47.657692,           0.
     10,   65.8902664,           0.,           0.
     11,   119.800484,           0.,           0.
     12,           0.,           0.,           0.
     13,   65.8902664,    116.10054,           0.
     14,   65.8902664,   112.531471,           0.
     15,   65.8902664,   108.962395,           0.
     16,   65.8902664,   105.393326,           0.
     17,   65.8902664,   101.824249,           0.
     18,   65.8902664,   98.2551804,           0.
     19,   65.8902664,   94.6861038,           0.
     20,   65.8902664,   91.1170273,           0.
     21,   65.8902664,   87.5479584,           0.
     22,   69.4332275,   83.6299362,           0.
     23,   72.8400269,    82.596489,           0.
     24,   75.9797516,   80.9182739,           0.
     25,   78.7317505,   78.6597672,           0.
     26,   80.9902496,   75.9077759,           0.
     27,   82.6684723,   72.7680511,           0.
     28,   83.7019119,   69.3612442,           0.
     29,    87.625824,   65.8182907,           0.
     30,   91.2007904,   65.8182907,           0.
     31,   94.7757492,   65.8182907,           0.
     32,   98.3507156,   65.8182907,           0.
     33,   101.925674,   65.8182907,           0.
     34,   105.500641,   65.8182907,           0.
     35,     109.0756,   65.8182907,           0.
     36,   112.650558,   65.8182907,           0.
     37,   116.225525,   65.8182907,           0.
     38,   119.800484,   69.4083786,           0.
     39,   119.800484,   72.9984665,           0.
     40,   119.800484,   76.5885544,           0.
     41,   119.800484,   80.1786423,           0.
     42,   119.800484,   83.7687302,           0.
     43,   119.800484,   87.3588181,           0.
     44,   119.800484,   90.9489059,           0.
     45,   119.800484,   94.5389938,           0.
     46,   119.800484,   98.1290817,           0.
     47,   119.800484,    101.71917,           0.
     48,   119.800484,   105.309258,           0.
     49,   119.800484,   108.899353,           0.
     50,   119.800484,   112.489441,           0.
     51,   119.800484,   116.079529,           0.
     52,   116.206474,   119.669617,           0.
     53,   112.612457,   119.669617,           0.
     54,    109.01844,   119.669617,           0.
     55,   105.424431,   119.669617,           0.
     56,   101.830414,   119.669617,           0.
     57,   98.2363968,   119.669617,           0.
     58,   94.6423874,   119.669617,           0.
     59,   91.0483704,   119.669617,           0.
     60,   87.4543533,   119.669617,           0.
     61,   83.8603439,   119.669617,           0.
     62,   80.2663269,   119.669617,           0.
     63,   76.6723099,   119.669617,           0.
     64,   73.0782928,   119.669617,           0.
     65,   69.4842834,   119.669617,           0.
     66,   62.2296982,   119.669617,           0.
     67,   58.5691261,   119.669617,           0.
     68,   54.9085579,   119.669617,           0.
     69,   51.2479858,   119.669617,           0.
     70,   47.5874138,   119.669617,           0.
     71,   43.9268456,   119.669617,           0.
     72,   40.2662735,   119.669617,           0.
     73,   36.6057053,   119.669617,           0.
     74,   32.9451332,   119.669617,           0.
     75,   29.2845631,   119.669617,           0.
     76,   25.6239929,   119.669617,           0.
     77,   21.9634228,   119.669617,           0.
     78,   18.3028526,   119.669617,           0.
     79,   14.6422815,   119.669617,           0.
     80,   10.9817114,   119.669617,           0.
     81,   7.32114077,   119.669617,           0.
     82,   3.66057038,   119.669617,           0.
     83,           0.,   116.079529,           0.
     84,           0.,   112.489441,           0.
     85,           0.,   108.899353,           0.
     86,           0.,   105.309258,           0.
     87,           0.,    101.71917,           0.
     88,           0.,   98.1290817,           0.
     89,           0.,   94.5389938,           0.
     90,           0.,   90.9489059,           0.
     91,           0.,   87.3588181,           0.
     92,           0.,   83.7687302,           0.
     93,           0.,   80.1786423,           0.
     94,           0.,   76.5885544,           0.
     95,           0.,   72.9984665,           0.
     96,           0.,   69.4083786,           0.
     97,   3.67151308,   65.8182907,           0.
     98,   7.34302616,   65.8182907,           0.
     99,   11.0145397,   65.8182907,           0.
    100,   14.6860523,   65.8182907,           0.
    101,   18.3575649,   65.8182907,           0.
    102,   22.0290794,   65.8182907,           0.
    103,    25.700592,   65.8182907,           0.
    104,   29.3721046,   65.8182907,           0.
    105,   33.0436172,   65.8182907,           0.
    106,   36.7151299,   65.8182907,           0.
    107,   40.3866425,   65.8182907,           0.
    108,   44.0581589,   65.8182907,           0.
    109,   48.0786209,   69.3612442,           0.
    110,   49.1120644,   72.7680511,           0.
    111,   50.7902832,   75.9077759,           0.
    112,   53.0487862,   78.6597672,           0.
    113,   55.8007812,   80.9182739,           0.
    114,    58.940506,    82.596489,           0.
    115,   62.3473091,   83.6299362,           0.
    116,   65.8902664,   43.9917145,           0.
    117,   65.8902664,    40.325737,           0.
    118,   65.8902664,   36.6597633,           0.
    119,   65.8902664,   32.9937859,           0.
    120,   65.8902664,   29.3278103,           0.
    121,   65.8902664,   25.6618347,           0.
    122,   65.8902664,   21.9958572,           0.
    123,   65.8902664,   18.3298817,           0.
    124,   65.8902664,   14.6639051,           0.
    125,   65.8902664,   10.9979286,           0.
    126,   65.8902664,   7.33195257,           0.
    127,   65.8902664,   3.66597629,           0.
    128,   69.4842834,           0.,           0.
    129,   73.0782928,           0.,           0.
    130,   76.6723099,           0.,           0.
    131,   80.2663269,           0.,           0.
    132,   83.8603439,           0.,           0.
    133,   87.4543533,           0.,           0.
    134,   91.0483704,           0.,           0.
    135,   94.6423874,           0.,           0.
    136,   98.2363968,           0.,           0.
    137,   101.830414,           0.,           0.
    138,   105.424431,           0.,           0.
    139,    109.01844,           0.,           0.
    140,   112.612457,           0.,           0.
    141,   116.206474,           0.,           0.
    142,   119.800484,   3.65657163,           0.
    143,   119.800484,   7.31314325,           0.
    144,   119.800484,   10.9697151,           0.
    145,   119.800484,   14.6262865,           0.
    146,   119.800484,   18.2828579,           0.
    147,   119.800484,   21.9394302,           0.
    148,   119.800484,   25.5960007,           0.
    149,   119.800484,    29.252573,           0.
    150,   119.800484,   32.9091454,           0.
    151,   119.800484,   36.5657158,           0.
    152,   119.800484,   40.2222862,           0.
    153,   119.800484,   43.8788605,           0.
    154,   119.800484,   47.5354309,           0.
    155,   119.800484,   51.1920013,           0.
    156,   119.800484,   54.8485718,           0.
    157,   119.800484,    58.505146,           0.
    158,   119.800484,   62.1617165,           0.
    159,   83.7019119,   62.2753334,           0.
    160,   82.6684723,   58.8685303,           0.
    161,   80.9902496,   55.7288017,           0.
    162,   78.7317505,   52.9768066,           0.
    163,   75.9797516,   50.7183037,           0.
    164,   72.8400269,   49.0400848,           0.
    165,   69.4332275,   48.0066414,           0.
    166,   62.3473091,   48.0066414,           0.
    167,    58.940506,   49.0400848,           0.
    168,   55.8007812,   50.7183037,           0.
    169,   53.0487862,   52.9768066,           0.
    170,   50.7902832,   55.7288017,           0.
    171,   49.1120644,   58.8685303,           0.
    172,   48.0786209,   62.2753334,           0.
    173,           0.,   62.1617165,           0.
    174,           0.,    58.505146,           0.
    175,           0.,   54.8485718,           0.
    176,           0.,   51.1920013,           0.
    177,           0.,   47.5354309,           0.
    178,           0.,   43.8788605,           0.
    179,           0.,   40.2222862,           0.
    180,           0.,   36.5657158,           0.
    181,           0.,   32.9091454,           0.
    182,           0.,    29.252573,           0.
    183,           0.,   25.5960007,           0.
    184,           0.,   21.9394302,           0.
    185,           0.,   18.2828579,           0.
    186,           0.,   14.6262865,           0.
    187,           0.,   10.9697151,           0.
    188,           0.,   7.31314325,           0.
    189,           0.,   3.65657163,           0.
    190,   3.66057038,           0.,           0.
    191,   7.32114077,           0.,           0.
    192,   10.9817114,           0.,           0.
    193,   14.6422815,           0.,           0.
    194,   18.3028526,           0.,           0.
    195,   21.9634228,           0.,           0.
    196,   25.6239929,           0.,           0.
    197,   29.2845631,           0.,           0.
    198,   32.9451332,           0.,           0.
    199,   36.6057053,           0.,           0.
    200,   40.2662735,           0.,           0.
    201,   43.9268456,           0.,           0.
    202,   47.5874138,           0.,           0.
    203,   51.2479858,           0.,           0.
    204,   54.9085579,           0.,           0.
    205,   58.5691261,           0.,           0.
    206,   62.2296982,           0.,           0.
    207,   84.4708023,   75.9196472,           0.
    208,   86.3562851,   72.5632858,           0.
    209,   69.1472015,   114.893852,           0.
    210,   68.9832001,   100.039093,           0.
    211,   79.1054535,   81.9909515,           0.
    212,   69.0475235,   96.3555374,           0.
    213,   75.8550262,   84.2402573,           0.
    214,   69.1061249,    92.533844,           0.
    215,   69.1912079,   88.5490036,           0.
    216,    82.150856,   79.2184448,           0.
    217,   72.5569916,   86.1938248,           0.
    218,   100.140549,   68.9251862,           0.
    219,   96.4475784,   68.9813461,           0.
    220,   92.6272812,   69.0745087,           0.
    221,   88.6401291,   69.1751175,           0.
    222,   116.690231,   99.9250793,           0.
    223,   116.691864,   96.3340607,           0.
    224,   116.692329,   92.7439041,           0.
    225,   116.692513,   89.1538391,           0.
    226,   116.692383,   85.5637436,           0.
    227,   116.690666,   81.9736023,           0.
    228,   116.661942,   78.3629837,           0.
    229,   116.565292,   74.6132278,           0.
    230,   116.547363,   70.6690979,           0.
    231,   74.8869934,   116.573174,           0.
    232,   78.4559937,   116.566879,           0.
    233,   82.0586395,   116.561661,           0.
    234,   85.6561584,   116.559586,           0.
    235,   89.2510757,   116.558907,           0.
    236,   92.8452835,   116.558556,           0.
    237,   96.4393234,   116.558258,           0.
    238,   100.033348,   116.557732,           0.
    239,   103.627357,   116.555603,           0.
    240,   107.241409,   116.526199,           0.
    241,    110.99398,   116.427101,           0.
    242,   114.942398,   116.405991,           0.
    243,   71.8527222,   116.795265,           0.
    244,   83.1085663,    83.368866,           0.
    245,   68.9963303,   103.609138,           0.
    246,   113.489525,   76.5526047,           0.
    247,   113.558136,   80.1777191,           0.
    248,   107.308258,     69.06353,           0.
    249,   103.726479,   69.0058136,           0.
    250,   98.2061844,    72.101738,           0.
    251,   109.053268,   113.345459,           0.
    252,   105.424347,   113.417168,           0.
    253,   116.552818,   107.121185,           0.
    254,   116.612015,   103.520828,           0.
    255,   113.583511,   98.1287308,           0.
    256,   76.5736694,    113.31353,           0.
    257,   80.2045746,    113.30822,           0.
    258,   88.5007477,   75.7709351,           0.
    259,   69.1312485,   110.965508,           0.
    260,   72.1816635,    98.053772,           0.
    261,   72.2863312,   94.1418076,           0.
    262,   79.1808014,   85.7722168,           0.
    263,   72.3993454,   90.1884155,           0.
    264,    75.757515,   87.9476547,           0.
    265,   113.585373,   90.9487152,           0.
    266,   94.4050674,   72.2097778,           0.
    267,    90.514122,   72.3703842,           0.
    268,   94.6421051,   113.448143,           0.
    269,   113.584846,   94.5385513,           0.
    270,   86.4792023,   79.7707901,           0.
    271,   113.585449,   87.3586655,           0.
    272,   113.580742,   83.7683868,           0.
    273,   110.835617,   69.0481491,           0.
    274,   113.012054,   72.4833145,           0.
    275,   113.854225,   68.7674255,           0.
    276,    69.031456,   107.220406,           0.
    277,   83.8482971,    113.42701,           0.
    278,    87.451889,   113.445732,           0.
    279,    91.047699,   113.448372,           0.
    280,   98.2360916,   113.447128,           0.
    281,   101.830177,     113.4412,           0.
    282,   116.573334,   110.668922,           0.
    283,   113.135292,   112.859291,           0.
    284,   116.850395,    113.70063,           0.
    285,   72.6742477,   113.152489,           0.
    286,   72.0980835,   105.418579,           0.
    287,   75.4067154,   95.9133682,           0.
    288,    72.108345,   101.779022,           0.
    289,   105.511711,    72.328186,           0.
    290,   109.122543,   72.3802109,           0.
    291,    96.362175,    75.241188,           0.
    292,   101.883179,   72.1471634,           0.
    293,   113.471481,   101.710175,           0.
    294,   113.227829,   108.953369,           0.
    295,   110.479362,   85.5632401,           0.
    296,   110.479897,   89.1532822,           0.
    297,   110.479187,   92.7427902,           0.
    298,   110.485291,   81.9706726,           0.
    299,    110.47773,   96.3323288,           0.
    300,   110.512161,    78.361763,           0.
    301,    113.27478,   105.325539,           0.
    302,   89.2502289,   110.340271,           0.
    303,   103.629532,    110.34137,           0.
    304,   107.241714,   110.359718,           0.
    305,    85.653595,   110.337837,           0.
    306,   100.034729,   110.339775,           0.
    307,   82.1132126,   110.211327,           0.
    308,   92.8444672,    110.33979,           0.
    309,   96.4388275,   110.339195,           0.
    310,   78.3059082,   109.642517,           0.
    311,   110.444313,   110.546463,           0.
    312,   110.704987,   75.1634979,           0.
    313,   72.1716614,   109.080673,           0.
    314,   92.5330048,   75.4417725,           0.
    315,   75.5813217,   91.9017334,           0.
    316,   109.596321,   107.229774,           0.
    317,   107.399902,   76.0058289,           0.
    318,   75.1611099,   107.307976,           0.
    319,   75.2063141,   103.655815,           0.
    320,    75.300766,   99.8549881,           0.
    321,   100.040955,   75.2535477,           0.
    322,   103.594238,   75.4114456,           0.
    323,   110.383141,    99.905304,           0.
    324,   74.9773178,   110.499435,           0.
    325,   107.345497,   94.5207214,           0.
    326,   107.370628,   90.9443283,           0.
    327,   107.375595,   87.3570251,           0.
    328,   107.328278,   83.6990128,           0.
    329,   107.409691,   79.9971237,           0.
    330,   110.196793,   103.424789,           0.
    331,   91.0466919,   107.233696,           0.
    332,   94.6405716,   107.232117,           0.
    333,   83.9203796,   107.187851,           0.
    334,   87.4623795,   107.226837,           0.
    335,    98.236908,   107.233459,           0.
    336,   105.590973,   107.260674,           0.
    337,   101.913818,   107.169083,           0.
    338,   80.8710632,    107.30024,           0.
    339,   78.9206619,   89.8085861,           0.
    340,   78.3894653,   101.760483,           0.
    341,   78.4356308,   97.8183517,           0.
    342,   98.2088165,   78.3082199,           0.
    343,   101.754875,    78.375145,           0.
    344,   107.263268,    98.070816,           0.
    345,   104.205833,   92.6837845,           0.
    346,   104.257828,   89.1155853,           0.
    347,   104.238991,   85.5134506,           0.
    348,   103.853409,   81.6154785,           0.
    349,   107.196762,   101.586662,           0.
    350,   92.8421478,   104.127693,           0.
    351,   96.4403381,    104.11676,           0.
    352,   89.2784271,   104.116798,           0.
    353,   85.7498245,   103.999413,           0.
    354,   100.017273,   104.069534,           0.
    355,   103.913979,   103.672852,           0.
    356,   81.8509521,   103.749001,           0.
    357,    78.645256,   93.8741989,           0.
    358,   81.4159164,   99.6005859,           0.
    359,   78.2974701,   105.569336,           0.
    360,   99.9468307,   81.4159317,           0.
    361,   104.802422,   78.2810059,           0.
    362,   104.058617,   96.2195587,           0.
    363,   101.100159,   90.8011856,           0.
    364,   107.298965,   104.634949,           0.
    365,    101.18457,     87.21064,           0.
    366,   101.452103,   84.1207962,           0.
    367,   104.032761,   99.7963638,           0.
    368,   91.1388474,   101.010445,           0.
    369,    94.657547,   101.020668,           0.
    370,   87.7920685,   100.921173,           0.
    371,   98.2187347,   101.070122,           0.
    372,   101.329254,   101.323341,           0.
    373,   84.5202179,    100.63958,           0.
    374,   82.4045258,   87.8849411,           0.
    375,   83.8355865,   97.6897888,           0.
    376,   82.0191498,   92.0249481,           0.
    377,   81.5894165,   95.9125443,           0.
    378,   96.4462051,   81.4230118,           0.
    379,   100.989449,   94.3001328,           0.
    380,   98.0435638,   88.9388199,           0.
    381,   98.1130066,   84.9338379,           0.
    382,   92.9532928,    97.939209,           0.
    383,   89.6216888,   98.0478363,           0.
    384,   96.5383453,   98.0253296,           0.
    385,   100.471184,   98.0335999,           0.
    386,   85.5172195,   90.1469421,           0.
    387,    94.567749,    78.451767,           0.
    388,   98.0167618,   92.4958725,           0.
    389,   86.5379333,   97.8764191,           0.
    390,   91.1512375,   95.1194153,           0.
    391,   94.8692093,   94.6243744,           0.
    392,   94.8500443,   84.1184616,           0.
    393,   94.9295425,    87.258728,           0.
    394,    91.637413,    85.388855,           0.
    395,   85.2517929,   94.4709778,           0.
    396,   85.8271408,   86.2793655,           0.
    397,   92.9784775,   81.7225113,           0.
    398,   94.9955673,   90.8708878,           0.
    399,   91.9147415,   89.3738937,           0.
    400,   88.7321396,   88.0585556,           0.
    401,   92.3841858,   92.4284058,           0.
    402,   90.7736893,   78.8973389,           0.
    403,   98.1769867,   95.4958572,           0.
    404,    86.700798,   83.3308182,           0.
    405,    89.512619,   82.3531876,           0.
    406,   89.0320511,   92.1558456,           0.
    407,   88.4820175,   85.0821533,           0.
    408,   88.3189392,   95.5341034,           0.
    409,   49.7957611,    79.033165,           0.
    410,   55.8819199,   84.3094559,           0.
    411,   59.3961258,   85.9509583,           0.
    412,   45.4391479,   72.5391846,           0.
    413,   47.4653702,   75.9032516,           0.
    414,   52.6256218,   81.9357986,           0.
    415,   62.7934341,   100.040291,           0.
    416,   62.8169174,     96.39505,           0.
    417,   62.9983444,   92.7317734,           0.
    418,   62.5405426,   114.856354,           0.
    419,   62.7752876,   103.609375,           0.
    420,   3.31845713,   70.6965637,           0.
    421,   3.12610888,   81.9739304,           0.
    422,   3.11264849,     85.56353,           0.
    423,   3.11094666,   89.1535263,           0.
    424,   3.11175632,   92.7436066,           0.
    425,   3.11317658,   96.3337097,           0.
    426,   3.11463761,   99.9238052,           0.
    427,   3.12210155,   103.520233,           0.
    428,   3.20032144,   107.197983,           0.
    429,   3.34076309,   110.981049,           0.
    430,   3.36228323,   114.889374,           0.
    431,    34.775444,   116.503723,           0.
    432,   23.7948341,    116.50383,           0.
    433,    27.454977,   116.503998,           0.
    434,   31.1150475,   116.504364,           0.
    435,   38.4360504,   116.504059,           0.
    436,   42.0966988,   116.504639,           0.
    437,   45.7574234,    116.50589,           0.
    438,    49.418148,   116.507416,           0.
    439,   53.0565071,   116.517006,           0.
    440,    56.688385,   116.513077,           0.
    441,   31.2185993,   68.9900436,           0.
    442,    38.922142,   69.0906982,           0.
    443,   9.19133949,   69.0207367,           0.
    444,    23.867857,   68.9877319,           0.
    445,   27.5403786,   68.9861679,           0.
    446,   35.0242767,   69.0319519,           0.
    447,   43.0283432,    69.162735,           0.
    448,   41.2999001,   72.4940643,           0.
    449,   62.8642311,    86.818634,           0.
    450,   62.7062302,   107.213699,           0.
    451,   59.7042999,   98.1819992,           0.
    452,   59.8159828,   94.3917923,           0.
    453,   62.5801926,   110.938744,           0.
    454,   59.6652298,   101.782166,           0.
    455,     3.161448,   78.3669205,           0.
    456,   6.43406534,   109.131561,           0.
    457,   6.24243689,   101.726082,           0.
    458,   6.23220873,   98.1288681,           0.
    459,    6.2271018,    94.537468,           0.
    460,   6.22397423,   90.9472656,           0.
    461,   6.22265387,   87.3573303,           0.
    462,   3.29508638,   74.6157303,           0.
    463,   6.23757935,   83.7724228,           0.
    464,   6.30357933,   105.409843,           0.
    465,   20.1339893,   116.505432,           0.
    466,   40.2668724,   113.343338,           0.
    467,    51.284832,   113.354164,           0.
    468,   36.6060181,   113.342766,           0.
    469,   43.9280281,   113.346138,           0.
    470,   16.4727802,   116.508797,           0.
    471,   12.8272209,   116.539856,           0.
    472,    25.626255,    113.34211,           0.
    473,   32.9454765,   113.342598,           0.
    474,   29.2860069,   113.342758,           0.
    475,   47.5951958,   113.350319,           0.
    476,   54.9683609,     113.3713,           0.
    477,   9.21342564,   116.570969,           0.
    478,   6.11075306,   116.805702,           0.
    479,   12.8363819,   69.0044632,           0.
    480,   25.7106113,   72.1484375,           0.
    481,   16.5177593,   68.9928741,           0.
    482,   20.1946144,   68.9881592,           0.
    483,   33.2244377,   72.2129974,           0.
    484,   29.4219265,   72.1610336,           0.
    485,   37.2006073,   72.3954239,           0.
    486,   48.9965973,    82.679306,           0.
    487,   56.2705002,   88.2840805,           0.
    488,   45.8594131,   79.4808273,           0.
    489,   43.6651192,   75.8403778,           0.
    490,   52.1441536,    86.238327,           0.
    491,   6.96820498,   113.211044,           0.
    492,   60.2135124,   90.0473251,           0.
    493,   56.6160583,    96.319603,           0.
    494,    56.528904,   99.9538879,           0.
    495,   59.4924088,   105.365593,           0.
    496,   6.28568125,   80.1446533,           0.
    497,   9.34375381,   85.5563889,           0.
    498,   9.34687233,   96.3295288,           0.
    499,   9.34135818,   92.7394638,           0.
    500,   9.38833237,   103.629562,           0.
    501,   9.36036491,   99.9487228,           0.
    502,   9.33930779,   89.1490326,           0.
    503,    9.4350872,   107.355705,           0.
    504,   58.9371376,    113.14106,           0.
    505,   21.9670238,   113.343704,           0.
    506,   10.9407654,   113.341423,           0.
    507,   14.6235962,   113.264664,           0.
    508,   27.4576893,   110.185074,           0.
    509,   31.1170044,   110.185493,           0.
    510,   34.7765541,   110.186371,           0.
    511,   38.4375992,   110.188141,           0.
    512,    42.099308,   110.191162,           0.
    513,   45.7624664,   110.196083,           0.
    514,   49.5206566,   110.222328,           0.
    515,   53.2721176,   110.304939,           0.
    516,   18.3140335,    113.32618,           0.
    517,   22.0345726,   72.1521378,           0.
    518,   10.9174643,   72.2817535,           0.
    519,   35.1335335,   75.4564667,           0.
    520,   31.3163795,   75.3466721,           0.
    521,   27.5776463,   75.3096237,           0.
    522,   14.6202679,   72.2988586,           0.
    523,   18.3405666,    72.195488,           0.
    524,   59.3384285,   109.059608,           0.
    525,   6.40031528,   76.4830475,           0.
    526,   6.92268229,   72.4250259,           0.
    527,   39.3649368,   76.1203308,           0.
    528,   63.5713234,   89.6525421,           0.
    529,   55.7108154,   107.234245,           0.
    530,    9.3814621,   78.2778549,           0.
    531,   53.3592682,   98.0745087,           0.
    532,   56.6239929,    92.374115,           0.
    533,   56.3331375,   103.463226,           0.
    534,   12.4599791,   87.3544083,           0.
    535,   12.5568953,   105.600189,           0.
    536,   12.4880905,   98.1432953,           0.
    537,   12.6042337,   101.862701,           0.
    538,   12.4662418,   94.5333481,           0.
    539,   12.4593697,   90.9410706,           0.
    540,   9.34323025,   81.9220886,           0.
    541,   9.28680038,   110.547852,           0.
    542,   56.4453735,   110.622231,           0.
    543,   23.8014145,    110.18692,           0.
    544,   23.8790245,   75.3078842,           0.
    545,   29.2892742,   107.032745,           0.
    546,   12.6603613,   109.648773,           0.
    547,   32.9487038,   107.034004,           0.
    548,   36.6090736,   107.037025,           0.
    549,   43.9345551,   107.046524,           0.
    550,   40.2715607,   107.041962,           0.
    551,   16.5571613,   110.128235,           0.
    552,   47.7394676,   107.031151,           0.
    553,   51.5827522,   107.188637,           0.
    554,   20.1638718,   110.181976,           0.
    555,   12.5869417,   75.9657211,           0.
    556,   29.4301567,   78.4643936,           0.
    557,   33.1920967,   78.4435425,           0.
    558,   16.5159264,   75.4425354,           0.
    559,   20.1778622,   75.3455963,           0.
    560,   6.08940363,   68.7557831,           0.
    561,   59.7929764,   116.769943,           0.
    562,   53.3561554,   104.650848,           0.
    563,   12.4823666,   79.9983902,           0.
    564,   42.2062263,    78.564888,           0.
    565,   53.4348488,   94.3666611,           0.
    566,   53.2602425,   101.570107,           0.
    567,   15.5819435,   89.1435013,           0.
    568,   9.24177361,   75.0866776,           0.
    569,   15.6117926,   96.3340988,           0.
    570,   15.5874348,   92.7317963,           0.
    571,   16.1553288,   103.825195,           0.
    572,   15.6863012,   99.9028854,           0.
    573,   12.5474062,   83.6945038,           0.
    574,   36.5159225,   78.2949295,           0.
    575,   25.6301022,   107.010864,           0.
    576,    25.726532,    78.452774,           0.
    577,   31.1219444,   103.884964,           0.
    578,    18.368927,   107.049843,           0.
    579,   34.7824783,   103.888527,           0.
    580,   15.2597351,    107.25045,           0.
    581,     45.80756,     103.8918,           0.
    582,   42.1234245,   103.887604,           0.
    583,   38.4485321,   103.891273,           0.
    584,   49.8561897,   103.573517,           0.
    585,   21.9782047,   107.002747,           0.
    586,   31.3645763,   81.5978317,           0.
    587,   15.1809616,   78.3302155,           0.
    588,   18.3452854,   78.4786835,           0.
    589,   22.0198994,   78.4547729,           0.
    590,   16.1115894,   81.6928329,           0.
    591,   42.6179008,    81.640892,           0.
    592,   53.2037926,   90.5244827,           0.
    593,   50.1506119,    96.036499,           0.
    594,   18.6909962,   90.9099808,           0.
    595,   18.7091103,   94.5009384,           0.
    596,   50.0360985,   99.6636581,           0.
    597,   18.7064381,   98.0533676,           0.
    598,   18.5146561,   101.168266,           0.
    599,    15.649334,    85.562851,           0.
    600,   35.6136665,   81.6166077,           0.
    601,   27.4827671,   103.840546,           0.
    602,   27.5985527,   81.5935135,           0.
    603,   32.9494476,   100.736397,           0.
    604,   43.9971733,   100.800934,           0.
    605,   36.6227684,   100.743515,           0.
    606,   40.3053207,   100.745903,           0.
    607,   47.2242203,   101.124283,           0.
    608,   23.8146935,   103.758575,           0.
    609,   20.1233616,   81.5886536,           0.
    610,   23.8593769,    81.658844,           0.
    611,   39.3003006,   79.9370728,           0.
    612,    21.746809,   96.3779144,           0.
    613,   50.2782173,   92.4043045,           0.
    614,   21.9021358,    92.795166,           0.
    615,   21.8645821,    100.25148,           0.
    616,   45.6419296,   83.1916504,           0.
    617,   18.6777439,    87.334671,           0.
    618,   33.0843086,    84.769249,           0.
    619,    18.490036,   84.2629166,           0.
    620,   29.4173012,   84.7260971,           0.
    621,   29.3123074,   100.714485,           0.
    622,    20.116066,   103.842682,           0.
    623,   34.8183594,   97.4535446,           0.
    624,   42.3486061,   97.5741501,           0.
    625,   38.6321449,   97.4273529,           0.
    626,   46.4228058,   97.6946182,           0.
    627,   25.7201958,   100.684624,           0.
    628,   21.8869629,   85.1702423,           0.
    629,   25.7987671,   84.7466049,           0.
    630,   39.2545204,   83.5637283,           0.
    631,   42.8980141,   85.8796692,           0.
    632,   47.4706573,   86.6232452,           0.
    633,   24.9475136,   95.0113983,           0.
    634,    31.224226,   87.7509155,           0.
    635,   47.1433487,   93.8712616,           0.
    636,    21.870224,   89.1302032,           0.
    637,   36.2221413,    85.096756,           0.
    638,   31.0113354,   97.4444275,           0.
    639,    40.986805,   93.8630524,           0.
    640,   36.9836197,   94.1112671,           0.
    641,   27.3338261,   97.6837387,           0.
    642,   27.7229271,   87.8108521,           0.
    643,   24.3225842,   98.0018311,           0.
    644,   47.3945122,    90.458847,           0.
    645,   44.2574806,   94.9748077,           0.
    646,     38.47295,   87.7611237,           0.
    647,   25.6303482,   91.0993576,           0.
    648,   34.6059914,   87.7560501,           0.
    649,   29.8270931,   90.8493195,           0.
    650,   32.8433685,    93.620903,           0.
    651,   44.7780418,   88.9290314,           0.
    652,   38.7907295,   91.2817535,           0.
    653,   28.5989132,   94.2848587,           0.
    654,   24.5818462,   87.5914536,           0.
    655,    44.383564,   91.9849091,           0.
    656,   32.8539543,   90.1676102,           0.
    657,   50.0982666,   89.2498398,           0.
    658,   41.7183495,   89.9499207,           0.
    659,   35.7584343,   90.7831192,           0.
    660,   86.3564911,   59.1335411,           0.
    661,   82.0651398,   52.5736275,           0.
    662,   79.2416916,   49.5465813,           0.
    663,   84.3808746,   55.7986031,           0.
    664,   75.8692245,   47.0741768,           0.
    665,    103.72287,   62.6980591,           0.
    666,   96.4318237,   62.6631622,           0.
    667,    92.663063,   62.6078491,           0.
    668,   88.6674881,   62.5007057,           0.
    669,    107.35807,   62.6584969,           0.
    670,   100.096909,   62.6896591,           0.
    671,   96.4395065,   3.11593485,           0.
    672,   92.8454971,   3.11566257,           0.
    673,    114.96244,   3.33585143,           0.
    674,   103.627815,   3.16549134,           0.
    675,   100.029099,    3.1288619,           0.
    676,   89.2516479,   3.11702514,           0.
    677,   85.6552887,   3.12460279,           0.
    678,   70.7189865,   3.33844995,           0.
    679,    116.89502,   59.7668839,           0.
    680,    116.61142,   53.0519829,           0.
    681,   116.621529,   49.3782158,           0.
    682,   116.637253,   45.7094307,           0.
    683,   116.639832,   42.0510216,           0.
    684,   116.640038,   38.3941154,           0.
    685,   116.640007,   34.7374306,           0.
    686,   116.640114,   31.0807819,           0.
    687,   116.640388,    27.424139,           0.
    688,   116.640747,   23.7674866,           0.
    689,    116.64138,   20.1097927,           0.
    690,   116.643646,   16.4508057,           0.
    691,   116.643852,   12.7907333,           0.
    692,   116.645645,   9.17215919,           0.
    693,   69.0569458,   9.18781376,           0.
    694,   69.0551682,   27.4976444,           0.
    695,   69.0533829,   31.1642418,           0.
    696,   69.0569763,   34.8606834,           0.
    697,   69.0306244,   38.6081657,           0.
    698,    68.886467,   42.3475227,           0.
    699,   90.4659653,   59.2997055,           0.
    700,   71.8916855,   45.0665245,           0.
    701,   111.091576,    62.540741,           0.
    702,   94.4153748,   59.4393616,           0.
    703,   105.574295,   59.5645905,           0.
    704,   101.913551,   59.5740547,           0.
    705,   114.988525,   62.5091209,           0.
    706,   98.2083664,   59.5343819,           0.
    707,   107.273056,   3.24333334,           0.
    708,   91.0485916,   6.23526096,           0.
    709,   111.041687,   3.34872723,           0.
    710,   98.2252884,   6.24808407,           0.
    711,   82.0413666,   3.14638901,           0.
    712,   78.3902206,   3.19746017,           0.
    713,   87.4466476,   6.24980116,           0.
    714,   94.6407471,   6.23624277,           0.
    715,   101.800446,   6.32422733,           0.
    716,   116.628235,   56.6818237,           0.
    717,    113.45031,   47.5550804,           0.
    718,   113.482841,   36.5658073,           0.
    719,    113.48333,   29.2521496,           0.
    720,   113.505814,   14.5659161,           0.
    721,   113.485443,   21.9356594,           0.
    722,   113.341454,   51.2714806,           0.
    723,   113.476616,   43.8869667,           0.
    724,   113.482651,   40.2239571,           0.
    725,   113.483498,   32.9089813,           0.
    726,   113.484871,   25.5945625,           0.
    727,   113.493874,   18.2519226,           0.
    728,   113.530151,   10.9238319,           0.
    729,   69.0559769,    23.830761,           0.
    730,   69.0584488,   20.1625671,           0.
    731,   69.0787048,   16.4856625,           0.
    732,   69.0947189,   12.8090134,           0.
    733,   68.7974091,   6.09427214,           0.
    734,   72.2134857,   29.3384953,           0.
    735,   72.2158279,   33.0367355,           0.
    736,    72.217247,   36.8114166,           0.
    737,   72.1791306,   40.7466507,           0.
    738,   85.9268799,   52.3882828,           0.
    739,   83.2597885,   48.6272621,           0.
    740,   88.3050308,   55.8300781,           0.
    741,   79.7349854,   45.2021027,           0.
    742,   74.6335602,   3.31644654,           0.
    743,   72.4467773,   6.93484926,           0.
    744,   113.262772,   58.9385376,           0.
    745,   75.6531448,    42.931736,           0.
    746,   103.766151,   56.4646378,           0.
    747,   96.2926865,   56.3120346,           0.
    748,   100.050446,    56.421772,           0.
    749,   109.223381,   59.4701881,           0.
    750,   80.1788788,   6.31505775,           0.
    751,   96.4134064,   9.37917233,           0.
    752,   89.2419586,   9.38181019,           0.
    753,   92.8327408,   9.37034416,           0.
    754,   99.9596786,   9.44866753,           0.
    755,   83.8205872,   6.28007793,           0.
    756,   105.443909,   6.51133013,           0.
    757,   113.275505,   6.98302984,           0.
    758,   113.364265,   54.9778404,           0.
    759,   72.2159805,   25.6694965,           0.
    760,   110.326187,   42.0669212,           0.
    761,   110.330406,   34.7374268,           0.
    762,   110.330467,   38.3973999,           0.
    763,   110.331093,   31.0802193,           0.
    764,   110.301743,   45.7398491,           0.
    765,   110.334206,   20.0587578,           0.
    766,    110.33371,   23.7551384,           0.
    767,   110.332344,   27.4211025,           0.
    768,   110.216469,   49.3617477,           0.
    769,   110.367249,   16.3227673,           0.
    770,   110.455666,   12.6287661,           0.
    771,   72.3423157,   10.9105978,           0.
    772,   72.2651062,   18.3332462,           0.
    773,   75.4646149,    38.818573,           0.
    774,   75.3884277,   34.9433441,           0.
    775,   75.3694763,   31.2021637,           0.
    776,   72.2281723,   22.0023899,           0.
    777,   72.3762665,   14.6284161,           0.
    778,   76.5116882,   6.41203117,           0.
    779,   109.178062,     6.621171,           0.
    780,   68.3983841,   45.4140205,           0.
    781,   92.3780975,   56.0176201,           0.
    782,   78.3010712,   9.45323658,           0.
    783,   107.332748,   10.2356262,           0.
    784,   98.1859283,   53.1829758,           0.
    785,   101.924599,   53.2161026,           0.
    786,    107.42984,   56.4673119,           0.
    787,   98.1305389,   12.5616064,           0.
    788,   94.6017227,   12.5084229,           0.
    789,   81.9556885,   9.45728016,           0.
    790,   91.0481186,    12.518815,           0.
    791,    85.612381,   9.43202877,           0.
    792,   103.484138,   9.61359024,           0.
    793,   110.754425,   9.47848511,           0.
    794,   109.709259,   53.2570381,           0.
    795,   75.3687134,   27.5155849,           0.
    796,   107.184486,   25.5836868,           0.
    797,    107.17942,   21.8778915,           0.
    798,    107.18055,   40.2529945,           0.
    799,   107.182724,   36.5744896,           0.
    800,   107.183327,   29.2480488,           0.
    801,   107.181274,   43.9406815,           0.
    802,   107.183327,   32.9098015,           0.
    803,   107.172516,   47.5576019,           0.
    804,   107.287231,   14.3055143,           0.
    805,   107.148483,   18.0924339,           0.
    806,   76.0028915,   12.6815634,           0.
    807,   78.5222626,   33.0551491,           0.
    808,   78.5944061,   36.8338165,           0.
    809,   75.4039001,   20.2007675,           0.
    810,   75.4933701,   16.5950508,           0.
    811,    75.377533,   23.8509407,           0.
    812,   75.1209488,   9.27845573,           0.
    813,   116.896912,   6.09215117,           0.
    814,   90.2700729,   52.0490074,           0.
    815,   104.688271,   12.5509548,           0.
    816,   99.9858017,   49.9555359,           0.
    817,   96.3401794,   15.6684895,           0.
    818,   83.7439499,   12.6672106,           0.
    819,   92.8787766,   15.6359053,           0.
    820,   94.4529648,   52.8439064,           0.
    821,   105.679634,   53.3113174,           0.
    822,     110.5979,   56.6221809,           0.
    823,   87.4334259,   12.5685844,           0.
    824,   101.630821,   12.6553535,           0.
    825,   78.5205688,    29.359272,           0.
    826,   107.339783,   50.6487236,           0.
    827,   104.058037,   23.7011604,           0.
    828,   104.071716,   42.1363983,           0.
    829,   104.045181,    27.396368,           0.
    830,   104.049255,    38.435936,           0.
    831,   104.040451,   31.0740395,           0.
    832,   104.042427,   34.7497139,           0.
    833,   104.128754,   45.7787704,           0.
    834,   104.063942,   20.0035172,           0.
    835,   103.707588,   15.9951868,           0.
    836,   81.6724396,   34.9212151,           0.
    837,   78.3671341,    15.307353,           0.
    838,   78.5361633,   18.4136391,           0.
    839,   78.5417938,   22.0109673,           0.
    840,   78.5402832,   25.6704693,           0.
    841,   87.3061905,   48.9017143,           0.
    842,   103.948029,   49.6708221,           0.
    843,   94.6372757,   18.2456017,           0.
    844,   85.6706543,   15.7233763,           0.
    845,   96.4636612,   49.8587036,           0.
    846,   89.3010101,   15.7203054,           0.
    847,   99.8444977,   15.7947073,           0.
    848,   80.0215073,   12.6306009,           0.
    849,    81.810585,   38.6245689,           0.
    850,    81.683876,    31.248951,           0.
    851,   100.940689,   25.4882717,           0.
    852,   100.912674,   29.1946335,           0.
    853,   100.948494,   40.3088722,           0.
    854,   100.907997,    36.567852,           0.
    855,   101.027473,   21.7600307,           0.
    856,   100.899956,   32.8602448,           0.
    857,   101.079079,   44.0143089,           0.
    858,   101.319679,   18.5721188,           0.
    859,   81.7650299,    16.194828,           0.
    860,   81.7093735,   20.1145058,           0.
    861,   81.8018112,    23.820343,           0.
    862,   81.7425919,   27.5769501,           0.
    863,   93.1182098,   49.4580307,           0.
    864,    98.091095,    46.381012,           0.
    865,   87.4640045,   18.7242966,           0.
    866,   91.3330307,   19.1826019,           0.
    867,   97.9559555,   19.2806721,           0.
    868,   78.9077377,   40.7854919,           0.
    869,   84.7091293,   36.7746506,           0.
    870,   101.446548,   47.1600914,           0.
    871,   84.8129883,   33.2651711,           0.
    872,   97.7918625,     27.19837,           0.
    873,   97.8455505,   23.3952751,           0.
    874,   97.7542725,   30.8693008,           0.
    875,   97.8877029,   42.2554207,           0.
    876,   97.7501221,    38.395298,           0.
    877,    97.722702,   34.5926094,           0.
    878,   84.3852921,   18.5101299,           0.
    879,   85.3699875,   21.8484821,           0.
    880,   85.0712357,   25.8994503,           0.
    881,   84.9339294,   29.6438656,           0.
    882,   94.6685944,   21.3944912,           0.
    883,   94.9561844,   47.2200813,           0.
    884,   87.7872543,   35.4422646,           0.
    885,   82.3022842,   42.2627792,           0.
    886,   84.9061127,   40.1661873,           0.
    887,   94.6606903,   25.0967827,           0.
    888,   94.6014938,   28.7800407,           0.
    889,   94.5121155,   32.5070419,           0.
    890,   94.5285034,    40.358448,           0.
    891,    94.398407,   36.3846207,           0.
    892,   88.0477448,   31.8193817,           0.
    893,    88.418335,   24.5089226,           0.
    894,   88.2179642,   28.1470604,           0.
    895,   90.2987976,   48.4161301,           0.
    896,   88.5975266,   45.3630981,           0.
    897,   85.4147186,   43.4722366,           0.
    898,   87.2285614,   38.4268341,           0.
    899,    94.866333,   44.1849442,           0.
    900,   91.1330948,   34.1394463,           0.
    901,   91.4691925,   26.6551914,           0.
    902,   90.6601944,   38.3997498,           0.
    903,    91.560173,   23.0472202,           0.
    904,   88.0515594,   41.4118881,           0.
    905,   91.4894028,    42.661602,           0.
    906,   91.3302689,   30.3413601,           0.
    907,   88.8291092,   21.4623051,           0.
    908,    92.221077,   46.2173157,           0.
    909,   85.5481949,   46.3197746,           0.
    910,   83.2519913,   45.1768303,           0.
    911,   52.7078934,   49.6770821,           0.
    912,   47.4543991,     55.73629,           0.
    913,   45.3645897,   59.0364075,           0.
    914,   62.5622368,     4.894382,           0.
    915,   62.7178268,   23.8299389,           0.
    916,   62.7198639,   27.4958057,           0.
    917,   62.7212563,   31.1766434,           0.
    918,   62.6959686,    35.008152,           0.
    919,   55.9568253,   47.4115219,           0.
    920,   62.6798019,   38.9494286,           0.
    921,   62.5975151,    43.023674,           0.
    922,    49.851532,   52.5335617,           0.
    923,   59.2477417,   45.4219513,           0.
    924,   27.5384369,   62.6439056,           0.
    925,   31.2095184,   62.6466675,           0.
    926,   35.0108795,   62.6214523,           0.
    927,    38.911602,   62.5718575,           0.
    928,   42.9825478,   62.4631386,           0.
    929,    3.1510458,    9.1583004,           0.
    930,   3.15948749,    12.789115,           0.
    931,   3.16507244,   16.4533443,           0.
    932,   3.16617513,    20.111063,           0.
    933,   3.16599107,   23.7678566,           0.
    934,   3.16543341,   27.4244423,           0.
    935,   3.16511965,   31.0808868,           0.
    936,   3.16535163,   34.7373276,           0.
    937,   3.16594315,    38.393856,           0.
    938,   3.16663289,   42.0504341,           0.
    939,   3.16725445,   45.7070274,           0.
    940,   3.17323685,   49.3704796,           0.
    941,   3.24585032,   53.1215744,           0.
    942,   3.37406921,   56.9804764,           0.
    943,   3.37843108,   60.9575005,           0.
    944,   31.1147957,    3.1701324,           0.
    945,   27.4542274,   3.17003107,           0.
    946,   23.7936707,   3.16992235,           0.
    947,     20.13311,   3.16982675,           0.
    948,   16.4725437,    3.1697278,           0.
    949,   12.7356396,   3.20434618,           0.
    950,   8.87957859,   3.30410671,           0.
    951,    4.8838892,    3.3211174,           0.
    952,    6.3312602,   14.5701447,           0.
    953,   2.92796993,   6.07041121,           0.
    954,     6.503016,   55.1043739,           0.
    955,    6.3425808,   47.5442009,           0.
    956,   6.33486652,    43.879921,           0.
    957,   6.32898664,   29.2529659,           0.
    958,   6.33013105,   25.5968113,           0.
    959,   6.32868147,   32.9088478,           0.
    960,   6.33236504,   18.2735691,           0.
    961,   6.33158207,   21.9384899,           0.
    962,   6.32971907,   36.5649796,           0.
    963,   6.33166122,   40.2217484,           0.
    964,   6.39138937,   51.3032074,           0.
    965,   6.32320642,   10.8907108,           0.
    966,   34.7753754,   3.17020655,           0.
    967,   59.8167877,   2.93219781,           0.
    968,   29.2843094,   6.33990049,           0.
    969,   18.2961636,   6.36083937,           0.
    970,     42.09655,   3.17029643,           0.
    971,   38.4359665,   3.17025661,           0.
    972,   21.9612484,   6.34611845,           0.
    973,   25.6234341,   6.34075022,           0.
    974,   14.5614147,   6.48622179,           0.
    975,   10.7604408,    6.5755806,           0.
    976,   62.7163048,   16.4972248,           0.
    977,   62.7170715,   20.1637135,           0.
    978,   59.5213089,   37.1555786,           0.
    979,   62.6856651,   12.7696552,           0.
    980,   59.5539894,   29.3636189,           0.
    981,   59.5483475,   33.1861954,           0.
    982,   59.5501709,   25.6741314,           0.
    983,      23.8666,    62.642952,           0.
    984,   6.14393091,   62.9225235,           0.
    985,   16.5226212,   62.6422195,           0.
    986,   20.1942654,   62.6422005,           0.
    987,   29.3806019,   59.4781075,           0.
    988,   33.1385384,   59.4692955,           0.
    989,   12.8715439,   62.6667786,           0.
    990,   9.24280739,   62.6707039,           0.
    991,   36.9966507,   59.4007874,           0.
    992,    48.875042,   48.6102409,           0.
    993,   43.2676888,   55.3899956,           0.
    994,   52.6326485,   45.7853584,           0.
    995,   46.3083954,   52.3092613,           0.
    996,   56.1021576,    43.474987,           0.
    997,   7.01242161,   59.2640686,           0.
    998,   6.58546066,    6.9573493,           0.
    999,   58.9734001,   6.63021278,           0.
   1000,   59.4159966,   41.2316017,           0.
   1001,   9.46417236,   16.3470573,           0.
   1002,   9.39429665,   12.6248989,           0.
   1003,   9.48600769,    20.076046,           0.
   1004,    9.4899416,   31.0810184,           0.
   1005,   9.51581669,   49.4987564,           0.
   1006,   9.49686813,   42.0488968,           0.
   1007,   9.53015518,   53.3141327,           0.
   1008,   9.49277782,   38.3917313,           0.
   1009,   9.50208092,   45.7396088,           0.
   1010,   9.49186134,   23.7612514,           0.
   1011,   9.49018288,   34.7358513,           0.
   1012,   9.49105263,   27.4246731,           0.
   1013,   36.6055222,   6.34020615,           0.
   1014,   45.7569466,   3.16892695,           0.
   1015,   53.1005516,   3.16243315,           0.
   1016,   56.7258682,   3.17555904,           0.
   1017,   40.2660637,   6.34032059,           0.
   1018,   49.4304008,   3.16742897,           0.
   1019,   12.5610828,   10.2400713,           0.
   1020,   16.4927063,   9.66080284,           0.
   1021,    23.790947,   9.51540852,           0.
   1022,    20.128994,   9.55289555,           0.
   1023,   27.4531651,   9.51024818,           0.
   1024,   32.9448853,   6.33998775,           0.
   1025,   25.7076054,    59.473774,           0.
   1026,   59.5468254,   22.0009384,           0.
   1027,   59.5318871,   14.5871344,           0.
   1028,   62.5793648,    8.9128418,           0.
   1029,   56.3840942,   35.2186165,           0.
   1030,    56.393074,   31.2981453,           0.
   1031,   56.3881683,   27.5379105,           0.
   1032,   59.5428238,   18.3193722,           0.
   1033,   18.3763046,   59.4593735,           0.
   1034,   10.9937487,   59.4190445,           0.
   1035,   14.6850672,   59.3623161,           0.
   1036,   35.0147934,   56.2815285,           0.
   1037,   31.2592163,   56.3129997,           0.
   1038,   22.0386219,   59.4678955,           0.
   1039,   41.0690155,   59.1709328,           0.
   1040,   56.2734909,   39.3038101,           0.
   1041,   38.9233437,   56.0646553,           0.
   1042,   27.5582867,   56.3129654,           0.
   1043,   12.6504183,    29.254818,           0.
   1044,   12.6488476,   32.9079056,           0.
   1045,   12.6737604,   43.9066734,           0.
   1046,   12.6759405,   51.5450592,           0.
   1047,   12.5579004,   14.3498087,           0.
   1048,    12.689189,   18.1474323,           0.
   1049,   12.6590919,   40.2254677,           0.
   1050,   12.7589827,   47.7176666,           0.
   1051,    12.651351,   36.5634995,           0.
   1052,   12.6529074,   25.5958099,           0.
   1053,     9.124897,   9.45772171,           0.
   1054,   12.6583719,   21.9091129,           0.
   1055,    31.114151,   9.50931358,           0.
   1056,   9.35542011,   56.5687408,           0.
   1057,   47.6036568,   6.33858871,           0.
   1058,   38.4353523,   9.50973415,           0.
   1059,   15.2088795,    12.614893,           0.
   1060,   25.6212196,   12.6811762,           0.
   1061,     18.34552,   12.7401896,           0.
   1062,   51.3137016,     6.449615,           0.
   1063,   21.9675808,   12.6962013,           0.
   1064,   34.7747803,   9.50929356,           0.
   1065,   43.9300804,   6.33987284,           0.
   1066,   56.3814659,   23.8461189,           0.
   1067,   53.2351685,    29.406477,           0.
   1068,    53.239296,   33.2438774,           0.
   1069,   59.4672623,   10.7974396,           0.
   1070,   56.4135208,   16.4081326,           0.
   1071,   56.3829727,    20.153553,           0.
   1072,    33.096756,    53.165226,           0.
   1073,   12.7389622,   55.6784248,           0.
   1074,   16.6312084,   56.2013588,           0.
   1075,    20.239706,   56.2814026,           0.
   1076,   23.8890648,   56.3030777,           0.
   1077,   55.0103378,   6.48669863,           0.
   1078,   36.8155174,    53.093708,           0.
   1079,   29.4107399,   53.1576614,           0.
   1080,   53.1336174,   37.2578354,           0.
   1081,   15.8068953,    31.082798,           0.
   1082,   15.8187237,   27.4150696,           0.
   1083,    15.806675,   34.7341995,           0.
   1084,   16.2972393,   49.7517509,           0.
   1085,   16.1798077,   16.0523357,           0.
   1086,    15.876482,    45.723278,           0.
   1087,   15.8302736,   42.0561905,           0.
   1088,   15.8133192,   38.3915138,           0.
   1089,   15.7901621,   20.0318222,           0.
   1090,     29.28298,   12.6780901,           0.
   1091,   15.8038368,   23.7020264,           0.
   1092,   42.0973473,   9.50991917,           0.
   1093,   49.4025383,   9.64820576,           0.
   1094,   23.6827698,   15.8945408,           0.
   1095,   45.7757187,   9.55106926,           0.
   1096,    20.047657,   15.8421278,           0.
   1097,   36.6043205,   12.6778688,           0.
   1098,    32.943779,   12.6774178,           0.
   1099,   53.2227058,     25.69981,           0.
   1100,   56.4648933,   12.6266403,           0.
   1101,   50.0844269,   31.2970753,           0.
   1102,   53.2035446,   18.2190666,           0.
   1103,   15.3590498,   53.2603073,           0.
   1104,   18.4753418,   53.0655937,           0.
   1105,   53.2137642,   21.9931698,           0.
   1106,    22.084259,   53.0599709,           0.
   1107,   25.7393436,   53.1010628,           0.
   1108,   52.8433952,   41.4692497,           0.
   1109,   53.2825432,   10.2283535,           0.
   1110,   56.6396866,   9.35386944,           0.
   1111,   40.4717293,   52.7472916,           0.
   1112,   34.9136353,   50.0223312,           0.
   1113,   50.0130463,   35.1725273,           0.
   1114,   18.9876766,    29.224823,           0.
   1115,   18.9652901,   32.9028931,           0.
   1116,   31.2515831,   50.0167847,           0.
   1117,   18.9603329,      36.5569,           0.
   1118,   18.8972073,   43.8496933,           0.
   1119,   18.9301281,    40.198658,           0.
   1120,   18.6678963,   47.0396271,           0.
   1121,   50.0714798,   27.5569839,           0.
   1122,   19.0900116,   25.3936901,           0.
   1123,   27.3779716,    15.891222,           0.
   1124,   40.2638931,   12.6769857,           0.
   1125,   21.5508442,   19.0337887,           0.
   1126,   43.9376106,   12.6943083,           0.
   1127,   47.5494919,   12.7332506,           0.
   1128,   34.7730103,   15.8444233,           0.
   1129,    53.306263,   14.3647938,           0.
   1130,   31.0924072,   15.8572741,           0.
   1131,   18.9324665,   21.6138325,           0.
   1132,   50.0668945,   20.0978317,           0.
   1133,   23.9171696,   49.7782745,           0.
   1134,   50.0667191,   23.8105984,           0.
   1135,   27.5963802,   49.9309311,           0.
   1136,   18.5001869,    18.514782,           0.
   1137,    48.904953,   43.7181892,           0.
   1138,   38.5173988,   49.9187851,           0.
   1139,    33.107933,   46.9097595,           0.
   1140,   22.1428585,   31.0610142,           0.
   1141,   22.1145611,    34.725605,           0.
   1142,   22.3767147,   27.2590828,           0.
   1143,   20.2416515,   49.8005753,           0.
   1144,   46.9249916,   29.4134598,           0.
   1145,   22.0570927,   42.1365547,           0.
   1146,   22.0423622,   46.1509323,           0.
   1147,   25.3162251,     19.18083,           0.
   1148,   22.1754475,   38.4448891,           0.
   1149,   38.4115334,   15.8455009,           0.
   1150,   49.6896133,   16.0585899,           0.
   1151,   50.6460876,   12.6066389,           0.
   1152,   45.7395897,   15.9064169,           0.
   1153,   32.9199562,    19.000946,           0.
   1154,   42.0666351,   15.9459972,           0.
   1155,   29.1590557,   19.0461044,           0.
   1156,   47.0209084,    21.897974,           0.
   1157,   29.5099354,   46.8462067,           0.
   1158,   46.9586678,    25.655447,           0.
   1159,   25.9346981,   46.7052231,           0.
   1160,    46.902153,     33.16856,           0.
   1161,   49.6967354,   39.2027512,           0.
   1162,    22.906477,   22.9167614,           0.
   1163,   41.8849411,   49.6572609,           0.
   1164,   36.7114143,   46.8902931,           0.
   1165,   25.2840424,   32.9118423,           0.
   1166,   25.4958439,   29.2681332,           0.
   1167,   25.3294315,   36.5337563,           0.
   1168,   31.4058647,   43.7414322,           0.
   1169,   46.7387733,   36.9479256,           0.
   1170,   25.7233696,   40.4451027,           0.
   1171,   36.5644875,    19.022604,           0.
   1172,   47.2848625,    18.697813,           0.
   1173,   43.9365425,   19.5984802,           0.
   1174,   30.9346809,   22.1260204,           0.
   1175,   40.1233597,      19.1145,           0.
   1176,    43.782093,   31.2869911,           0.
   1177,   43.7777557,   27.5163059,           0.
   1178,   43.9137306,   23.7049885,           0.
   1179,   27.8271122,   43.6879387,           0.
   1180,   25.9871063,   25.6568775,           0.
   1181,   40.2033844,   46.8244019,           0.
   1182,   34.9549141,   43.7733231,           0.
   1183,   28.6015682,   31.1357632,           0.
   1184,   28.4598904,   34.7470474,           0.
   1185,   24.7169266,   43.8251495,           0.
   1186,   43.7195587,   34.9556313,           0.
   1187,   28.1750393,   37.8776016,           0.
   1188,   34.6227684,   22.2157612,           0.
   1189,   41.3468132,    22.038063,           0.
   1190,   38.2570038,   22.2011089,           0.
   1191,   27.2316666,   22.2613792,           0.
   1192,   40.6295853,   29.4429989,           0.
   1193,   40.3397484,   25.4442787,           0.
   1194,   28.9264507,    27.612587,           0.
   1195,   46.2975044,   40.6183052,           0.
   1196,   31.8017292,   29.5068302,           0.
   1197,   43.4621201,   46.6950951,           0.
   1198,   38.4868202,   43.7522011,           0.
   1199,   33.2829742,   40.5858498,           0.
   1200,   31.5397568,   32.9808197,           0.
   1201,   31.5762024,   36.9375458,           0.
   1202,   40.6075134,   33.1350937,           0.
   1203,   32.4139557,    25.692297,           0.
   1204,    29.098772,   24.6698322,           0.
   1205,   36.4385414,    25.321888,           0.
   1206,    43.560936,   38.5164032,           0.
   1207,   29.6650944,   40.5459099,           0.
   1208,   45.0972252,   43.8069153,           0.
   1209,   34.0313683,   31.2824001,           0.
   1210,   41.8707771,    43.826786,           0.
   1211,   36.7668495,   40.7083397,           0.
   1212,   34.5553322,   34.2067604,           0.
   1213,    40.687088,   36.7109985,           0.
   1214,   37.2121696,   31.3678055,           0.
   1215,   46.2728653,    46.467411,           0.
   1216,   37.9310112,   28.0068531,           0.
   1217,    45.030014,   49.3030243,           0.
   1218,   40.4368477,   40.4425697,           0.
   1219,   37.7513733,   35.1908722,           0.
   1220,   34.9714622,   28.5296803,           0.
   1221,   35.3455582,   37.6241074,           0.
   1222,   43.4526596,   41.4421959,           0.
   1223,   38.1975441,    38.135376,           0.
   1224,   43.3925552,   51.8813667,           0.
*Element, type=S3
  1, 313, 276, 286
  2, 243,  65, 209
  3, 297, 296, 265
  4, 208,  27,  28
  5, 208, 207,  27
  6, 225,  44, 224
  7, 209,  13,  14
  8, 245,  17, 210
  9, 210,  17,  18
 10, 235,  60, 234
 11, 233,  61,  62
 12, 212, 210,  18
 13, 213,  24, 211
 14, 215, 214,  20
 15, 215,  21,  22
 16,  21,   2,  22
 17,  28,   3,  29
 18, 216,  26, 207
 19, 217, 215,  22
 20,  37,   4,  38
 21, 230,  38,  39
 22, 246, 229, 228
 23, 272, 227, 226
 24, 290, 289, 248
 25, 249,  33,  34
 26, 292, 218, 249
 27, 219,  32, 218
 28, 221,  29,  30
 29,  52,  51,   5
 30, 242,  52,  53
 31, 251, 241, 240
 32, 281, 239, 238
 33, 294, 282, 283
 34, 254,  47,  48
 35, 223,  46, 222
 36, 216, 211,  25
 37, 335, 309, 332
 38, 226,  43, 225
 39, 227,  42, 226
 40, 228,  41, 227
 41, 229,  40, 228
 42, 230,  39, 229
 43,  65,   1,  13
 44, 209,  65,  13
 45, 243, 231,  64
 46, 231,  63,  64
 47, 285, 231, 243
 48, 233,  62, 232
 49, 257, 232, 256
 50, 236,  59, 235
 51, 237,  58, 236
 52, 238,  57, 237
 53, 239,  56, 238
 54, 240,  55, 239
 55, 241,  54, 240
 56, 242,  53, 241
 57, 207,  26,  27
 58, 314, 266, 291
 59, 221,  28,  29
 60, 220,  31, 219
 61, 259,  14,  15
 62, 318, 313, 286
 63, 212,  18,  19
 64, 261, 212, 214
 65, 211,  24,  25
 66, 216,  25,  26
 67, 214,  19,  20
 68, 263, 214, 215
 69, 213,  23,  24
 70, 315, 261, 263
 71, 214, 212,  19
 72, 215,  20,  21
 73, 217,  22,  23
 74, 263, 215, 217
 75, 295, 272, 271
 76, 224,  45, 223
 77, 217,  23, 213
 78, 261, 260, 212
 79, 218,  32,  33
 80, 397, 378, 392
 81, 266, 219, 250
 82, 219,  31,  32
 83, 267, 221, 220
 84, 220,  30,  31
 85, 221, 208,  28
 86, 221,  30, 220
 87, 222,  46,  47
 88, 278, 235, 234
 89, 269, 223, 255
 90, 223,  45,  46
 91, 314, 267, 266
 92, 224,  44,  45
 93, 271, 225, 265
 94, 225,  43,  44
 95, 247, 246, 228
 96, 226,  42,  43
 97, 273,  35,  36
 98, 227,  41,  42
 99, 273, 248,  35
100, 228,  40,  41
101, 274, 229, 246
102, 229,  39,  40
103, 275,  37, 230
104, 230,  37,  38
105, 276,  16, 245
106, 232,  63, 231
107, 353, 352, 334
108, 232,  62,  63
109, 310, 307, 257
110, 234,  61, 233
111, 277, 233, 257
112, 234,  60,  61
113, 278, 234, 277
114, 235,  59,  60
115, 344, 299, 323
116, 236,  58,  59
117, 280, 238, 237
118, 237,  57,  58
119, 252, 251, 240
120, 238,  56,  57
121, 282,  49,  50
122, 239,  55,  56
123, 282, 253,  49
124, 240,  54,  55
125, 283, 241, 251
126, 241,  53,  54
127, 284,  51, 242
128, 242,  51,  52
129, 243,  64,  65
130, 285, 243, 209
131, 244, 211, 216
132, 270, 216, 207
133, 245,  16,  17
134, 288, 210, 260
135, 247, 228, 227
136, 290, 248, 273
137, 271, 226, 225
138, 317, 289, 290
139, 249,  34, 248
140, 248,  34,  35
141, 346, 326, 345
142, 249, 218,  33
143, 267, 208, 221
144, 250, 219, 218
145, 252, 240, 239
146, 336, 304, 303
147, 280, 237, 268
148, 293, 255, 222
149, 337, 306, 335
150, 253,  48,  49
151, 254, 222,  47
152, 254,  48, 253
153, 255, 223, 222
154, 293, 222, 254
155, 338, 307, 310
156, 256, 232, 231
157, 305, 302, 278
158, 257, 233, 232
159, 270, 207, 258
160, 258, 207, 208
161, 259, 209,  14
162, 276, 259,  15
163, 260, 210, 212
164, 315, 263, 264
165, 263, 261, 214
166, 262, 213, 211
167, 262, 211, 244
168, 308, 279, 302
169, 264, 217, 213
170, 264, 263, 217
171, 264, 213, 262
172, 315, 287, 261
173, 265, 225, 224
174, 269, 265, 224
175, 266, 220, 219
176, 291, 266, 250
177, 267, 258, 208
178, 267, 220, 266
179, 268, 237, 236
180, 279, 236, 235
181, 269, 224, 223
182, 299, 297, 269
183, 363, 346, 345
184, 270, 244, 216
185, 272, 226, 271
186, 296, 295, 271
187, 329, 300, 298
188, 272, 247, 227
189, 275, 273,  36
190, 275, 274, 273
191, 274, 230, 229
192, 300, 247, 298
193, 275,  36,  37
194, 275, 230, 274
195, 276,  15,  16
196, 286, 276, 245
197, 277, 234, 233
198, 307, 305, 277
199, 350, 332, 331
200, 302, 279, 278
201, 279, 268, 236
202, 279, 235, 278
203, 349, 344, 323
204, 281, 238, 280
205, 316, 301, 294
206, 281, 252, 239
207, 284, 282,  50
208, 284, 283, 282
209, 283, 242, 241
210, 311, 283, 251
211, 284,  50,  51
212, 284, 242, 283
213, 285, 256, 231
214, 285, 209, 259
215, 324, 285, 313
216, 288, 286, 245
217, 338, 333, 307
218, 287, 260, 261
219, 288, 245, 210
220, 320, 260, 287
221, 289, 249, 248
222, 328, 295, 327
223, 290, 273, 274
224, 312, 274, 246
225, 321, 250, 292
226, 298, 272, 295
227, 292, 250, 218
228, 292, 249, 289
229, 301, 254, 253
230, 316, 294, 311
231, 294, 253, 282
232, 304, 252, 303
233, 296, 271, 265
234, 343, 321, 322
235, 297, 265, 269
236, 327, 296, 326
237, 299, 269, 255
238, 326, 297, 325
239, 317, 290, 312
240, 298, 247, 272
241, 323, 255, 293
242, 306, 303, 281
243, 317, 312, 300
244, 300, 246, 247
245, 301, 293, 254
246, 301, 253, 294
247, 305, 278, 277
248, 370, 352, 353
249, 303, 252, 281
250, 306, 281, 280
251, 316, 311, 304
252, 304, 251, 252
253, 307, 277, 257
254, 334, 305, 333
255, 309, 280, 268
256, 332, 308, 331
257, 310, 257, 256
258, 340, 319, 320
259, 308, 268, 279
260, 331, 308, 302
261, 309, 306, 280
262, 309, 268, 308
263, 324, 313, 318
264, 324, 318, 310
265, 311, 294, 283
266, 311, 251, 304
267, 312, 290, 274
268, 312, 246, 300
269, 313, 285, 259
270, 313, 259, 276
271, 402, 258, 314
272, 314, 258, 267
273, 339, 264, 262
274, 352, 350, 331
275, 364, 349, 330
276, 330, 301, 316
277, 361, 343, 322
278, 322, 289, 317
279, 319, 286, 288
280, 319, 318, 286
281, 320, 319, 288
282, 359, 340, 356
283, 320, 288, 260
284, 408, 383, 389
285, 321, 291, 250
286, 322, 321, 292
287, 322, 292, 289
288, 347, 327, 346
289, 323, 299, 255
290, 330, 323, 293
291, 324, 310, 256
292, 324, 256, 285
293, 345, 326, 325
294, 325, 297, 299
295, 378, 342, 360
296, 326, 296, 297
297, 343, 342, 321
298, 327, 295, 296
299, 365, 346, 363
300, 328, 298, 295
301, 329, 317, 300
302, 329, 298, 328
303, 330, 293, 301
304, 337, 336, 303
305, 334, 302, 305
306, 369, 350, 368
307, 351, 332, 350
308, 332, 309, 308
309, 333, 305, 307
310, 359, 356, 338
311, 341, 340, 320
312, 334, 331, 302
313, 385, 367, 372
314, 335, 306, 309
315, 336, 316, 304
316, 337, 303, 306
317, 367, 362, 344
318, 354, 335, 351
319, 359, 310, 318
320, 359, 318, 319
321, 339, 315, 264
322, 374, 262, 244
323, 341, 320, 287
324, 357, 287, 315
325, 357, 315, 339
326, 383, 382, 368
327, 387, 291, 342
328, 342, 291, 321
329, 361, 322, 317
330, 348, 329, 328
331, 344, 325, 299
332, 349, 323, 330
333, 362, 325, 344
334, 393, 392, 381
335, 360, 343, 348
336, 346, 327, 326
337, 366, 348, 347
338, 347, 328, 327
339, 361, 348, 343
340, 348, 328, 347
341, 364, 330, 316
342, 355, 336, 337
343, 352, 331, 334
344, 382, 369, 368
345, 371, 351, 369
346, 351, 335, 332
347, 353, 334, 333
348, 370, 368, 352
349, 356, 353, 333
350, 358, 356, 340
351, 401, 399, 398
352, 354, 337, 335
353, 364, 355, 349
354, 355, 337, 354
355, 356, 333, 338
356, 358, 340, 341
357, 357, 341, 287
358, 374, 339, 262
359, 373, 356, 358
360, 377, 375, 358
361, 359, 338, 310
362, 359, 319, 340
363, 407, 400, 396
364, 360, 342, 343
365, 361, 317, 329
366, 361, 329, 348
367, 362, 345, 325
368, 367, 344, 349
369, 379, 345, 362
370, 397, 392, 394
371, 364, 316, 336
372, 364, 336, 355
373, 381, 366, 365
374, 365, 347, 346
375, 366, 360, 348
376, 366, 347, 365
377, 367, 349, 355
378, 372, 355, 354
379, 391, 384, 382
380, 368, 350, 352
381, 384, 371, 369
382, 369, 351, 350
383, 373, 370, 353
384, 375, 373, 358
385, 385, 379, 362
386, 371, 354, 351
387, 372, 367, 355
388, 372, 354, 371
389, 373, 353, 356
390, 377, 358, 341
391, 376, 339, 374
392, 407, 405, 394
393, 395, 377, 376
394, 389, 373, 375
395, 376, 357, 339
396, 398, 388, 391
397, 377, 341, 357
398, 377, 357, 376
399, 402, 387, 397
400, 381, 360, 366
401, 379, 363, 345
402, 385, 362, 367
403, 380, 365, 363
404, 388, 363, 379
405, 381, 378, 360
406, 381, 365, 380
407, 383, 368, 370
408, 408, 395, 406
409, 389, 370, 373
410, 395, 376, 386
411, 403, 388, 379
412, 384, 369, 382
413, 385, 372, 371
414, 385, 371, 384
415, 386, 376, 374
416, 404, 396, 244
417, 387, 314, 291
418, 387, 342, 378
419, 388, 380, 363
420, 403, 379, 385
421, 389, 383, 370
422, 395, 389, 375
423, 390, 382, 383
424, 399, 393, 398
425, 403, 391, 388
426, 391, 382, 390
427, 392, 378, 381
428, 393, 381, 380
429, 398, 393, 380
430, 406, 399, 401
431, 396, 386, 374
432, 394, 392, 393
433, 395, 375, 377
434, 406, 395, 386
435, 396, 374, 244
436, 404, 244, 270
437, 405, 404, 270
438, 397, 387, 378
439, 398, 380, 388
440, 401, 391, 390
441, 406, 400, 399
442, 399, 394, 393
443, 400, 386, 396
444, 400, 394, 399
445, 401, 398, 391
446, 406, 401, 390
447, 402, 270, 258
448, 402, 314, 387
449, 403, 385, 384
450, 403, 384, 391
451, 405, 270, 402
452, 407, 404, 405
453, 405, 402, 397
454, 405, 397, 394
455, 408, 406, 390
456, 406, 386, 400
457, 407, 394, 400
458, 407, 396, 404
459, 408, 390, 383
460, 408, 389, 395
 461, 449, 411, 115
 462, 411, 114, 115
 463, 466, 436, 435
 464, 423,  91, 422
 465, 560,  97,  98
 466, 496, 463, 421
 467, 511, 468, 510
 468,  13,   1,  66
 469, 418,  13,  66
 470, 440,  68, 439
 471, 450, 419,  16
 472, 553, 514, 552
 473, 419,  17,  16
 474, 451, 416, 415
 475, 416,  18, 415
 476, 411, 410, 114
 477,  82,   6,  83
 478, 430,  83,  84
 479, 456, 429, 428
 480, 457, 427, 426
 481, 500, 464, 457
 482, 458, 457, 426
 483, 460, 459, 424
 484, 461, 460, 423
 485, 433,  76, 432
 486, 414, 112, 113
 487, 468, 466, 435
 488, 435,  73, 431
 489, 437,  71, 436
 490, 469, 436, 466
 491, 438,  70, 437
 492, 439,  69, 438
 493, 561,  66,  67
 494,  97,  96,   7
 495, 420,  96,  97
 496, 462,  95, 420
 497, 455, 421,  93
 498, 480, 444, 445
 499, 463, 461, 422
 500, 422,  92, 421
 501, 424,  90, 423
 502, 425,  89, 424
 503, 426,  88, 425
 504, 427,  87, 426
 505, 428,  86, 427
 506, 429,  85, 428
 507, 430,  84, 429
 508, 568, 530, 525
 509, 482, 481, 101
 510, 482, 102, 444
 511, 444, 102, 103
 512, 441, 104, 105
 513, 446, 105, 106
 514, 448, 442, 447
 515, 447, 442, 107
 516, 413, 111, 409
 517, 413, 412, 110
 518, 447, 109, 412
 519, 108,   8, 109
 520, 449,   2,  21
 521, 414, 113, 410
 522, 412, 109, 110
 523, 433,  75,  76
 524, 409, 111, 112
 525, 410, 113, 114
 526, 452, 417, 416
 527, 449, 115,   2
 528, 417,  19, 416
 529, 447, 108, 109
 530, 413, 110, 111
 531, 488, 409, 486
 532, 485, 483, 446
 533, 436,  72, 435
 534, 414, 409, 112
 535, 415,  18,  17
 536, 454, 451, 415
 537, 452, 416, 451
 538, 416,  19,  18
 539, 528, 492, 449
 540, 417,  20,  19
 541, 453, 450,  15
 542, 418,  14,  13
 543, 419, 415,  17
 544, 450,  16,  15
 545, 420,  95,  96
 546, 443,  98,  99
 547, 421,  92,  93
 548, 455,  93,  94
 549, 501, 458, 498
 550, 422,  91,  92
 551, 465,  77,  78
 552, 423,  90,  91
 553, 507, 471, 506
 554, 424,  89,  90
 555, 471, 470,  79
 556, 425,  88,  89
 557, 506, 477, 491
 558, 426,  87,  88
 559, 546, 506, 541
 560, 427,  86,  87
 561, 477, 471,  80
 562, 428,  85,  86
 563, 491, 429, 456
 564, 429,  84,  85
 565, 478,  82, 430
 566, 430,  82,  83
 567, 431,  73,  74
 568, 434,  74,  75
 569, 472, 433, 432
 570, 432,  76,  77
 571, 474, 473, 434
 572, 474, 433, 472
 573, 434, 431,  74
 574, 434,  75, 433
 575, 565, 493, 531
 576, 435,  72,  73
 577, 494, 493, 451
 578, 436,  71,  72
 579, 475, 437, 469
 580, 437,  70,  71
 581, 476, 439, 467
 582, 438,  69,  70
 583, 524, 453, 504
 584, 439,  68,  69
 585, 561, 440, 504
 586, 440,  67,  68
 587, 445, 104, 441
 588, 521, 484, 520
 589, 442, 106, 107
 590, 489, 412, 413
 591, 560, 443, 526
 592, 479,  99, 100
 593, 481, 479, 100
 594, 445, 444, 103
 595, 445, 103, 104
 596, 540, 496, 530
 597, 446, 441, 105
 598, 446, 106, 442
 599, 447, 107, 108
 600, 448, 447, 412
 601, 488, 413, 409
 602, 570, 539, 567
 603, 528,  21,  20
 604, 528, 449,  21
 605, 453,  15,  14
 606, 515, 467, 514
 607, 494, 451, 454
 608, 454, 415, 419
 609, 492, 487, 411
 610, 532, 492, 452
 611, 453,  14, 418
 612, 504, 440, 476
 613, 495, 419, 450
 614, 467, 439, 438
 615, 462,  94,  95
 616, 462, 455,  94
 617, 470, 465,  78
 618, 464, 428, 427
 619, 458, 426, 425
 620, 459, 425, 424
 621, 459, 458, 425
 622, 622, 571, 598
 623, 460, 424, 423
 624, 499, 498, 459
 625, 461, 423, 422
 626, 643, 641, 627
 627, 463, 422, 421
 628, 520, 483, 519
 629, 526, 443, 518
 630, 568, 526, 518
 631, 496, 421, 455
 632, 568, 555, 530
 633, 464, 456, 428
 634, 464, 427, 457
 635, 465, 432,  77
 636, 470,  78,  79
 637, 468, 435, 431
 638, 490, 410, 487
 639, 475, 438, 437
 640, 469, 437, 436
 641, 473, 431, 434
 642, 510, 473, 509
 643, 512, 466, 511
 644, 550, 511, 548
 645, 471,  79,  80
 646, 503, 464, 500
 647, 477,  80,  81
 648, 537, 501, 536
 649, 508, 474, 472
 650, 505, 432, 465
 651, 509, 474, 508
 652, 473, 468, 431
 653, 474, 434, 433
 654, 501, 500, 457
 655, 513, 469, 512
 656, 475, 467, 438
 657, 542, 515, 529
 658, 476, 440, 439
 659, 478, 477,  81
 660, 491, 478, 430
 661, 478,  81,  82
 662, 491, 430, 429
 663, 479, 443,  99
 664, 481, 100, 101
 665, 484, 445, 441
 666, 483, 441, 446
 667, 517, 482, 444
 668, 522, 518, 479
 669, 482, 101, 102
 670, 517, 444, 480
 671, 485, 446, 442
 672, 527, 485, 448
 673, 484, 480, 445
 674, 484, 441, 483
 675, 485, 442, 448
 676, 538, 536, 498
 677, 486, 409, 414
 678, 490, 414, 410
 679, 487, 410, 411
 680, 532, 452, 493
 681, 527, 448, 489
 682, 527, 519, 485
 683, 489, 448, 412
 684, 489, 413, 488
 685, 548, 510, 547
 686, 490, 486, 414
 687, 541, 506, 491
 688, 491, 477, 478
 689, 492, 411, 449
 690, 492, 417, 452
 691, 493, 452, 451
 692, 566, 533, 562
 693, 533, 495, 529
 694, 514, 475, 513
 695, 495, 454, 419
 696, 542, 504, 476
 697, 525, 455, 462
 698, 518, 443, 479
 699, 502, 461, 497
 700, 497, 461, 463
 701, 498, 458, 459
 702, 499, 459, 460
 703, 502, 499, 460
 704, 539, 502, 534
 705, 551, 507, 546
 706, 501, 457, 458
 707, 536, 501, 498
 708, 597, 569, 595
 709, 502, 460, 461
 710, 573, 540, 563
 711, 535, 503, 500
 712, 503, 456, 464
 713, 504, 453, 418
 714, 561, 504, 418
 715, 505, 472, 432
 716, 516, 465, 470
 717, 506, 471, 477
 718, 541, 491, 456
 719, 580, 546, 535
 720, 507, 470, 471
 721, 545, 509, 508
 722, 543, 472, 505
 723, 547, 509, 545
 724, 509, 473, 474
 725, 582, 581, 549
 726, 510, 468, 473
 727, 550, 549, 512
 728, 511, 466, 468
 729, 549, 513, 512
 730, 512, 469, 466
 731, 552, 513, 549
 732, 513, 475, 469
 733, 562, 529, 553
 734, 514, 467, 475
 735, 542, 529, 524
 736, 515, 476, 467
 737, 516, 505, 465
 738, 516, 470, 507
 739, 523, 482, 517
 740, 544, 480, 521
 741, 522, 479, 481
 742, 523, 522, 481
 743, 519, 483, 485
 744, 599, 534, 573
 745, 557, 556, 520
 746, 520, 484, 483
 747, 587, 563, 555
 748, 521, 480, 484
 749, 563, 530, 555
 750, 555, 518, 522
 751, 523, 481, 482
 752, 559, 517, 544
 753, 524, 495, 450
 754, 524, 450, 453
 755, 525, 496, 455
 756, 526, 525, 462
 757, 526, 462, 420
 758, 560, 526, 420
 759, 564, 489, 488
 760, 611, 527, 564
 761, 528,  20, 417
 762, 528, 417, 492
 763, 584, 562, 553
 764, 529, 495, 524
 765, 587, 555, 558
 766, 530, 496, 525
 767, 565, 532, 493
 768, 531, 493, 494
 769, 592, 487, 532
 770, 532, 487, 492
 771, 533, 494, 454
 772, 533, 454, 495
 773, 606, 583, 605
 774, 534, 502, 497
 775, 580, 571, 578
 776, 537, 500, 501
 777, 538, 498, 499
 778, 569, 536, 538
 779, 572, 536, 569
 780, 537, 535, 500
 781, 539, 538, 499
 782, 617, 567, 599
 783, 539, 499, 502
 784, 609, 588, 589
 785, 540, 497, 463
 786, 540, 463, 496
 787, 541, 456, 503
 788, 546, 541, 503
 789, 542, 524, 504
 790, 542, 476, 515
 791, 543, 508, 472
 792, 554, 505, 516
 793, 544, 517, 480
 794, 576, 521, 556
 795, 658, 655, 639
 796, 575, 508, 543
 797, 546, 507, 506
 798, 546, 503, 535
 799, 579, 547, 577
 800, 547, 510, 509
 801, 613, 592, 565
 802, 548, 511, 510
 803, 581, 552, 549
 804, 550, 512, 511
 805, 583, 548, 579
 806, 596, 593, 531
 807, 551, 516, 507
 808, 571, 535, 537
 809, 584, 553, 552
 810, 552, 514, 513
 811, 553, 529, 515
 812, 553, 515, 514
 813, 554, 543, 505
 814, 554, 516, 551
 815, 558, 522, 523
 816, 558, 555, 522
 817, 556, 521, 520
 818, 557, 520, 519
 819, 574, 519, 527
 820, 600, 586, 557
 821, 559, 558, 523
 822, 590, 587, 588
 823, 559, 523, 517
 824, 589, 544, 576
 825, 560, 420,  97
 826, 560,  98, 443
 827, 561, 418,  66
 828, 561,  67, 440
 829, 566, 494, 533
 830, 562, 533, 529
 831, 590, 563, 587
 832, 563, 540, 530
 833, 564, 527, 489
 834, 651, 632, 644
 835, 596, 566, 584
 836, 613, 565, 593
 837, 626, 604, 624
 838, 566, 531, 494
 839, 595, 570, 594
 840, 567, 539, 534
 841, 568, 525, 526
 842, 568, 518, 555
 843, 633, 612, 614
 844, 570, 569, 538
 845, 570, 538, 539
 846, 610, 609, 589
 847, 580, 578, 551
 848, 572, 571, 537
 849, 572, 537, 536
 850, 608, 601, 575
 851, 573, 534, 497
 852, 573, 497, 540
 853, 653, 649, 650
 854, 574, 557, 519
 855, 575, 545, 508
 856, 585, 543, 554
 857, 576, 544, 521
 858, 602, 556, 586
 859, 577, 547, 545
 860, 601, 545, 575
 861, 578, 554, 551
 862, 598, 572, 597
 863, 630, 611, 591
 864, 579, 548, 547
 865, 580, 551, 546
 866, 580, 535, 571
 867, 582, 549, 550
 868, 583, 550, 548
 869, 583, 582, 550
 870, 604, 581, 582
 871, 605, 579, 603
 872, 605, 583, 579
 873, 584, 566, 562
 874, 584, 552, 581
 875, 585, 575, 543
 876, 585, 554, 578
 877, 586, 556, 557
 878, 600, 557, 574
 879, 588, 558, 559
 880, 588, 587, 558
 881, 589, 588, 559
 882, 619, 590, 609
 883, 589, 559, 544
 884, 610, 576, 602
 885, 609, 590, 588
 886, 590, 573, 563
 887, 591, 564, 488
 888, 616, 488, 486
 889, 592, 490, 487
 890, 592, 532, 565
 891, 593, 565, 531
 892, 626, 596, 607
 893, 614, 612, 595
 894, 594, 570, 567
 895, 643, 633, 641
 896, 595, 569, 570
 897, 596, 531, 566
 898, 607, 584, 581
 899, 612, 597, 595
 900, 597, 572, 569
 901, 622, 578, 571
 902, 598, 571, 572
 903, 599, 567, 534
 904, 599, 573, 590
 905, 611, 600, 574
 906, 625, 624, 606
 907, 601, 577, 545
 908, 608, 575, 585
 909, 602, 576, 556
 910, 620, 586, 618
 911, 603, 579, 577
 912, 621, 577, 601
 913, 606, 582, 583
 914, 635, 593, 626
 915, 658, 631, 651
 916, 625, 605, 623
 917, 625, 606, 605
 918, 606, 604, 582
 919, 607, 596, 584
 920, 607, 581, 604
 921, 622, 608, 585
 922, 615, 598, 597
 923, 610, 589, 576
 924, 628, 619, 609
 925, 629, 602, 620
 926, 628, 617, 619
 927, 611, 574, 527
 928, 611, 564, 591
 929, 627, 608, 615
 930, 614, 595, 594
 931, 657, 644, 632
 932, 657, 592, 613
 933, 636, 594, 617
 934, 653, 650, 638
 935, 622, 615, 608
 936, 615, 597, 612
 937, 616, 591, 488
 938, 632, 486, 490
 939, 617, 594, 567
 940, 619, 617, 599
 941, 618, 586, 600
 942, 630, 600, 611
 943, 619, 599, 590
 944, 628, 609, 610
 945, 629, 628, 610
 946, 620, 602, 586
 947, 621, 603, 577
 948, 627, 621, 601
 949, 622, 585, 578
 950, 622, 598, 615
 951, 623, 605, 603
 952, 638, 603, 621
 953, 655, 651, 644
 954, 624, 604, 606
 955, 659, 646, 652
 956, 658, 651, 655
 957, 626, 593, 596
 958, 626, 607, 604
 959, 627, 601, 608
 960, 643, 615, 612
 961, 629, 610, 602
 962, 654, 628, 629
 963, 649, 642, 634
 964, 654, 642, 647
 965, 637, 600, 630
 966, 631, 630, 591
 967, 631, 591, 616
 968, 632, 631, 616
 969, 632, 616, 486
 970, 655, 635, 645
 971, 647, 614, 636
 972, 649, 647, 642
 973, 634, 620, 618
 974, 648, 618, 637
 975, 635, 613, 593
 976, 645, 624, 639
 977, 636, 614, 594
 978, 636, 617, 628
 979, 640, 639, 625
 980, 637, 618, 600
 981, 638, 623, 603
 982, 641, 638, 621
 983, 639, 624, 625
 984, 640, 625, 623
 985, 656, 649, 634
 986, 659, 650, 656
 987, 641, 621, 627
 988, 653, 633, 647
 989, 642, 629, 620
 990, 642, 620, 634
 991, 643, 627, 615
 992, 643, 612, 633
 993, 657, 632, 490
 994, 644, 613, 635
 995, 645, 635, 626
 996, 645, 626, 624
 997, 646, 637, 630
 998, 646, 630, 631
 999, 647, 633, 614
1000, 654, 647, 636
1001, 648, 634, 618
1002, 648, 637, 646
1003, 653, 647, 649
1004, 656, 650, 649
1005, 650, 640, 623
1006, 650, 623, 638
1007, 651, 631, 632
1008, 655, 644, 635
1009, 652, 639, 640
1010, 659, 640, 650
1011, 653, 638, 641
1012, 653, 641, 633
1013, 654, 636, 628
1014, 654, 629, 642
1015, 655, 645, 639
1016, 658, 639, 652
1017, 656, 634, 648
1018, 659, 656, 648
1019, 657, 490, 592
1020, 657, 613, 644
1021, 658, 652, 646
1022, 658, 646, 631
1023, 659, 648, 646
1024, 659, 652, 640
1025, 780, 698, 700
1026, 664, 662, 163
1027, 729, 121, 122
1028, 683, 153, 682
1029, 705, 158,  37
1030, 663, 161, 661
1031, 687, 149, 686
1032, 127,  10, 128
1033, 678, 127, 128
1034, 733, 693, 126
1035, 812, 743, 778
1036, 713, 676, 708
1037, 708, 676, 672
1038, 754, 751, 710
1039, 730, 729, 122
1040, 752, 713, 708
1041, 695, 120, 694
1042, 696, 119, 695
1043, 698, 116, 117
1044, 141,  11, 142
1045, 673, 141, 142
1046, 709, 140, 673
1047, 707, 674, 138
1048, 707, 138, 139
1049, 675, 137, 674
1050, 715, 675, 674
1051, 672, 135, 671
1052, 676, 134, 672
1053, 677, 133, 676
1054, 711, 132, 677
1055, 778, 712, 750
1056, 742, 130, 712
1057, 678, 128, 129
1058,  37, 158,   4
1059, 705,  37,  36
1060, 744, 716, 679
1061, 716, 680, 156
1062, 781, 699, 740
1063, 722, 681, 680
1064, 682, 154, 681
1065, 684, 152, 683
1066, 685, 151, 684
1067, 718, 685, 684
1068, 686, 150, 685
1069, 725, 686, 685
1070, 688, 148, 687
1071, 690, 146, 689
1072, 815, 783, 804
1073, 692, 144, 691
1074, 813, 142, 143
1075, 701,  35, 669
1076, 669,  34, 665
1077, 665,  34,  33
1078, 670,  33,  32
1079, 702, 666, 667
1080, 667, 666,  31
1081, 668,  29, 159
1082, 668, 159, 660
1083,  29,   3, 159
1084, 780,   9, 116
1085, 662, 661, 162
1086, 660, 159, 160
1087, 667,  31,  30
1088, 663, 160, 161
1089, 661, 161, 162
1090, 662, 162, 163
1091, 664, 163, 164
1092, 745, 741, 664
1093, 681, 155, 680
1094, 663, 660, 160
1095, 780, 700, 165
1096, 697, 118, 696
1097, 703, 669, 665
1098, 670,  32, 666
1099, 666,  32,  31
1100, 699, 667, 668
1101, 668, 667,  30
1102, 740, 660, 663
1103, 668,  30,  29
1104, 699, 668, 660
1105, 716, 157, 679
1106, 669,  35,  34
1107, 758, 716, 744
1108, 670, 665,  33
1109, 671, 135, 136
1110, 675, 136, 137
1111, 732, 731, 124
1112, 672, 134, 135
1113, 691, 145, 690
1114, 673, 140, 141
1115, 674, 137, 138
1116, 726, 687, 719
1117, 689, 147, 688
1118, 675, 671, 136
1119, 731, 730, 123
1120, 676, 133, 134
1121, 732, 125, 693
1122, 677, 132, 133
1123, 712, 131, 711
1124, 733, 127, 678
1125, 679, 157, 158
1126, 744, 705, 701
1127, 722, 717, 681
1128, 680, 155, 156
1129, 857, 853, 828
1130, 681, 154, 155
1131, 723, 682, 717
1132, 682, 153, 154
1133, 723, 683, 682
1134, 683, 152, 153
1135, 739, 738, 661
1136, 684, 151, 152
1137, 725, 685, 718
1138, 685, 150, 151
1139, 767, 719, 763
1140, 686, 149, 150
1141, 754, 710, 715
1142, 687, 148, 149
1143, 715, 710, 675
1144, 688, 147, 148
1145, 726, 721, 688
1146, 689, 146, 147
1147, 770, 720, 769
1148, 690, 145, 146
1149, 779, 709, 757
1150, 691, 144, 145
1151, 813, 692, 757
1152, 692, 143, 144
1153, 848, 837, 806
1154, 693, 125, 126
1155, 759, 694, 729
1156, 694, 120, 121
1157, 735, 695, 734
1158, 695, 119, 120
1159, 736, 696, 735
1160, 696, 118, 119
1161, 775, 774, 735
1162, 697, 117, 118
1163, 737, 697, 736
1164, 698, 117, 697
1165, 702, 667, 699
1166, 803, 801, 764
1167, 700, 664, 164
1168, 700, 164, 165
1169, 701,  36,  35
1170, 749, 669, 703
1171, 704, 703, 665
1172, 706, 666, 702
1173, 704, 665, 670
1174, 706, 704, 670
1175, 768, 764, 717
1176, 822, 794, 758
1177, 705, 679, 158
1178, 705,  36, 701
1179, 706, 670, 666
1180, 781, 702, 699
1181, 709, 139, 140
1182, 709, 707, 139
1183, 714, 672, 671
1184, 808, 774, 807
1185, 757, 692, 728
1186, 728, 691, 720
1187, 710, 671, 675
1188, 727, 689, 721
1189, 711, 131, 132
1190, 755, 677, 713
1191, 742, 129, 130
1192, 712, 130, 131
1193, 776, 730, 772
1194, 713, 677, 676
1195, 714, 708, 672
1196, 714, 671, 710
1197, 756, 674, 707
1198, 720, 691, 690
1199, 716, 156, 157
1200, 744, 679, 705
1201, 781, 747, 702
1202, 717, 682, 681
1203, 724, 684, 683
1204, 725, 719, 686
1205, 719, 687, 686
1206, 763, 725, 761
1207, 727, 690, 689
1208, 721, 689, 688
1209, 766, 765, 721
1210, 805, 765, 797
1211, 822, 744, 749
1212, 746, 703, 704
1213, 764, 760, 723
1214, 762, 761, 718
1215, 724, 718, 684
1216, 724, 683, 723
1217, 830, 798, 828
1218, 827, 797, 796
1219, 726, 688, 687
1220, 802, 761, 799
1221, 765, 727, 721
1222, 727, 720, 690
1223, 793, 779, 757
1224, 728, 692, 691
1225, 729, 694, 121
1226, 730, 122, 123
1227, 731, 123, 124
1228, 810, 809, 772
1229, 750, 712, 711
1230, 812, 806, 771
1231, 732, 124, 125
1232, 771, 693, 743
1233, 733, 126, 127
1234, 743, 733, 678
1235, 847, 787, 824
1236, 734, 695, 694
1237, 745, 700, 737
1238, 735, 696, 695
1239, 741, 739, 662
1240, 736, 697, 696
1241, 737, 700, 698
1242, 737, 698, 697
1243, 738, 663, 661
1244, 739, 661, 662
1245, 741, 662, 664
1246, 762, 724, 760
1247, 740, 699, 660
1248, 740, 663, 738
1249, 774, 736, 735
1250, 773, 745, 737
1251, 743, 678, 742
1252, 742, 678, 129
1253, 782, 778, 750
1254, 743, 693, 733
1255, 749, 744, 701
1256, 822, 786, 794
1257, 745, 664, 700
1258, 773, 737, 736
1259, 748, 704, 706
1260, 748, 706, 747
1261, 747, 706, 702
1262, 801, 798, 760
1263, 784, 748, 747
1264, 748, 746, 704
1265, 749, 701, 669
1266, 786, 703, 746
1267, 755, 750, 711
1268, 789, 782, 750
1269, 753, 714, 751
1270, 751, 714, 710
1271, 844, 818, 823
1272, 753, 752, 708
1273, 753, 708, 714
1274, 788, 751, 787
1275, 792, 756, 783
1276, 769, 727, 765
1277, 755, 711, 677
1278, 791, 713, 752
1279, 756, 715, 674
1280, 793, 757, 728
1281, 757, 709, 673
1282, 813, 757, 673
1283, 758, 722, 680
1284, 758, 680, 716
1285, 759, 734, 694
1286, 776, 729, 730
1287, 760, 724, 723
1288, 764, 723, 717
1289, 761, 725, 718
1290, 762, 718, 724
1291, 798, 762, 760
1292, 799, 762, 798
1293, 824, 792, 815
1294, 763, 719, 725
1295, 768, 717, 722
1296, 842, 833, 803
1297, 766, 721, 726
1298, 767, 726, 719
1299, 767, 766, 726
1300, 797, 766, 796
1301, 802, 763, 761
1302, 796, 766, 767
1303, 821, 786, 746
1304, 785, 748, 784
1305, 804, 770, 769
1306, 769, 720, 727
1307, 793, 783, 779
1308, 770, 728, 720
1309, 777, 732, 771
1310, 771, 732, 693
1311, 772, 730, 731
1312, 777, 772, 731
1313, 868, 773, 808
1314, 774, 773, 736
1315, 775, 735, 734
1316, 867, 847, 858
1317, 795, 734, 759
1318, 790, 753, 788
1319, 860, 838, 859
1320, 776, 759, 729
1321, 777, 731, 732
1322, 812, 782, 806
1323, 778, 743, 742
1324, 778, 742, 712
1325, 779, 756, 707
1326, 779, 707, 709
1327, 780, 165,   9
1328, 780, 116, 698
1329, 814, 740, 738
1330, 895, 814, 841
1331, 789, 750, 755
1332, 859, 848, 818
1333, 804, 783, 770
1334, 783, 756, 779
1335, 820, 747, 781
1336, 875, 857, 864
1337, 826, 794, 821
1338, 785, 746, 748
1339, 786, 749, 703
1340, 821, 794, 786
1341, 802, 800, 763
1342, 787, 751, 754
1343, 819, 788, 817
1344, 788, 753, 751
1345, 791, 789, 755
1346, 838, 810, 837
1347, 839, 811, 809
1348, 790, 752, 753
1349, 791, 755, 713
1350, 823, 752, 790
1351, 792, 754, 715
1352, 792, 715, 756
1353, 793, 728, 770
1354, 793, 770, 783
1355, 794, 768, 722
1356, 794, 722, 758
1357, 795, 775, 734
1358, 811, 759, 776
1359, 800, 767, 763
1360, 886, 885, 849
1361, 805, 804, 769
1362, 797, 765, 766
1363, 801, 760, 764
1364, 849, 808, 836
1365, 832, 831, 802
1366, 799, 761, 762
1367, 829, 827, 796
1368, 800, 796, 767
1369, 803, 764, 768
1370, 842, 826, 821
1371, 832, 799, 830
1372, 832, 802, 799
1373, 842, 821, 785
1374, 816, 785, 784
1375, 805, 769, 765
1376, 835, 805, 834
1377, 834, 805, 797
1378, 835, 804, 805
1379, 810, 777, 806
1380, 806, 777, 771
1381, 807, 774, 775
1382, 825, 775, 795
1383, 885, 868, 849
1384, 808, 773, 774
1385, 809, 776, 772
1386, 810, 772, 777
1387, 848, 782, 789
1388, 818, 789, 791
1389, 811, 795, 759
1390, 811, 776, 809
1391, 812, 771, 743
1392, 812, 778, 782
1393, 813, 673, 142
1394, 813, 143, 692
1395, 814, 781, 740
1396, 841, 738, 739
1397, 824, 754, 792
1398, 815, 792, 783
1399, 833, 828, 801
1400, 845, 784, 820
1401, 817, 788, 787
1402, 867, 817, 847
1403, 823, 818, 791
1404, 878, 859, 844
1405, 851, 827, 829
1406, 819, 790, 788
1407, 820, 784, 747
1408, 820, 781, 814
1409, 821, 746, 785
1410, 842, 785, 816
1411, 822, 758, 744
1412, 822, 749, 786
1413, 823, 791, 752
1414, 846, 790, 819
1415, 867, 858, 855
1416, 824, 787, 754
1417, 825, 807, 775
1418, 840, 795, 811
1419, 826, 803, 768
1420, 826, 768, 794
1421, 829, 796, 800
1422, 852, 851, 829
1423, 905, 896, 904
1424, 828, 798, 801
1425, 831, 800, 802
1426, 907, 903, 893
1427, 876, 853, 875
1428, 830, 799, 798
1429, 874, 872, 852
1430, 831, 829, 800
1431, 854, 830, 853
1432, 856, 832, 854
1433, 833, 801, 803
1434, 896, 895, 841
1435, 858, 835, 834
1436, 834, 797, 827
1437, 835, 824, 815
1438, 835, 815, 804
1439, 836, 808, 807
1440, 850, 807, 825
1441, 837, 810, 806
1442, 848, 806, 782
1443, 839, 809, 838
1444, 838, 809, 810
1445, 861, 839, 860
1446, 865, 844, 846
1447, 840, 825, 795
1448, 840, 811, 839
1449, 841, 814, 738
1450, 910, 897, 909
1451, 870, 842, 816
1452, 842, 803, 826
1453, 861, 840, 839
1454, 843, 819, 817
1455, 846, 844, 823
1456, 879, 878, 865
1457, 845, 816, 784
1458, 863, 845, 820
1459, 846, 823, 790
1460, 866, 819, 843
1461, 847, 817, 787
1462, 847, 824, 835
1463, 848, 789, 818
1464, 859, 818, 844
1465, 886, 849, 869
1466, 868, 741, 745
1467, 850, 836, 807
1468, 862, 825, 840
1469, 887, 873, 872
1470, 852, 829, 831
1471, 856, 831, 832
1472, 881, 862, 880
1473, 853, 830, 828
1474, 857, 828, 833
1475, 877, 854, 876
1476, 854, 832, 830
1477, 855, 834, 827
1478, 855, 827, 851
1479, 871, 869, 836
1480, 856, 852, 831
1481, 870, 864, 857
1482, 864, 816, 845
1483, 858, 847, 835
1484, 858, 834, 855
1485, 859, 838, 837
1486, 859, 837, 848
1487, 879, 860, 878
1488, 860, 839, 838
1489, 907, 893, 879
1490, 862, 840, 861
1491, 882, 843, 867
1492, 862, 850, 825
1493, 863, 820, 814
1494, 905, 902, 890
1495, 870, 857, 833
1496, 883, 845, 863
1497, 866, 865, 846
1498, 903, 866, 882
1499, 866, 846, 819
1500, 882, 867, 873
1501, 873, 851, 872
1502, 867, 843, 817
1503, 868, 745, 773
1504, 868, 808, 849
1505, 869, 849, 836
1506, 871, 836, 850
1507, 870, 833, 842
1508, 870, 816, 864
1509, 881, 850, 862
1510, 906, 892, 894
1511, 872, 851, 852
1512, 874, 852, 856
1513, 873, 867, 855
1514, 873, 855, 851
1515, 877, 856, 854
1516, 903, 901, 893
1517, 875, 853, 857
1518, 899, 864, 883
1519, 890, 876, 875
1520, 876, 854, 853
1521, 891, 876, 890
1522, 877, 874, 856
1523, 878, 860, 859
1524, 878, 844, 865
1525, 880, 861, 879
1526, 879, 861, 860
1527, 894, 880, 893
1528, 880, 862, 861
1529, 888, 887, 872
1530, 881, 871, 850
1531, 887, 882, 873
1532, 882, 866, 843
1533, 883, 864, 845
1534, 908, 863, 895
1535, 884, 869, 871
1536, 892, 871, 881
1537, 910, 885, 897
1538, 885, 741, 868
1539, 898, 869, 884
1540, 904, 897, 886
1541, 888, 872, 874
1542, 901, 894, 893
1543, 889, 888, 874
1544, 906, 889, 900
1545, 889, 874, 877
1546, 891, 877, 876
1547, 902, 898, 884
1548, 899, 875, 864
1549, 902, 900, 891
1550, 891, 889, 877
1551, 892, 884, 871
1552, 894, 881, 880
1553, 893, 880, 879
1554, 907, 879, 865
1555, 906, 894, 901
1556, 894, 892, 881
1557, 895, 863, 814
1558, 909, 896, 841
1559, 904, 898, 902
1560, 908, 895, 896
1561, 909, 897, 896
1562, 897, 885, 886
1563, 898, 886, 869
1564, 902, 884, 900
1565, 899, 890, 875
1566, 908, 899, 883
1567, 900, 889, 891
1568, 900, 884, 892
1569, 901, 887, 888
1570, 906, 901, 888
1571, 902, 891, 890
1572, 905, 904, 902
1573, 903, 882, 887
1574, 903, 887, 901
1575, 904, 896, 897
1576, 904, 886, 898
1577, 905, 890, 899
1578, 908, 905, 899
1579, 906, 888, 889
1580, 906, 900, 892
1581, 907, 865, 866
1582, 907, 866, 903
1583, 908, 883, 863
1584, 908, 896, 905
1585, 909, 841, 739
1586, 910, 909, 739
1587, 910, 739, 741
1588, 910, 741, 885
1589, 1028,  999,  914
1590,  967,  206,  914
1591, 1030,  981, 1029
1592,  913,  171,  172
1593,  928,  172,  108
1594, 1079, 1037, 1042
1595,  914,  127,  126
1596,  976,  124,  123
1597,  977,  122,  915
1598,  968,  945,  944
1599,  945,  197,  944
1600,  916,  915,  121
1601,  917,  916,  120
1602,  918,  917,  119
1603,  921,  920,  117
1604,  919,  168,  911
1605, 1000,  920,  921
1606,  921,  116,  166
1607,  116,    9,  166
1608,  172,    8,  108
1609,  922,  170,  912
1610,  923,  921,  166
1611,   97,    7,  173
1612,  943,  173,  174
1613,  954,  942,  941
1614,  955,  940,  939
1615,  956,  939,  938
1616,  989,  985,  100
1617,  986,  101,  985
1618,  983,  103,  102
1619,  925,  104,  924
1620, 1025,  924,  983
1621,  926,  105,  925
1622,  913,  912,  171
1623,  190,  189,   12
1624,  951,  189,  190
1625,  969,  948,  947
1626,  930,  187,  929
1627,  931,  186,  930
1628,  932,  185,  931
1629,  933,  184,  932
1630,  934,  183,  933
1631,  935,  182,  934
1632,  957,  935,  934
1633,  937,  180,  936
1634,  938,  179,  937
1635,  939,  178,  938
1636,  940,  177,  939
1637,  941,  176,  940
1638,  942,  175,  941
1639,  943,  174,  942
1640,  206,   10,  127
1641,  914,  206,  127
1642, 1032,  977, 1026
1643, 1032, 1027,  976
1644, 1016, 1015,  204
1645, 1062, 1018, 1015
1646, 1027,  979,  976
1647, 1014,  201,  202
1648, 1067, 1031, 1030
1649,  966,  944,  198
1650,  966,  198,  199
1651,  946,  196,  945
1652,  947,  195,  946
1653,  948,  194,  947
1654,  949,  193,  948
1655,  950,  192,  949
1656,  998,  953,  951
1657,  911,  168,  169
1658,  922,  169,  170
1659,  912,  170,  171
1660, 1039,  993,  913
1661,  928,  108,  107
1662,  927,  106,  926
1663, 1028,  125,  979
1664,  979,  124,  976
1665,  915,  122,  121
1666,  916,  121,  120
1667,  917,  120,  119
1668,  958,  957,  934
1669,  918,  119,  118
1670,  981,  918,  978
1671,  920,  118,  117
1672,  978,  918,  920
1673,  919,  167,  168
1674,  994,  911,  992
1675,  920,  918,  118
1676,  921,  117,  116
1677,  923,  166,  167
1678, 1000,  923,  996
1679,  936,  181,  935
1680,  922,  911,  169
1681,  923,  167,  919
1682,  996,  923,  919
1683,  924,  104,  103
1684,  959,  935,  957
1685,  988,  925,  987
1686,  925,  105,  104
1687,  991,  926,  988
1688,  926,  106,  105
1689, 1039,  927,  991
1690,  927,  107,  106
1691,  928,  913,  172
1692,  928,  107,  927
1693,  929,  187,  188
1694,  953,  189,  951
1695, 1085, 1047, 1059
1696,  930,  186,  187
1697, 1002,  952,  965
1698,  931,  185,  186
1699,  960,  932,  931
1700,  932,  184,  185
1701,  982,  916,  980
1702,  933,  183,  184
1703,  995,  912,  993
1704,  934,  182,  183
1705, 1011,  959, 1004
1706,  935,  181,  182
1707, 1210, 1208, 1197
1708,  936,  180,  181
1709,  956,  955,  939
1710,  937,  179,  180
1711, 1035,  989, 1034
1712,  938,  178,  179
1713,  990,  989,   99
1714,  939,  177,  178
1715,  964,  941,  940
1716,  940,  176,  177
1717,  997,  943,  942
1718,  941,  175,  176
1719,  997,  942,  954
1720,  942,  174,  175
1721,  984,   97,  943
1722,  943,   97,  173
1723,  944,  197,  198
1724, 1013,  966,  971
1725,  961,  932,  960
1726,  945,  196,  197
1727,  965,  930,  929
1728,  946,  195,  196
1729,  965,  952,  930
1730,  947,  194,  195
1731, 1047, 1002, 1019
1732,  948,  193,  194
1733,  974,  948,  969
1734,  949,  192,  193
1735,  998,  965,  929
1736,  950,  191,  192
1737,  951,  190,  191
1738,  951,  191,  950
1739,  960,  931,  952
1740,  952,  931,  930
1741,  953,  929,  188
1742,  953,  188,  189
1743, 1009,  956, 1006
1744,  989,  100,   99
1745,  963,  938,  937
1746, 1035,  985,  989
1747,  962,  936,  959
1748, 1104, 1103, 1084
1749,  958,  934,  933
1750, 1008, 1006,  963
1751,  961,  933,  932
1752, 1082, 1081, 1043
1753,  962,  937,  936
1754,  959,  936,  935
1755, 1002, 1001,  952
1756, 1059, 1019, 1020
1757,  973,  945,  968
1758,  961,  958,  933
1759, 1011, 1008,  962
1760,  963,  937,  962
1761, 1045, 1009, 1006
1762,  963,  956,  938
1763,  964,  954,  941
1764,  964,  940,  955
1765,  998,  929,  953
1766,  975,  950,  949
1767,  971,  199,  200
1768, 1092, 1017, 1065
1769, 1016,  205,  967
1770,  967,  205,  206
1771, 1003,  961,  960
1772, 1024,  944,  966
1773,  972,  947,  946
1774,  972,  969,  947
1775,  970,  200,  201
1776, 1017, 1013,  971
1777,  971,  966,  199
1778,  971,  200,  970
1779,  973,  972,  946
1780, 1059, 1047, 1019
1781,  973,  946,  945
1782, 1098, 1055, 1064
1783, 1053, 1019, 1002
1784,  974,  949,  948
1785, 1053,  998,  975
1786,  975,  949,  974
1787, 1110, 1100, 1109
1788,  977,  976,  123
1789,  977,  123,  122
1790, 1026,  915,  982
1791, 1221, 1212, 1219
1792,  981,  980,  917
1793, 1069,  979, 1027
1794,  979,  125,  124
1795, 1010,  958,  961
1796,  980,  916,  917
1797,  981,  917,  918
1798, 1160, 1144, 1101
1799, 1071, 1070, 1032
1800,  982,  915,  916
1801,  983,  924,  103
1802,  986,  102,  101
1803,  990,   98,  984
1804,  984,   98,   97
1805,  985,  101,  100
1806, 1007,  964, 1005
1807, 1005,  964,  955
1808,  986,  983,  102
1809, 1042, 1037,  987
1810,  987,  925,  924
1811, 1037,  988,  987
1812,  988,  926,  925
1813,  990,   99,   98
1814, 1050, 1046, 1005
1815,  997,  990,  984
1816, 1034,  990,  997
1817, 1039,  913,  928
1818,  991,  927,  926
1819,  992,  911,  922
1820,  995,  922,  912
1821,  993,  912,  913
1822, 1041,  991, 1036
1823, 1040, 1029,  978
1824,  994,  919,  911
1825, 1036,  991,  988
1826,  995,  992,  922
1827, 1040, 1000,  996
1828,  996,  919,  994
1829,  997,  984,  943
1830, 1056, 1034,  997
1831,  998,  951,  950
1832,  998,  950,  975
1833, 1077, 1016,  999
1834,  999,  967,  914
1835, 1000,  978,  920
1836, 1000,  921,  923
1837, 1003,  960, 1001
1838, 1001,  960,  952
1839, 1053, 1002,  965
1840, 1019,  975,  974
1841, 1063, 1021, 1060
1842, 1010,  961, 1003
1843, 1004,  959,  957
1844, 1012,  957,  958
1845, 1038,  986, 1033
1846, 1009,  955,  956
1847, 1006,  956,  963
1848, 1008,  963,  962
1849, 1073, 1034, 1056
1850, 1007,  954,  964
1851, 1051, 1011, 1044
1852, 1049, 1045, 1006
1853, 1143, 1133, 1106
1854, 1009, 1005,  955
1855, 1054, 1052, 1010
1856, 1054, 1010, 1003
1857, 1011,  962,  959
1858, 1044, 1004, 1043
1859, 1012, 1004,  957
1860, 1012,  958, 1010
1861, 1064, 1024, 1013
1862, 1017,  971,  970
1863, 1014,  970,  201
1864, 1018,  202,  203
1865, 1015,  203,  204
1866, 1069, 1028,  979
1867, 1016,  204,  205
1868, 1016,  967,  999
1869, 1065,  970, 1014
1870, 1153, 1130, 1128
1871, 1018, 1014,  202
1872, 1018,  203, 1015
1873, 1020,  974,  969
1874, 1020, 1019,  974
1875, 1022,  969,  972
1876, 1021,  972,  973
1877, 1023,  973,  968
1878, 1023, 1021,  973
1879, 1022, 1020,  969
1880, 1022,  972, 1021
1881, 1055,  968, 1024
1882, 1031,  980, 1030
1883, 1024,  968,  944
1884, 1024,  966, 1013
1885, 1025,  987,  924
1886, 1038,  983,  986
1887, 1026,  977,  915
1888, 1066,  982, 1031
1889, 1062, 1057, 1018
1890, 1032,  976,  977
1891, 1028,  914,  126
1892, 1028,  126,  125
1893, 1029,  981,  978
1894, 1040,  978, 1000
1895, 1068, 1067, 1030
1896, 1030,  980,  981
1897, 1105, 1102, 1071
1898, 1031,  982,  980
1899, 1071, 1026, 1066
1900, 1070, 1027, 1032
1901, 1033,  986,  985
1902, 1046, 1007, 1005
1903, 1034,  989,  990
1904, 1056,  997,  954
1905, 1103, 1073, 1046
1906, 1035, 1033,  985
1907, 1078, 1036, 1072
1908, 1037, 1036,  988
1909, 1042,  987, 1025
1910, 1079, 1072, 1037
1911, 1050, 1009, 1045
1912, 1038, 1025,  983
1913, 1039,  928,  927
1914, 1041, 1039,  991
1915, 1108,  996,  994
1916, 1080, 1068, 1029
1917, 1111,  993, 1041
1918, 1041,  993, 1039
1919, 1076, 1025, 1038
1920, 1075, 1038, 1033
1921, 1043, 1004, 1012
1922, 1052, 1012, 1010
1923, 1116, 1112, 1072
1924, 1044, 1011, 1004
1925, 1049, 1006, 1008
1926, 1163, 1111, 1138
1927, 1074, 1035, 1073
1928, 1050, 1005, 1009
1929, 1048, 1001, 1047
1930, 1047, 1001, 1002
1931, 1054, 1003, 1048
1932, 1048, 1003, 1001
1933, 1051, 1008, 1011
1934, 1051, 1049, 1008
1935, 1106, 1076, 1075
1936, 1104, 1074, 1103
1937, 1083, 1044, 1081
1938, 1088, 1051, 1083
1939, 1089, 1048, 1085
1940, 1052, 1043, 1012
1941, 1053,  965,  998
1942, 1053,  975, 1019
1943, 1085, 1059, 1061
1944, 1060, 1021, 1023
1945, 1055, 1023,  968
1946, 1152, 1127, 1150
1947, 1056,  954, 1007
1948, 1073, 1056, 1007
1949, 1095, 1065, 1057
1950, 1057, 1014, 1018
1951, 1058, 1013, 1017
1952, 1124, 1058, 1092
1953, 1061, 1020, 1022
1954, 1094, 1063, 1060
1955, 1162, 1131, 1125
1956, 1090, 1023, 1055
1957, 1061, 1059, 1020
1958, 1063, 1061, 1022
1959, 1077, 1015, 1016
1960, 1110, 1109, 1077
1961, 1063, 1022, 1021
1962, 1136, 1085, 1096
1963, 1064, 1055, 1024
1964, 1064, 1013, 1058
1965, 1065, 1017,  970
1966, 1065, 1014, 1057
1967, 1066, 1026,  982
1968, 1099, 1031, 1067
1969, 1068, 1030, 1029
1970, 1122, 1082, 1091
1971, 1080, 1029, 1040
1972, 1115, 1081, 1114
1973, 1100, 1027, 1070
1974, 1069,  999, 1028
1975, 1129, 1109, 1100
1976, 1071, 1032, 1026
1977, 1126, 1124, 1092
1978, 1105, 1066, 1099
1979, 1116, 1072, 1079
1980, 1072, 1036, 1037
1981, 1073, 1035, 1034
1982, 1073, 1007, 1046
1983, 1075, 1033, 1074
1984, 1074, 1033, 1035
1985, 1084, 1046, 1050
1986, 1076, 1038, 1075
1987, 1086, 1084, 1050
1988, 1076, 1042, 1025
1989, 1077, 1062, 1015
1990, 1110,  999, 1069
1991, 1138, 1078, 1112
1992, 1078, 1041, 1036
1993, 1107, 1042, 1076
1994, 1087, 1086, 1045
1995, 1108, 1080, 1040
1996, 1137, 1108,  994
1997, 1081, 1044, 1043
1998, 1082, 1043, 1052
1999, 1091, 1052, 1054
2000, 1122, 1114, 1082
2001, 1140, 1115, 1114
2002, 1083, 1051, 1044
2003, 1143, 1084, 1120
2004, 1086, 1050, 1045
2005, 1085, 1048, 1047
2006, 1096, 1063, 1094
2007, 1087, 1045, 1049
2008, 1170, 1148, 1167
2009, 1088, 1087, 1049
2010, 1185, 1170, 1179
2011, 1088, 1049, 1051
2012, 1117, 1083, 1115
2013, 1091, 1054, 1089
2014, 1089, 1054, 1048
2015, 1090, 1060, 1023
2016, 1166, 1165, 1140
2017, 1136, 1125, 1131
2018, 1091, 1082, 1052
2019, 1092, 1058, 1017
2020, 1095, 1057, 1093
2021, 1093, 1057, 1062
2022, 1150, 1129, 1102
2023, 1123, 1060, 1090
2024, 1130, 1090, 1098
2025, 1102, 1070, 1071
2026, 1095, 1092, 1065
2027, 1096, 1085, 1061
2028, 1096, 1061, 1063
2029, 1097, 1064, 1058
2030, 1149, 1097, 1124
2031, 1098, 1090, 1055
2032, 1098, 1064, 1097
2033, 1099, 1066, 1031
2034, 1121, 1067, 1101
2035, 1100, 1069, 1027
2036, 1129, 1100, 1070
2037, 1101, 1067, 1068
2038, 1113, 1068, 1080
2039, 1127, 1126, 1095
2040, 1105, 1071, 1066
2041, 1103, 1074, 1073
2042, 1103, 1046, 1084
2043, 1106, 1075, 1104
2044, 1104, 1075, 1074
2045, 1134, 1099, 1121
2046, 1173, 1172, 1156
2047, 1120, 1086, 1118
2048, 1107, 1076, 1106
2049, 1146, 1120, 1118
2050, 1107, 1079, 1042
2051, 1108, 1040,  996
2052, 1137,  994,  992
2053, 1109, 1093, 1062
2054, 1109, 1062, 1077
2055, 1110, 1077,  999
2056, 1110, 1069, 1100
2057, 1224, 1111, 1163
2058, 1111, 1041, 1078
2059, 1164, 1112, 1139
2060, 1112, 1078, 1072
2061, 1113, 1101, 1068
2062, 1161, 1080, 1108
2063, 1114, 1081, 1082
2064, 1162, 1122, 1131
2065, 1157, 1116, 1135
2066, 1115, 1083, 1081
2067, 1135, 1079, 1107
2068, 1119, 1088, 1117
2069, 1117, 1088, 1083
2070, 1141, 1115, 1140
2071, 1118, 1086, 1087
2072, 1119, 1118, 1087
2073, 1119, 1087, 1088
2074, 1148, 1117, 1141
2075, 1146, 1143, 1120
2076, 1120, 1084, 1086
2077, 1173, 1152, 1172
2078, 1121, 1099, 1067
2079, 1131, 1091, 1089
2080, 1142, 1140, 1114
2081, 1123, 1094, 1060
2082, 1220, 1214, 1209
2083, 1124, 1097, 1058
2084, 1126, 1092, 1095
2085, 1125, 1096, 1094
2086, 1147, 1094, 1123
2087, 1127, 1095, 1093
2088, 1132, 1102, 1105
2089, 1151, 1129, 1150
2090, 1172, 1150, 1132
2091, 1128, 1098, 1097
2092, 1204, 1203, 1194
2093, 1151, 1109, 1129
2094, 1129, 1070, 1102
2095, 1130, 1123, 1090
2096, 1130, 1098, 1128
2097, 1131, 1122, 1091
2098, 1136, 1131, 1089
2099, 1134, 1105, 1099
2100, 1134, 1132, 1105
2101, 1135, 1107, 1133
2102, 1133, 1107, 1106
2103, 1158, 1121, 1144
2104, 1178, 1173, 1156
2105, 1145, 1118, 1119
2106, 1135, 1116, 1079
2107, 1136, 1089, 1085
2108, 1136, 1096, 1125
2109, 1217, 1215,  992
2110, 1207, 1199, 1168
2111, 1181, 1138, 1164
2112, 1138, 1111, 1078
2113, 1223, 1218, 1211
2114, 1139, 1112, 1116
2115, 1142, 1114, 1122
2116, 1223, 1219, 1213
2117, 1184, 1165, 1183
2118, 1141, 1117, 1115
2119, 1191, 1155, 1174
2120, 1190, 1171, 1175
2121, 1143, 1106, 1104
2122, 1143, 1104, 1084
2123, 1144, 1121, 1101
2124, 1160, 1101, 1113
2125, 1159, 1133, 1146
2126, 1148, 1145, 1119
2127, 1146, 1133, 1143
2128, 1146, 1118, 1145
2129, 1147, 1125, 1094
2130, 1155, 1123, 1130
2131, 1148, 1119, 1117
2132, 1167, 1141, 1165
2133, 1149, 1128, 1097
2134, 1154, 1124, 1126
2135, 1151, 1150, 1127
2136, 1150, 1102, 1132
2137, 1151, 1127, 1093
2138, 1151, 1093, 1109
2139, 1152, 1126, 1127
2140, 1156, 1132, 1134
2141, 1191, 1180, 1162
2142, 1171, 1128, 1149
2143, 1154, 1149, 1124
2144, 1154, 1126, 1152
2145, 1155, 1147, 1123
2146, 1155, 1130, 1153
2147, 1158, 1134, 1121
2148, 1158, 1156, 1134
2149, 1157, 1139, 1116
2150, 1159, 1157, 1135
2151, 1205, 1190, 1193
2152, 1177, 1144, 1176
2153, 1159, 1135, 1133
2154, 1185, 1179, 1159
2155, 1169, 1113, 1161
2156, 1179, 1157, 1159
2157, 1161, 1113, 1080
2158, 1161, 1108, 1137
2159, 1162, 1142, 1122
2160, 1162, 1125, 1147
2161, 1217, 1163, 1197
2162, 1224, 1163, 1217
2163, 1198, 1164, 1182
2164, 1164, 1138, 1112
2165, 1165, 1141, 1140
2166, 1166, 1140, 1142
2167, 1180, 1142, 1162
2168, 1174, 1155, 1153
2169, 1207, 1170, 1187
2170, 1167, 1148, 1141
2171, 1182, 1139, 1168
2172, 1168, 1139, 1157
2173, 1169, 1160, 1113
2174, 1195, 1161, 1137
2175, 1170, 1145, 1148
2176, 1187, 1167, 1184
2177, 1171, 1153, 1128
2178, 1175, 1149, 1154
2179, 1172, 1152, 1150
2180, 1172, 1132, 1156
2181, 1173, 1154, 1152
2182, 1178, 1156, 1158
2183, 1194, 1183, 1166
2184, 1188, 1153, 1171
2185, 1175, 1171, 1149
2186, 1175, 1154, 1173
2187, 1176, 1144, 1160
2188, 1186, 1160, 1169
2189, 1193, 1189, 1178
2190, 1177, 1158, 1144
2191, 1189, 1173, 1178
2192, 1178, 1158, 1177
2193, 1179, 1168, 1157
2194, 1185, 1159, 1146
2195, 1180, 1166, 1142
2196, 1191, 1162, 1147
2197, 1210, 1181, 1198
2198, 1181, 1163, 1138
2199, 1182, 1164, 1139
2200, 1200, 1183, 1196
2201, 1183, 1165, 1166
2202, 1194, 1166, 1180
2203, 1201, 1187, 1184
2204, 1184, 1167, 1165
2205, 1185, 1146, 1145
2206, 1185, 1145, 1170
2207, 1186, 1176, 1160
2208, 1206, 1169, 1195
2209, 1207, 1179, 1170
2210, 1187, 1170, 1167
2211, 1188, 1174, 1153
2212, 1190, 1175, 1189
2213, 1189, 1175, 1173
2214, 1193, 1178, 1177
2215, 1220, 1209, 1196
2216, 1190, 1188, 1171
2217, 1191, 1147, 1155
2218, 1204, 1194, 1180
2219, 1192, 1177, 1176
2220, 1202, 1176, 1186
2221, 1193, 1190, 1189
2222, 1193, 1177, 1192
2223, 1204, 1180, 1191
2224, 1203, 1196, 1194
2225, 1195, 1169, 1161
2226, 1210, 1197, 1181
2227, 1212, 1200, 1209
2228, 1196, 1183, 1194
2229, 1215, 1208, 1137
2230, 1197, 1163, 1181
2231, 1198, 1181, 1164
2232, 1211, 1182, 1199
2233, 1199, 1182, 1168
2234, 1223, 1221, 1219
2235, 1200, 1184, 1183
2236, 1209, 1200, 1196
2237, 1207, 1201, 1199
2238, 1201, 1184, 1200
2239, 1202, 1192, 1176
2240, 1213, 1186, 1206
2241, 1203, 1174, 1188
2242, 1205, 1203, 1188
2243, 1204, 1191, 1174
2244, 1204, 1174, 1203
2245, 1205, 1188, 1190
2246, 1216, 1193, 1192
2247, 1206, 1186, 1169
2248, 1222, 1210, 1218
2249, 1207, 1168, 1179
2250, 1207, 1187, 1201
2251, 1208, 1195, 1137
2252, 1215, 1137,  992
2253, 1220, 1196, 1203
2254, 1220, 1216, 1214
2255, 1218, 1210, 1198
2256, 1222, 1208, 1210
2257, 1211, 1198, 1182
2258, 1221, 1201, 1212
2259, 1212, 1201, 1200
2260, 1214, 1212, 1209
2261, 1213, 1202, 1186
2262, 1218, 1213, 1206
2263, 1214, 1192, 1202
2264, 1219, 1214, 1202
2265, 1217,  992,  995
2266, 1215, 1197, 1208
2267, 1216, 1205, 1193
2268, 1216, 1192, 1214
2269, 1224, 1217,  995
2270, 1217, 1197, 1215
2271, 1222, 1218, 1206
2272, 1218, 1198, 1211
2273, 1219, 1212, 1214
2274, 1219, 1202, 1213
2275, 1220, 1203, 1205
2276, 1220, 1205, 1216
2277, 1221, 1211, 1199
2278, 1221, 1199, 1201
2279, 1222, 1206, 1195
2280, 1222, 1195, 1208
2281, 1223, 1213, 1218
2282, 1223, 1211, 1221
2283, 1224,  995,  993
2284, 1224,  993, 1111
*Orientation, name=Ori-1
1., 0., 0., 0., 1., 0.
3, 0.
** Region: (CompositeLayup-1-1: Generated From Layup)
*Elset, elset=CompositeLayup-1-1, generate
    1,  2284,     1
** Section: CompositeLayup-1-1
*Shell Section, elset=CompositeLayup-1-1, composite, orientation=Ori-1, layup=CompositeLayup-1
0.25, 1, ABQ_PLY_FABRIC, 45., Ply-1
0.25, 1, ABQ_PLY_FABRIC, -45., Ply-2
0.25, 1, ABQ_PLY_FABRIC, -45., Ply-3
0.25, 1, ABQ_PLY_FABRIC, 45., Ply-4
*End Part
**  
**
** ASSEMBLY
**
*Assembly, name=Assembly
**  
*Instance, name=Plate-1, part=PLATE
*End Instance
**  
*Nset, nset=Set-1, instance=Plate-1
   6,   7,  12,  83,  84,  85,  86,  87,  88,  89,  90,  91,  92,  93,  94,  95
  96, 173, 174, 175, 176, 177, 178, 179, 180, 181, 182, 183, 184, 185, 186, 187
 188, 189
*Elset, elset=Set-1, instance=Plate-1
  477,  478,  494,  545,  547,  548,  550,  552,  554,  556,  558,  560,  562,  564,  615, 1611
 1612, 1623, 1693, 1696, 1698, 1700, 1702, 1704, 1706, 1708, 1710, 1712, 1714, 1716, 1718, 1720
 1742,
*Nset, nset=Set-2, instance=Plate-1
   4,   5,  11,  38,  39,  40,  41,  42,  43,  44,  45,  46,  47,  48,  49,  50
  51, 142, 143, 144, 145, 146, 147, 148, 149, 150, 151, 152, 153, 154, 155, 156
 157, 158
*Elset, elset=Set-2, instance=Plate-1
   20,   21,   29,   34,   87,   90,   92,   94,   96,   98,  100,  102,  121,  150,  211, 1044
 1058, 1074, 1125, 1128, 1130, 1132, 1134, 1136, 1138, 1140, 1142, 1144, 1146, 1148, 1150, 1152
 1199,
*End Assembly
*Amplitude, name=Ramp, time=TOTAL TIME
             0.,              0.,            0.01,              1.
** 
** MATERIALS
** 
*Material, name=ABQ_PLY_FABRIC
*Density
 1.594e-09,
*Depvar, delete=16
     16,
*User Material, constants=40
27500., 27500.,   0.11,  2900., 27500., 27500.,   0.11,     0.
   604.,   291.,   604.,   291.,    75.,     0.,     0.,     0.
 20.438, 4.6257, 20.438, 4.6257, 0.3221,     1.,     0.,     0.
    75., 0.0008,  0.552,     0.,     0.,     0.,     0.,     0.
     0.,     1.,  1e+09,  1e+09, -1e+09,     0.,     0.,     0.
** ----------------------------------------------------------------
** 
** STEP: Step-1
** 
*Step, name=Step-1, nlgeom=NO
*Dynamic, Explicit
, 0.01
*Bulk Viscosity
0.06, 1.2
** 
** BOUNDARY CONDITIONS
** 
** Name: BC-1 Type: Symmetry/Antisymmetry/Encastre
*Boundary
Set-1, ENCASTRE
** Name: BC-2 Type: Displacement/Rotation
*Boundary, amplitude=Ramp
Set-2, 1, 1, 2.47368
** 
** OUTPUT REQUESTS
** 
*Restart, write, number interval=1, time marks=NO
** 
** FIELD OUTPUT: F-Output-1
** 
*Output, field, number interval=1
*Element Output, position=NODES, directions=YES
LE, PEEQ, SDV
** 
** HISTORY OUTPUT: H-Output-1
** 
*Output, history, variable=PRESELECT
*End Step
