*Heading
** Job name: Plate_nonlinear_362 Model name: Model-1
** Generated by: Abaqus/CAE 2024.HF3
*Preprint, echo=NO, model=NO, history=NO, contact=NO
**
** PARTS
**
*Part, name=PLATE
*Node
      1,   83.9747162,   118.928734,           0.
      2,   83.9747162,   89.0765839,           0.
      3,   101.694061,   71.3572388,           0.
      4,    139.95787,   71.3572388,           0.
      5,    139.95787,   118.928734,           0.
      6,           0.,   118.928734,           0.
      7,           0.,   71.3572388,           0.
      8,   66.2553711,   71.3572388,           0.
      9,   83.9747162,   53.6378937,           0.
     10,   83.9747162,           0.,           0.
     11,    139.95787,           0.,           0.
     12,           0.,           0.,           0.
     13,   83.9747162,   115.197212,           0.
     14,   83.9747162,   111.465698,           0.
     15,   83.9747162,   107.734177,           0.
     16,   83.9747162,   104.002655,           0.
     17,   83.9747162,   100.271141,           0.
     18,   83.9747162,   96.5396194,           0.
     19,   83.9747162,   92.8081055,           0.
     20,   87.9176407,   88.6323242,           0.
     21,   91.6628571,   87.3218155,           0.
     22,   95.0225525,   85.2107773,           0.
     23,   97.8282623,   82.4050674,           0.
     24,   99.9393005,    79.045372,           0.
     25,   101.249802,   75.3001633,           0.
     26,   105.520447,   71.3572388,           0.
     27,   109.346825,   71.3572388,           0.
     28,   113.173203,   71.3572388,           0.
     29,   116.999588,   71.3572388,           0.
     30,   120.825966,   71.3572388,           0.
     31,   124.652344,   71.3572388,           0.
     32,   128.478729,   71.3572388,           0.
     33,   132.305099,   71.3572388,           0.
     34,   136.131485,   71.3572388,           0.
     35,    139.95787,   75.3215332,           0.
     36,    139.95787,     79.28582,           0.
     37,    139.95787,   83.2501144,           0.
     38,    139.95787,   87.2144012,           0.
     39,    139.95787,   91.1786957,           0.
     40,    139.95787,   95.1429825,           0.
     41,    139.95787,   99.1072769,           0.
     42,    139.95787,   103.071571,           0.
     43,    139.95787,   107.035858,           0.
     44,    139.95787,   111.000153,           0.
     45,    139.95787,   114.964439,           0.
     46,   135.959076,   118.928734,           0.
     47,   131.960266,   118.928734,           0.
     48,   127.961479,   118.928734,           0.
     49,   123.962677,   118.928734,           0.
     50,   119.963882,   118.928734,           0.
     51,   115.965088,   118.928734,           0.
     52,   111.966293,   118.928734,           0.
     53,   107.967499,   118.928734,           0.
     54,   103.968697,   118.928734,           0.
     55,    99.969902,   118.928734,           0.
     56,   95.9711075,   118.928734,           0.
     57,   91.9723129,   118.928734,           0.
     58,   87.9735184,   118.928734,           0.
     59,   79.9759216,   118.928734,           0.
     60,   75.9771271,   118.928734,           0.
     61,   71.9783325,   118.928734,           0.
     62,    67.979538,   118.928734,           0.
     63,   63.9807396,   118.928734,           0.
     64,   59.9819412,   118.928734,           0.
     65,   55.9831467,   118.928734,           0.
     66,   51.9843483,   118.928734,           0.
     67,   47.9855537,   118.928734,           0.
     68,   43.9867592,   118.928734,           0.
     69,   39.9879608,   118.928734,           0.
     70,   35.9891663,   118.928734,           0.
     71,   31.9903698,   118.928734,           0.
     72,   27.9915733,   118.928734,           0.
     73,   23.9927769,   118.928734,           0.
     74,   19.9939804,   118.928734,           0.
     75,   15.9951849,   118.928734,           0.
     76,   11.9963884,   118.928734,           0.
     77,   7.99759245,   118.928734,           0.
     78,   3.99879622,   118.928734,           0.
     79,           0.,   114.964439,           0.
     80,           0.,   111.000153,           0.
     81,           0.,   107.035858,           0.
     82,           0.,   103.071571,           0.
     83,           0.,   99.1072769,           0.
     84,           0.,   95.1429825,           0.
     85,           0.,   91.1786957,           0.
     86,           0.,   87.2144012,           0.
     87,           0.,   83.2501144,           0.
     88,           0.,     79.28582,           0.
     89,           0.,   75.3215332,           0.
     90,   3.89737487,   71.3572388,           0.
     91,   7.79474974,   71.3572388,           0.
     92,   11.6921244,   71.3572388,           0.
     93,   15.5894995,   71.3572388,           0.
     94,   19.4868755,   71.3572388,           0.
     95,   23.3842487,   71.3572388,           0.
     96,   27.2816238,   71.3572388,           0.
     97,   31.1789989,   71.3572388,           0.
     98,   35.0763741,   71.3572388,           0.
     99,   38.9737511,   71.3572388,           0.
    100,   42.8711243,   71.3572388,           0.
    101,   46.7684975,   71.3572388,           0.
    102,   50.6658745,   71.3572388,           0.
    103,   54.5632477,   71.3572388,           0.
    104,   58.4606247,   71.3572388,           0.
    105,   62.3579979,   71.3572388,           0.
    106,   66.6996384,   75.3001633,           0.
    107,   68.0101395,    79.045372,           0.
    108,   70.1211777,   82.4050674,           0.
    109,   72.9268875,   85.2107773,           0.
    110,   76.2865829,   87.3218155,           0.
    111,   80.0317917,   88.6323242,           0.
    112,   83.9747162,   49.8066139,           0.
    113,   83.9747162,    45.975338,           0.
    114,   83.9747162,   42.1440582,           0.
    115,   83.9747162,   38.3127823,           0.
    116,   83.9747162,   34.4815025,           0.
    117,   83.9747162,   30.6502247,           0.
    118,   83.9747162,   26.8189468,           0.
    119,   83.9747162,    22.987669,           0.
    120,   83.9747162,   19.1563911,           0.
    121,   83.9747162,   15.3251123,           0.
    122,   83.9747162,   11.4938345,           0.
    123,   83.9747162,   7.66255617,           0.
    124,   83.9747162,   3.83127809,           0.
    125,   87.9735184,           0.,           0.
    126,   91.9723129,           0.,           0.
    127,   95.9711075,           0.,           0.
    128,    99.969902,           0.,           0.
    129,   103.968697,           0.,           0.
    130,   107.967499,           0.,           0.
    131,   111.966293,           0.,           0.
    132,   115.965088,           0.,           0.
    133,   119.963882,           0.,           0.
    134,   123.962677,           0.,           0.
    135,   127.961479,           0.,           0.
    136,   131.960266,           0.,           0.
    137,   135.959076,           0.,           0.
    138,    139.95787,    3.9642911,           0.
    139,    139.95787,   7.92858219,           0.
    140,    139.95787,   11.8928728,           0.
    141,    139.95787,   15.8571644,           0.
    142,    139.95787,    19.821455,           0.
    143,    139.95787,   23.7857456,           0.
    144,    139.95787,   27.7500381,           0.
    145,    139.95787,   31.7143288,           0.
    146,    139.95787,   35.6786194,           0.
    147,    139.95787,     39.64291,           0.
    148,    139.95787,   43.6072006,           0.
    149,    139.95787,   47.5714912,           0.
    150,    139.95787,   51.5357857,           0.
    151,    139.95787,   55.5000763,           0.
    152,    139.95787,   59.4643669,           0.
    153,    139.95787,   63.4286575,           0.
    154,    139.95787,   67.3929443,           0.
    155,   101.249802,   67.4143143,           0.
    156,   99.9393005,   63.6691017,           0.
    157,   97.8282623,   60.3094063,           0.
    158,   95.0225525,   57.5036964,           0.
    159,   91.6628571,    55.392662,           0.
    160,   87.9176407,   54.0821533,           0.
    161,   80.0317917,   54.0821533,           0.
    162,   76.2865829,    55.392662,           0.
    163,   72.9268875,   57.5036964,           0.
    164,   70.1211777,   60.3094063,           0.
    165,   68.0101395,   63.6691017,           0.
    166,   66.6996384,   67.4143143,           0.
    167,           0.,   67.3929443,           0.
    168,           0.,   63.4286575,           0.
    169,           0.,   59.4643669,           0.
    170,           0.,   55.5000763,           0.
    171,           0.,   51.5357857,           0.
    172,           0.,   47.5714912,           0.
    173,           0.,   43.6072006,           0.
    174,           0.,     39.64291,           0.
    175,           0.,   35.6786194,           0.
    176,           0.,   31.7143288,           0.
    177,           0.,   27.7500381,           0.
    178,           0.,   23.7857456,           0.
    179,           0.,    19.821455,           0.
    180,           0.,   15.8571644,           0.
    181,           0.,   11.8928728,           0.
    182,           0.,   7.92858219,           0.
    183,           0.,    3.9642911,           0.
    184,   3.99879622,           0.,           0.
    185,   7.99759245,           0.,           0.
    186,   11.9963884,           0.,           0.
    187,   15.9951849,           0.,           0.
    188,   19.9939804,           0.,           0.
    189,   23.9927769,           0.,           0.
    190,   27.9915733,           0.,           0.
    191,   31.9903698,           0.,           0.
    192,   35.9891663,           0.,           0.
    193,   39.9879608,           0.,           0.
    194,   43.9867592,           0.,           0.
    195,   47.9855537,           0.,           0.
    196,   51.9843483,           0.,           0.
    197,   55.9831467,           0.,           0.
    198,   59.9819412,           0.,           0.
    199,   63.9807396,           0.,           0.
    200,    67.979538,           0.,           0.
    201,   71.9783325,           0.,           0.
    202,   75.9771271,           0.,           0.
    203,   79.9759216,           0.,           0.
    204,   101.416389,   82.5481644,           0.
    205,   103.838799,    78.882164,           0.
    206,   87.6184158,    113.88147,           0.
    207,   98.6728287,    86.071701,           0.
    208,   87.2990952,   102.113052,           0.
    209,   95.4209747,   89.6490555,           0.
    210,   87.3479385,   98.2372818,           0.
    211,   87.5275116,   94.0392303,           0.
    212,   91.2743073,   91.6831512,           0.
    213,   134.737045,   74.8824692,           0.
    214,   130.572708,   74.8373642,           0.
    215,   126.601555,   74.7156982,           0.
    216,   122.745811,   74.6958389,           0.
    217,   118.914337,   74.6939697,           0.
    218,   114.963371,   74.7506332,           0.
    219,   110.887276,   74.9306183,           0.
    220,   106.571327,   75.1164627,           0.
    221,   136.523865,   101.088295,           0.
    222,    136.52533,   97.1244507,           0.
    223,   136.528702,   93.1599045,           0.
    224,   136.532532,    89.189476,           0.
    225,   136.504364,    85.170433,           0.
    226,   136.513123,   81.2171097,           0.
    227,   94.0209656,   115.552368,           0.
    228,   97.9802246,   115.502045,           0.
    229,   101.971069,   115.479599,           0.
    230,   105.968262,   115.471153,           0.
    231,   109.966896,   115.468895,           0.
    232,   113.965752,    115.46833,           0.
    233,   117.964554,   115.468498,           0.
    234,   121.970825,   115.464523,           0.
    235,     126.0728,   115.403709,           0.
    236,   130.296509,   115.282837,           0.
    237,   134.650314,   115.284676,           0.
    238,   90.6628342,   100.179024,           0.
    239,    87.371048,   105.885406,           0.
    240,   124.702354,   78.0562897,           0.
    241,   120.835564,   78.0433044,           0.
    242,   116.917953,   78.0439072,           0.
    243,   113.010559,   78.1588974,           0.
    244,   128.594574,   78.1693649,           0.
    245,   136.542282,   105.033569,           0.
    246,   133.031311,   83.0643158,           0.
    247,   133.094955,   95.1370621,           0.
    248,   136.549118,   108.945259,           0.
    249,   133.088409,   91.1537552,           0.
    250,   136.788986,   112.301926,           0.
    251,   133.079086,   99.0839005,           0.
    252,   132.985703,    87.097496,           0.
    253,    128.23024,   111.876358,           0.
    254,   90.6198959,   115.846832,           0.
    255,   95.8413315,   112.021866,           0.
    256,   103.966934,   112.022575,           0.
    257,    111.96627,    112.01017,           0.
    258,   99.8831558,   111.936005,           0.
    259,   107.966476,   112.014153,           0.
    260,   115.965607,   112.010353,           0.
    261,   119.974525,   112.005241,           0.
    262,   124.085854,   111.969536,           0.
    263,   87.5450516,   109.761703,           0.
    264,   91.4921265,   111.972908,           0.
    265,   132.786209,    111.34938,           0.
    266,   90.6880951,   103.948158,           0.
    267,   90.8609619,   96.1226883,           0.
    268,   115.051476,   81.2462311,           0.
    269,   122.805298,   81.3840027,           0.
    270,   118.904671,   81.3659744,           0.
    271,   126.681206,   81.3906326,           0.
    272,   132.894699,   78.7494965,           0.
    273,   90.8502121,   107.728882,           0.
    274,   132.963837,   107.041016,           0.
    275,   129.627792,   97.0757294,           0.
    276,   129.088242,   84.8635406,           0.
    277,    129.58902,   89.1210938,           0.
    278,   129.642303,    93.086731,           0.
    279,     132.9375,   103.052483,           0.
    280,   109.964859,   108.557831,           0.
    281,   122.093521,   108.560234,           0.
    282,   117.989151,   108.555779,           0.
    283,   113.969803,   108.556252,           0.
    284,    126.24939,   108.578629,           0.
    285,   105.960922,   108.568939,           0.
    286,   101.978966,   108.522858,           0.
    287,   97.6848984,   108.094757,           0.
    288,   108.641251,   79.0872955,           0.
    289,   94.1185379,   105.816605,           0.
    290,    94.096817,   102.053108,           0.
    291,    94.143158,   98.1418152,           0.
    292,   124.799156,   84.7478638,           0.
    293,   136.812119,   77.8912888,           0.
    294,   120.835167,   84.8363571,           0.
    295,   116.758728,   84.5771484,           0.
    296,   130.057999,    81.247467,           0.
    297,   128.865341,   105.144081,           0.
    298,   126.284782,   91.0454025,           0.
    299,   126.530121,   87.6751022,           0.
    300,   129.467606,   100.965858,           0.
    301,   126.217857,   94.9873199,           0.
    302,   93.9974213,   109.127007,           0.
    303,      129.819,   108.797897,           0.
    304,   115.971512,    105.10553,           0.
    305,   120.126945,   105.056297,           0.
    306,   111.964981,   105.107887,           0.
    307,   124.329567,   105.163368,           0.
    308,   107.954918,   105.118896,           0.
    309,   103.964073,   105.187241,           0.
    310,   100.519539,   105.495476,           0.
    311,   103.094467,   86.5875244,           0.
    312,   99.9123306,   90.0957489,           0.
    313,   105.461685,   82.6394348,           0.
    314,   97.5652771,   103.884506,           0.
    315,    109.18898,   83.3228149,           0.
    316,   97.4308929,   100.007828,           0.
    317,   122.829224,   88.6424026,           0.
    318,   118.473694,   88.0565567,           0.
    319,   94.4237137,   94.1153336,           0.
    320,   112.800095,   84.2307205,           0.
    321,   126.119736,   98.9131927,           0.
    322,   126.249855,   102.286217,           0.
    323,   122.778221,   92.9159317,           0.
    324,   118.036705,   101.620956,           0.
    325,   122.463432,   101.187935,           0.
    326,   113.995483,   101.651726,           0.
    327,   109.958824,   101.669815,           0.
    328,    105.81073,   101.670082,           0.
    329,   101.278259,   101.757889,           0.
    330,   119.814964,   91.1657104,           0.
    331,   97.4165878,    96.270256,           0.
    332,   111.738472,   81.2091904,           0.
    333,    114.35479,   87.8216019,           0.
    334,   122.653748,   96.8880157,           0.
    335,     119.5896,   98.5501404,           0.
    336,   116.070061,   98.2925415,           0.
    337,   112.001068,   98.2530136,           0.
    338,   107.819847,   98.1904068,           0.
    339,   103.577667,   98.1277466,           0.
    340,   109.833893,   87.4515762,           0.
    341,   100.136909,   98.1202469,           0.
    342,   118.753548,   94.8608551,           0.
    343,   101.129272,   94.4483414,           0.
    344,   97.6605759,   92.9157486,           0.
    345,   106.727959,   85.6924667,           0.
    346,   114.174477,   94.8153915,           0.
    347,   109.879601,   94.7667618,           0.
    348,   105.655807,   94.6304779,           0.
    349,   106.236954,   88.3962326,           0.
    350,   112.039459,   91.2560959,           0.
    351,   107.908142,   91.2376251,           0.
    352,   103.989494,   90.8993225,           0.
    353,   116.268486,   91.3293686,           0.
    354,   80.4126968,   113.835266,           0.
    355,    80.662117,     102.0839,           0.
    356,   80.6797104,    98.238205,           0.
    357,   80.4682236,   109.757271,           0.
    358,   13.5525103,   74.7903214,           0.
    359,   17.5056953,   74.7554092,           0.
    360,   37.0250473,   74.7381973,           0.
    361,   9.47510624,    74.919014,           0.
    362,   48.7235565,   74.7476959,           0.
    363,   52.6921654,   74.7751312,           0.
    364,   29.2302341,   74.7385559,           0.
    365,   21.4266434,   74.7435303,           0.
    366,   25.3308811,   74.7401962,           0.
    367,   33.1276779,   74.7387924,           0.
    368,   40.9223328,   74.7388916,           0.
    369,   44.8208313,   74.7416306,           0.
    370,   56.8078842,   74.8723831,           0.
    371,   61.2195663,   75.0366898,           0.
    372,   3.14647818,    77.926712,           0.
    373,   3.44200468,   89.1990356,           0.
    374,    3.4325428,   93.1657944,           0.
    375,   3.43470573,   97.1282425,           0.
    376,   3.45584822,   101.125702,           0.
    377,   3.51137686,    105.17527,           0.
    378,   3.63825512,   109.330315,           0.
    379,   3.65269232,   113.634201,           0.
    380,   69.4116821,   86.2671356,           0.
    381,   77.4789276,   91.4863815,           0.
    382,   63.8303757,   78.8966675,           0.
    383,   73.1103516,   89.1685715,           0.
    384,   66.3065262,   82.7554779,           0.
    385,   49.9848022,   115.469879,           0.
    386,   53.9839287,   115.470016,           0.
    387,    57.983532,   115.471428,           0.
    388,   61.9835281,   115.475151,           0.
    389,   66.0172119,   115.456451,           0.
    390,   70.0718613,   115.443398,           0.
    391,   74.0528107,   115.493736,           0.
    392,   37.9884529,    115.47097,           0.
    393,   41.9871597,   115.470886,           0.
    394,   45.9859123,   115.470818,           0.
    395,   21.9968891,   115.470039,           0.
    396,   29.9913578,   115.471199,           0.
    397,   25.9935131,   115.471153,           0.
    398,   33.9898262,   115.471642,           0.
    399,   80.6041641,   105.874535,           0.
    400,   77.3081512,   100.033257,           0.
    401,   80.7800217,   94.3938599,           0.
    402,   5.23016167,   74.9515457,           0.
    403,   11.4918737,    78.278244,           0.
    404,   27.2802181,   78.1244354,           0.
    405,   38.9734879,   78.1232986,           0.
    406,    50.733429,   78.1666412,           0.
    407,   15.4737139,   78.1793137,           0.
    408,   54.8303947,   78.2957687,           0.
    409,   35.0763206,   78.1232758,           0.
    410,   46.7799759,   78.1359711,           0.
    411,   19.4383659,   78.1437988,           0.
    412,   23.3714905,   78.1301575,           0.
    413,   31.1788139,   78.1240616,           0.
    414,     42.87257,   78.1274109,           0.
    415,   3.45420504,   85.2219467,           0.
    416,   6.88114929,   95.1794891,           0.
    417,   6.92598915,   103.218391,           0.
    418,   3.43188643,   81.2816162,           0.
    419,   7.03200102,   107.295494,           0.
    420,   6.88443422,   99.1761703,           0.
    421,   6.93606997,   91.2317352,           0.
    422,   17.9979763,   115.456444,           0.
    423,   77.4030075,   115.820686,           0.
    424,   64.0112686,   112.002968,           0.
    425,   59.9877472,   112.019562,           0.
    426,    68.114296,   111.918625,           0.
    427,   39.9874535,   112.016357,           0.
    428,   72.2081223,   111.994568,           0.
    429,   51.9843292,   112.013977,           0.
    430,    55.984951,   112.016479,           0.
    431,   43.9860497,   112.016167,           0.
    432,   47.9849319,   112.015564,           0.
    433,   27.9937134,   112.016609,           0.
    434,   35.9889717,   112.017204,           0.
    435,   13.9966974,   115.452003,           0.
    436,   10.0374212,   115.477432,           0.
    437,   6.65954494,   115.755966,           0.
    438,   31.9911366,   112.017639,           0.
    439,   24.0037651,   112.013832,           0.
    440,   76.5463943,   111.960121,           0.
    441,   7.59088516,   111.764458,           0.
    442,   7.09284925,   78.8472595,           0.
    443,   77.2788239,   95.9511337,           0.
    444,   77.1577835,   107.739906,           0.
    445,    77.272728,   103.918312,           0.
    446,   37.0245972,   81.5127258,           0.
    447,   33.1276932,   81.5130234,           0.
    448,   40.9212914,   81.5153656,           0.
    449,   44.8196907,   81.5208206,           0.
    450,   29.2291012,   81.5140991,           0.
    451,   21.3750648,   81.5218735,           0.
    452,   25.3132572,   81.5169449,           0.
    453,   17.3924084,    81.531929,           0.
    454,   48.7542763,   81.5468369,           0.
    455,   13.4300995,   81.5536728,           0.
    456,    52.785244,   81.6184845,           0.
    457,   59.1798668,   78.6234055,           0.
    458,   7.03842354,   87.2074966,           0.
    459,   10.3418417,   101.283264,           0.
    460,   10.3470144,   105.336952,           0.
    461,   10.3734531,   97.2850113,           0.
    462,   10.5254116,   93.3153229,           0.
    463,   6.98692083,   83.1693726,           0.
    464,   20.0194454,   111.978142,           0.
    465,   11.9370079,    111.89904,           0.
    466,   33.9906044,   108.567276,           0.
    467,   53.9848213,   108.564346,           0.
    468,   29.9956436,   108.568207,           0.
    469,   37.9879265,   108.567207,           0.
    470,   26.0119476,   108.570358,           0.
    471,   49.9840469,   108.563843,           0.
    472,   57.9896126,   108.576385,           0.
    473,   41.9860001,    108.56646,           0.
    474,   45.9845772,   108.565666,           0.
    475,   62.0030479,   108.587334,           0.
    476,   65.9960175,    108.55687,           0.
    477,   70.3278809,    108.10817,           0.
    478,   15.9846191,   111.860748,           0.
    479,   73.4823837,   93.5975723,           0.
    480,   61.4938812,   82.9291763,           0.
    481,   64.7949677,   87.2368164,           0.
    482,   68.8773727,   91.1823502,           0.
    483,   73.8850555,   105.786484,           0.
    484,   73.8883362,   101.921417,           0.
    485,   74.0250473,   109.117851,           0.
    486,   46.8094559,   84.9200134,           0.
    487,   15.3380489,   84.8227997,           0.
    488,   50.8586235,   84.9266663,           0.
    489,   19.3197803,   84.8573151,           0.
    490,   31.1774902,   84.9079666,           0.
    491,   27.2623615,   84.9057922,           0.
    492,   35.0755806,   84.9084244,           0.
    493,   38.9748497,   84.9094696,           0.
    494,    23.303772,   84.8861923,           0.
    495,   42.8894234,   84.9116364,           0.
    496,    9.9909687,   81.3820724,           0.
    497,   56.9250793,   81.8698959,           0.
    498,   10.6173248,   89.3267593,           0.
    499,   13.8082962,   103.462715,           0.
    500,   13.9194117,     99.42276,           0.
    501,   13.9753036,   95.5115891,           0.
    502,   11.0155764,   85.0319061,           0.
    503,   10.1517677,   108.841248,           0.
    504,   22.0508423,   108.553535,           0.
    505,   35.9455376,   105.137817,           0.
    506,    39.934948,   105.138069,           0.
    507,   31.9504337,   105.144073,           0.
    508,   27.9780579,   105.156883,           0.
    509,   43.9274216,   105.137131,           0.
    510,   47.9387589,   105.130936,           0.
    511,   51.9641037,   105.124237,           0.
    512,   55.9926949,   105.131302,           0.
    513,   13.8637781,   107.882103,           0.
    514,   18.1257992,   108.454247,           0.
    515,   67.5006638,   105.519821,           0.
    516,   64.0488739,   105.230743,           0.
    517,   60.0324707,   105.159294,           0.
    518,   70.4553223,   103.856728,           0.
    519,    73.767128,   97.8980103,           0.
    520,   49.0076294,   88.2715302,           0.
    521,    17.205574,     88.08815,           0.
    522,    44.969738,   88.2854156,           0.
    523,   29.2410736,   88.2932587,           0.
    524,    21.230629,   88.2113419,           0.
    525,   37.0658722,    88.298378,           0.
    526,   41.0136566,    88.291214,           0.
    527,   25.2615128,   88.2749786,           0.
    528,   33.1696854,   88.2942429,           0.
    529,   54.9754066,   84.9392853,           0.
    530,   14.6051874,   91.3852386,           0.
    531,   17.7574768,   101.651505,           0.
    532,   17.3502502,   97.5092545,           0.
    533,   24.0207767,    105.17691,           0.
    534,   37.7874565,   101.748611,           0.
    535,   29.8505325,   101.771805,           0.
    536,   41.7742119,   101.745651,           0.
    537,   33.7999153,   101.761559,           0.
    538,   45.8005066,   101.732574,           0.
    539,   49.8529701,   101.715363,           0.
    540,   53.9099045,   101.709389,           0.
    541,   16.7356758,   105.319199,           0.
    542,   20.1171379,   105.167931,           0.
    543,   57.9878693,   101.694267,           0.
    544,    66.643074,   101.788559,           0.
    545,   62.1567421,   101.684898,           0.
    546,   70.4274445,   99.9150848,           0.
    547,   47.1894608,   91.6299362,           0.
    548,   58.4076653,   84.8757019,           0.
    549,   19.0533905,   91.4837112,           0.
    550,   43.1620598,   91.6498184,           0.
    551,   39.1837311,   91.6622772,           0.
    552,   23.2004929,   91.6791077,           0.
    553,   27.3171024,   91.6774216,           0.
    554,   35.2471619,   91.6651764,           0.
    555,   31.3156071,   91.6670685,           0.
    556,   53.2075958,   88.2403183,           0.
    557,   13.7563419,   87.7309723,           0.
    558,    20.353363,   98.9814377,           0.
    559,   25.8845501,   101.825401,           0.
    560,   39.5715981,   98.3811493,           0.
    561,    35.601799,   98.3896484,           0.
    562,   31.6471691,   98.4035187,           0.
    563,   43.5836945,   98.3674774,           0.
    564,   51.7195053,   98.3250122,           0.
    565,   47.6284866,   98.3499451,           0.
    566,   55.8213806,   98.2580719,           0.
    567,   59.9981537,   98.0813293,           0.
    568,    64.153656,   98.0688629,           0.
    569,   45.3907852,   94.9969635,           0.
    570,   20.8956547,   95.3629227,           0.
    571,   41.3742218,   95.0148926,           0.
    572,   37.4012566,   95.0238419,           0.
    573,   33.4504318,   95.0319443,           0.
    574,   25.3914204,   95.1260757,           0.
    575,    29.472311,   95.0553055,           0.
    576,   57.6377258,   88.2130814,           0.
    577,   51.3103447,   91.5985031,           0.
    578,   17.1759567,   94.2505417,           0.
    579,   27.6632519,   98.4584885,           0.
    580,   21.9778061,    101.89534,           0.
    581,   49.4718933,   94.9725647,           0.
    582,   53.5746269,   94.9085464,           0.
    583,   57.6353951,    94.740654,           0.
    584,   61.9297905,   94.0548248,           0.
    585,   60.7917175,   86.6028366,           0.
    586,   67.5521774,   98.0867004,           0.
    587,   23.6943417,   98.6082764,           0.
    588,   61.4786873,   89.8493423,           0.
    589,   66.2460251,   94.7756729,           0.
    590,    70.058754,   95.9092331,           0.
    591,   55.3796844,    91.557373,           0.
    592,   58.8122559,   91.6830597,           0.
    593,   64.6653671,   91.4197998,           0.
    594,   81.2480392,   91.2794495,           0.
    595,   122.743584,   68.0134583,           0.
    596,   111.025192,   67.9317017,           0.
    597,   130.598114,   67.7623291,           0.
    598,   126.611824,   67.9259186,           0.
    599,   118.908829,   68.0128326,           0.
    600,   115.039925,   67.9913559,           0.
    601,   106.660545,   67.7626648,           0.
    602,    87.306778,   32.5653534,           0.
    603,   87.5421295,   5.26713562,           0.
    604,   87.3065414,   24.9003696,           0.
    605,    87.307457,   28.7326813,           0.
    606,    87.313858,   40.2309418,           0.
    607,   87.3167038,   44.1649208,           0.
    608,    87.505867,   9.44883728,           0.
    609,   87.3118591,   36.3968582,           0.
    610,   136.526718,   49.5533104,           0.
    611,   136.525238,   45.5893822,           0.
    612,   136.524734,   41.6250916,           0.
    613,   136.524551,   37.6608429,           0.
    614,   136.524307,   33.6965942,           0.
    615,   136.523804,   29.7323246,           0.
    616,    136.52301,   25.7680511,           0.
    617,   136.522049,   21.8037548,           0.
    618,   136.516357,   17.8326111,           0.
    619,   136.450699,   13.7727861,           0.
    620,   136.314987,   9.59343719,           0.
    621,    136.29866,   5.27676725,           0.
    622,   136.831833,    64.726944,           0.
    623,   136.542572,   61.3880005,           0.
    624,   136.531693,   57.4692841,           0.
    625,   136.529678,   53.5155334,           0.
    626,   101.618027,   60.1321716,           0.
    627,   90.5216217,   51.1257629,           0.
    628,   98.5320206,   56.5556297,           0.
    629,   94.8359528,   53.5240746,           0.
    630,   104.073967,    63.913166,           0.
    631,   121.961807,   3.45895886,           0.
    632,   117.963387,   3.45755458,           0.
    633,   113.965126,   3.45548463,           0.
    634,   105.967567,   3.45196843,           0.
    635,   101.968445,   3.44813085,           0.
    636,   97.9287643,   3.49879336,           0.
    637,   93.9365768,   3.51700091,           0.
    638,   109.966293,   3.45285153,           0.
    639,   134.783051,   67.7318115,           0.
    640,   124.697182,   64.5789948,           0.
    641,   116.984871,   64.6453094,           0.
    642,   112.956108,   64.5472107,           0.
    643,   120.835014,   64.6428757,           0.
    644,   128.589447,   64.4212952,           0.
    645,   87.3101959,   21.0712776,           0.
    646,   90.6913223,   42.2900925,           0.
    647,   87.2100525,   48.1445503,           0.
    648,   87.3161011,   17.2458973,           0.
    649,   90.6550369,    34.477787,           0.
    650,   87.3738403,   13.4019823,           0.
    651,   90.6500015,   30.6446953,           0.
    652,   90.6498642,   26.8124886,           0.
    653,   90.6687546,   38.3356247,           0.
    654,   133.091858,   39.6430664,           0.
    655,    132.98201,   55.5478745,           0.
    656,   132.909561,   11.6276598,           0.
    657,   133.077606,   19.8131084,           0.
    658,   133.085724,   23.7851181,           0.
    659,   133.095474,   47.5726089,           0.
    660,   132.928207,   63.8269653,           0.
    661,   133.091202,   31.7149258,           0.
    662,   133.092026,    35.678997,           0.
    663,   133.089447,   27.7507267,           0.
    664,   133.026718,   15.7420645,           0.
    665,   133.093002,   43.6076775,           0.
    666,   133.063171,   51.5526848,           0.
    667,   133.016327,   59.5479927,           0.
    668,   125.949646,   3.43293047,           0.
    669,   115.961517,   6.90809727,           0.
    670,   119.925842,   6.91324997,           0.
    671,   103.964874,   6.89078856,           0.
    672,   99.8682861,   7.03287601,           0.
    673,   129.905121,   3.41012931,           0.
    674,   133.289719,   3.15785456,           0.
    675,   95.7794952,   7.07103825,           0.
    676,   107.964546,   6.89708138,           0.
    677,   111.963478,   6.90198755,           0.
    678,   91.4366913,   7.17040873,           0.
    679,   132.345703,   7.11837101,           0.
    680,   90.7123108,   15.3470364,           0.
    681,   122.802055,   61.1942749,           0.
    682,   114.966576,    61.199852,           0.
    683,   118.910172,   61.2190704,           0.
    684,    126.66523,   61.1640434,           0.
    685,   90.6707611,   19.1637745,           0.
    686,   94.0026169,    28.723238,           0.
    687,   94.0086441,   32.5530243,           0.
    688,   94.0207062,   36.3942947,           0.
    689,   94.0470352,   40.3125648,           0.
    690,   90.8431625,   11.4833927,           0.
    691,   90.7106323,   46.4859428,           0.
    692,   90.6574402,     22.98596,           0.
    693,   108.647156,   64.2080078,           0.
    694,   129.661774,   41.6258659,           0.
    695,   129.665833,   45.5925903,           0.
    696,    129.66153,   37.6611595,           0.
    697,   129.659058,   29.7343216,           0.
    698,   129.654785,   25.7706261,           0.
    699,   129.661285,   33.6975784,           0.
    700,   129.611603,   17.7108326,           0.
    701,    129.64151,   21.7748337,           0.
    702,    129.57103,   13.5926275,           0.
    703,   129.653214,   49.5532837,           0.
    704,   129.082947,   57.6781349,           0.
    705,   129.592529,   53.4434891,           0.
    706,   130.056427,   61.3276863,           0.
    707,   123.922279,   7.00751543,           0.
    708,   109.959335,   10.3394909,           0.
    709,   113.956512,   10.3483152,           0.
    710,   117.882271,   10.3649082,           0.
    711,    105.97496,   10.3209248,           0.
    712,   102.002846,   10.4134884,           0.
    713,   97.6919708,   10.9757891,           0.
    714,   127.975288,     6.981287,           0.
    715,   90.5722427,   3.19090915,           0.
    716,   103.085854,   55.6393967,           0.
    717,   99.0392609,   51.5524139,           0.
    718,    94.488678,   48.9291039,           0.
    719,   106.412056,   59.8878899,           0.
    720,   94.1359558,      13.4003,           0.
    721,   94.1278381,   17.2336769,           0.
    722,   94.0813446,   21.0722885,           0.
    723,   120.808456,   57.6588402,           0.
    724,   97.3964386,   38.3366737,           0.
    725,    116.82811,   57.7129631,           0.
    726,   97.3872452,    30.615448,           0.
    727,   97.3839188,   34.4648972,           0.
    728,   94.1778336,   44.4660721,           0.
    729,   94.0243759,   24.8999996,           0.
    730,   93.9774551,   10.0201855,           0.
    731,   110.923882,   60.9488678,           0.
    732,   126.234276,   39.6440811,           0.
    733,   126.234001,   35.6797142,           0.
    734,   126.113564,   15.5249681,           0.
    735,   126.216728,   23.7782326,           0.
    736,   126.227104,   27.7535706,           0.
    737,   126.238289,   43.6124649,           0.
    738,    126.50737,   54.8235092,           0.
    739,   126.086647,   19.6696911,           0.
    740,   126.232338,   31.7172413,           0.
    741,   126.255295,    47.557766,           0.
    742,   126.280807,   51.4534264,           0.
    743,   129.757187,   10.0659056,           0.
    744,   121.770287,   10.4638643,           0.
    745,    115.88443,   13.7749348,           0.
    746,    111.93322,   13.7671261,           0.
    747,   100.571037,   13.5176954,           0.
    748,   107.955338,   13.7516451,           0.
    749,   103.982796,    13.734664,           0.
    750,   126.038307,   11.0396776,           0.
    751,   97.6135254,   15.2513437,           0.
    752,   97.4808884,   22.8845844,           0.
    753,   100.763069,    32.532402,           0.
    754,   100.763634,   36.3876801,           0.
    755,   118.540016,   54.1068497,           0.
    756,   97.5312881,   19.0925674,           0.
    757,   97.5234375,   26.7075157,           0.
    758,   97.4815063,   42.3479691,           0.
    759,   124.776917,   57.7213974,           0.
    760,   112.859909,   57.7850227,           0.
    761,   122.808945,   33.6996765,           0.
    762,   122.804832,   29.7403202,           0.
    763,   122.790718,   25.7372761,           0.
    764,   122.810631,   37.6627541,           0.
    765,   122.813835,   41.6316605,           0.
    766,   122.696472,   21.7117081,           0.
    767,   122.178627,   17.3734989,           0.
    768,   122.811417,   53.7551613,           0.
    769,   122.840149,   45.5830994,           0.
    770,   122.921913,   49.4800339,           0.
    771,   119.788025,   13.7908859,           0.
    772,   113.889999,   17.2478848,           0.
    773,   109.875099,   17.1814537,           0.
    774,   101.384415,   17.2086678,           0.
    775,   105.791855,   17.2190857,           0.
    776,   101.354988,   24.5193462,           0.
    777,   104.007271,   34.4718857,           0.
    778,    100.29863,   20.9005928,           0.
    779,   109.493027,   57.8934975,           0.
    780,   100.829025,   28.7341385,           0.
    781,   100.768486,   40.2675171,           0.
    782,   114.552231,   54.3263817,           0.
    783,   119.392601,   27.6872272,           0.
    784,   119.389084,   31.7101021,           0.
    785,     119.3908,   35.6805382,           0.
    786,   119.415924,   23.6587601,           0.
    787,   119.393265,   39.6497002,           0.
    788,   123.177765,   13.6385794,           0.
    789,    119.61953,    20.198843,           0.
    790,   117.885536,    17.251627,           0.
    791,   119.416405,   43.6255608,           0.
    792,    119.99292,   51.0195007,           0.
    793,   119.570107,   47.6052017,           0.
    794,   111.744499,   20.7191048,           0.
    795,   107.757675,    20.759367,           0.
    796,   103.709671,   20.8301487,           0.
    797,   115.977249,   21.2187958,           0.
    798,   116.280701,   50.3196373,           0.
    799,   103.910461,   27.3071957,           0.
    800,   104.049301,   30.6276131,           0.
    801,   103.957115,   38.2672043,           0.
    802,   101.029488,   44.1231079,           0.
    803,   110.316429,   54.4689903,           0.
    804,   115.966728,   29.7504673,           0.
    805,    116.02462,   25.6575356,           0.
    806,   116.057098,   33.8096504,           0.
    807,   116.091042,   37.7652817,           0.
    808,   116.101028,   41.6887054,           0.
    809,   116.137672,   45.7877007,           0.
    810,   109.696167,   24.2850857,           0.
    811,   105.673019,   24.3215637,           0.
    812,   107.116486,   56.2034378,           0.
    813,   106.418633,    52.875927,           0.
    814,   107.515015,   28.2611046,           0.
    815,   113.124588,   23.9308205,           0.
    816,   107.089836,   32.5384331,           0.
    817,   106.994438,   36.2911377,           0.
    818,   97.9804916,    46.592308,           0.
    819,   104.037155,   41.8173561,           0.
    820,   112.815346,   32.1328697,           0.
    821,   112.151634,   27.8626804,           0.
    822,   112.955185,   35.9977188,           0.
    823,   112.929832,   39.8133926,           0.
    824,   112.731415,   43.7959862,           0.
    825,   112.662361,   47.9326057,           0.
    826,   112.636925,   51.4682465,           0.
    827,   109.411789,   50.2709084,           0.
    828,   106.927536,   39.8520088,           0.
    829,   104.683533,   45.3091927,           0.
    830,   101.892151,   48.0378609,           0.
    831,   109.902725,   31.0429077,           0.
    832,   108.821297,   45.8618317,           0.
    833,   103.208679,   51.4323997,           0.
    834,   105.739349,   48.9646873,           0.
    835,   106.838005,   42.9216537,           0.
    836,   109.695358,   41.7189178,           0.
    837,   86.7197495,   51.3593941,           0.
    838,    109.94693,   34.3452835,           0.
    839,   109.908218,   38.0030785,           0.
    840,   66.4966812,   60.1648865,           0.
    841,    64.075325,   63.8105087,           0.
    842,   80.4248734,   5.25232029,           0.
    843,   80.6445923,   28.7309227,           0.
    844,   80.6424408,   32.5631714,           0.
    845,   80.6367645,   36.3962631,           0.
    846,    80.605217,   40.2590599,           0.
    847,   72.4426651,   53.0753555,           0.
    848,   80.5560913,   44.2419281,           0.
    849,   80.3912125,   48.5410919,           0.
    850,   69.1632156,   56.6989708,           0.
    851,    76.627037,   50.9572563,           0.
    852,   5.24727535,    67.728447,           0.
    853,   40.9209213,   67.9772644,           0.
    854,   44.8187447,   67.9758224,           0.
    855,    48.716671,   67.9739761,           0.
    856,   52.7504768,   67.9167709,           0.
    857,   56.9173126,   67.7436218,           0.
    858,   61.3041229,   67.5757675,           0.
    859,   3.43400931,   25.7679443,           0.
    860,     3.432971,   29.7323551,           0.
    861,   3.43179846,   33.6967201,           0.
    862,   3.43066406,   37.6609879,           0.
    863,   3.42950797,   41.6252937,           0.
    864,   3.42834878,   45.5896225,           0.
    865,   3.42678523,   49.5540352,           0.
    866,   3.42487764,   53.5184174,           0.
    867,   3.41466951,   57.4588394,           0.
    868,   3.42550802,   61.3908768,           0.
    869,   49.9843864,   3.45935249,           0.
    870,   45.9858093,   3.46003699,           0.
    871,   41.9873123,   3.46020293,           0.
    872,   37.9885674,   3.46027398,           0.
    873,   33.9897766,   3.46037436,           0.
    874,   29.9909782,   3.46036863,           0.
    875,   25.9921474,   3.46027446,           0.
    876,   21.9932823,   3.46009231,           0.
    877,   17.9869614,   3.46398497,           0.
    878,   13.8850174,   3.52461767,           0.
    879,   9.66138935,   3.64556122,           0.
    880,   5.30759192,   3.64393663,           0.
    881,   77.2128296,   42.2440071,           0.
    882,   80.6415329,   21.0693111,           0.
    883,   80.6427231,   24.8991737,           0.
    884,   80.6098099,    13.418232,           0.
    885,   77.3010788,   30.6397305,           0.
    886,   77.2909698,   34.4735146,           0.
    887,   77.2632446,   38.3300285,           0.
    888,   37.0238075,   67.9775314,           0.
    889,   9.53181744,   67.7749329,           0.
    890,   46.7673912,   64.5920258,           0.
    891,   50.7631912,   64.5858078,           0.
    892,    54.766777,   64.4669495,           0.
    893,   13.6122913,    67.916893,           0.
    894,    29.230217,   67.9777069,           0.
    895,   33.1271095,   67.9773788,           0.
    896,   25.3322659,    67.977211,           0.
    897,   21.4367638,   67.9747543,           0.
    898,   42.8671532,   64.5926743,           0.
    899,   3.43513083,   21.8036728,           0.
    900,     6.851583,   47.5732002,           0.
    901,   6.85808706,   39.6440964,           0.
    902,   6.99617195,   55.5526009,           0.
    903,   6.86722851,   27.7512245,           0.
    904,   3.41637516,   13.8949966,           0.
    905,   3.43222404,   17.8437557,           0.
    906,   3.40907145,   9.98338795,           0.
    907,   3.16898394,   6.62669325,           0.
    908,   6.86097336,   35.6799965,           0.
    909,   6.86412954,   31.7157936,           0.
    910,   6.85455942,   43.6086769,           0.
    911,   6.89431906,   51.5550423,           0.
    912,   7.03001833,   59.5638695,           0.
    913,   53.9833794,   3.45683932,           0.
    914,   43.9860611,   6.91813946,           0.
    915,   11.7274694,   7.05239773,           0.
    916,   19.9834099,   6.92321968,           0.
    917,   61.9793358,   3.45257878,           0.
    918,   57.9814224,   3.45420766,           0.
    919,   47.9847221,   6.91618013,           0.
    920,   35.9892197,   6.91834497,           0.
    921,   39.9878922,   6.91776991,           0.
    922,   31.9904137,   6.91829681,           0.
    923,    27.991518,   6.91829729,           0.
    924,   23.9907932,   6.91872501,           0.
    925,   15.8718452,   6.95874166,           0.
    926,   7.17172623,    7.5796876,           0.
    927,   77.3000717,   22.9790897,           0.
    928,    80.629631,   17.2444382,           0.
    929,   80.4599075,   9.43897533,           0.
    930,   73.9383316,   32.5431747,           0.
    931,   73.9183197,   36.3850784,           0.
    932,   73.8804855,   40.2559853,           0.
    933,   77.3006287,    26.807148,           0.
    934,   77.0227585,    46.409996,           0.
    935,   35.0743713,   64.5948257,           0.
    936,   17.5424805,   67.9624786,           0.
    937,   27.2804985,   64.5940933,           0.
    938,   23.3858528,    64.592392,           0.
    939,   31.1782398,   64.5938263,           0.
    940,    52.713089,    61.271122,           0.
    941,   48.7474213,   61.2132378,           0.
    942,   44.8169479,   61.2042122,           0.
    943,    38.970047,   64.5935135,           0.
    944,   7.17127895,   63.8594284,           0.
    945,   6.86340761,   19.8441181,           0.
    946,   6.99356461,   11.8910275,           0.
    947,   6.99785757,   15.8807402,           0.
    948,   10.2810907,   41.6288719,           0.
    949,   10.2926331,   33.7006226,           0.
    950,   10.2865906,   37.6650314,           0.
    951,   10.2748756,   45.5912514,           0.
    952,   10.2983665,   29.7364883,           0.
    953,   10.2985439,   49.5506783,           0.
    954,   11.0222006,   57.7015076,           0.
    955,   10.4085226,   53.4437828,           0.
    956,   6.86869669,   23.7905827,           0.
    957,   51.9845848,   6.91182041,           0.
    958,   65.9858932,   3.45332122,           0.
    959,   74.0254517,    3.4977479,           0.
    960,   70.0219727,   3.47960663,           0.
    961,   59.9803581,   6.90101862,           0.
    962,   25.9900284,   10.3730497,           0.
    963,   29.9906845,   10.3732214,           0.
    964,   33.9898567,   10.3728971,           0.
    965,   41.9862823,   10.3728571,           0.
    966,   37.9884949,   10.3723726,           0.
    967,   45.9852295,   10.3704281,           0.
    968,   21.9785156,   10.3706646,           0.
    969,   17.8535347,   10.3653069,           0.
    970,    13.705452,    10.353385,           0.
    971,   55.9828835,   6.90607405,           0.
    972,    59.204731,   63.5830879,           0.
    973,   11.6158123,   64.4502716,           0.
    974,   77.2872009,   19.1580124,           0.
    975,   73.9410248,    24.883913,           0.
    976,   70.5340652,   38.3008957,           0.
    977,   70.5575256,   34.4489212,           0.
    978,   77.1140518,   11.4357357,           0.
    979,   73.9429779,   28.7100925,           0.
    980,   77.2316742,    15.299511,           0.
    981,   73.7472534,   44.2867432,           0.
    982,   15.5775537,   64.5585556,           0.
    983,   37.0201111,   61.2068367,           0.
    984,   33.1259651,   61.2063828,           0.
    985,   29.2284832,    61.205864,           0.
    986,   25.3315678,   61.2032356,           0.
    987,   46.7647514,   57.8101273,           0.
    988,   50.8039742,     57.86763,           0.
    989,   19.4958153,   64.5865097,           0.
    990,   40.9152489,   61.2044754,           0.
    991,   10.0898972,   61.3567085,           0.
    992,   13.5757074,   54.8625526,           0.
    993,   10.3332329,   21.8276005,           0.
    994,   10.4782066,   17.9598007,           0.
    995,   13.7265377,    31.724081,           0.
    996,   13.7082167,   39.6518059,           0.
    997,   11.0970325,   13.7865686,           0.
    998,   13.7172241,   35.6884995,           0.
    999,   10.3141785,   25.7717552,           0.
   1000,   13.6988287,   43.6131325,           0.
   1001,   13.7408638,   51.4949799,           0.
   1002,   13.7109499,   47.5785866,           0.
   1003,    63.998291,   6.91410112,           0.
   1004,   10.1390486,   10.1326132,           0.
   1005,   49.9866257,   10.3644934,           0.
   1006,   39.9865799,   13.8240843,           0.
   1007,    77.390976,   3.19202352,           0.
   1008,   72.1548004,   6.99013186,           0.
   1009,   27.9892159,   13.8244419,           0.
   1010,   31.9901943,   13.8244009,           0.
   1011,   43.9856567,   13.8214388,           0.
   1012,   35.9891548,   13.8237123,           0.
   1013,   15.6569424,   13.7383642,           0.
   1014,   19.8478527,   13.8573418,           0.
   1015,   23.9674797,   13.8259573,           0.
   1016,   57.9846611,   10.3471107,           0.
   1017,   53.9864082,   10.3559561,           0.
   1018,   68.0945587,   7.03328228,           0.
   1019,   3.16881251,   64.7600708,           0.
   1020,   76.5051422,   7.10229254,           0.
   1021,   62.4326401,    60.157505,           0.
   1022,   64.7518082,   56.2330856,           0.
   1023,    68.014183,    52.856884,           0.
   1024,    58.803421,   59.5858078,           0.
   1025,   70.5650101,   26.7840614,           0.
   1026,    73.989563,   9.95106411,           0.
   1027,   73.8290939,   17.1952667,           0.
   1028,    67.167366,   36.3605499,           0.
   1029,    73.405899,   48.4991722,           0.
   1030,   73.8056183,    13.338686,           0.
   1031,   73.8802185,   21.0536671,           0.
   1032,   17.5021782,   61.1819496,           0.
   1033,   70.5688019,   30.6096764,           0.
   1034,   13.5400934,   61.1733131,           0.
   1035,   38.9635353,    57.812973,           0.
   1036,   70.4456177,   42.2932625,           0.
   1037,   35.0720406,   57.8134766,           0.
   1038,   31.1847439,   57.8138885,           0.
   1039,   27.3167381,   57.7626305,           0.
   1040,   48.7487335,   54.4217339,           0.
   1041,   21.4242344,   61.1841011,           0.
   1042,   42.8594475,   57.8098831,           0.
   1043,   55.2393379,   57.9659233,           0.
   1044,   13.7539139,   27.7531033,           0.
   1045,   17.1377316,   37.6783371,           0.
   1046,   17.1245956,    41.641407,           0.
   1047,   13.8100777,   23.8034439,           0.
   1048,     17.15061,   33.7151604,           0.
   1049,   13.7509308,   16.5814018,           0.
   1050,   13.8803234,   19.9380665,           0.
   1051,   17.2844734,   53.8037033,           0.
   1052,   17.1108284,   45.6007004,           0.
   1053,   17.0615997,   49.5050125,           0.
   1054,   61.9855804,   10.3511868,           0.
   1055,   47.9887962,   13.8144836,           0.
   1056,   55.9913483,   13.7919044,           0.
   1057,   37.9871635,   17.2719746,           0.
   1058,   33.9900398,   17.2721691,           0.
   1059,   29.9902687,   17.2724152,           0.
   1060,   41.9860115,   17.2690735,           0.
   1061,   25.9476223,   17.3751163,           0.
   1062,   17.5219402,   17.6590481,           0.
   1063,   21.8712101,   17.4078503,           0.
   1064,   70.2580948,   10.9263792,           0.
   1065,   65.9396896,   10.4148064,           0.
   1066,    51.990921,   13.8038387,           0.
   1067,    67.182869,   28.6796913,           0.
   1068,   70.3111191,    19.102396,           0.
   1069,   70.2607117,   46.3704224,           0.
   1070,   70.4644852,   22.9677811,           0.
   1071,   67.1820602,   32.5103493,           0.
   1072,   56.1454735,   61.3745766,           0.
   1073,   19.4329033,   57.6417389,           0.
   1074,   40.9051094,   54.4132385,           0.
   1075,   67.1090546,   40.3109589,           0.
   1076,   37.0160217,   54.4151878,           0.
   1077,   33.0907555,   54.4176521,           0.
   1078,   29.2303886,   54.4363899,           0.
   1079,   23.4310188,   57.6679344,           0.
   1080,   44.8091087,   54.4114342,           0.
   1081,   52.8174667,   54.4216003,           0.
   1082,     17.14995,    29.750494,           0.
   1083,   20.5532703,   39.6719208,           0.
   1084,   20.5732422,   35.7080498,           0.
   1085,   17.1372623,   25.7981987,           0.
   1086,   20.5231037,   43.6197739,           0.
   1087,   17.1528702,   21.8993244,           0.
   1088,   20.0317287,   51.0134354,           0.
   1089,   20.4065857,   47.5849152,           0.
   1090,   59.9747963,   13.7417831,           0.
   1091,   45.9905586,   17.2614727,           0.
   1092,   35.9879761,   20.7165375,           0.
   1093,   31.9905338,   20.7167149,           0.
   1094,   39.9864197,   20.7134724,           0.
   1095,   28.0303898,   20.8013401,           0.
   1096,   67.3564148,   13.4736652,           0.
   1097,   53.9819374,   17.2217045,           0.
   1098,   23.8162956,   21.3463497,           0.
   1099,   63.9326668,   13.6764383,           0.
   1100,    49.992424,   17.2472324,           0.
   1101,   63.7977257,   30.5752468,           0.
   1102,   66.9622116,   21.1295147,           0.
   1103,   70.1635895,   49.9192543,           0.
   1104,   70.3201218,   15.1849394,           0.
   1105,   67.1045761,     24.88027,           0.
   1106,   42.8468781,    51.008709,           0.
   1107,   66.9438019,    44.352562,           0.
   1108,   63.7879372,   34.4170647,           0.
   1109,      63.7556,   38.3168144,           0.
   1110,   38.9576988,   51.0120239,           0.
   1111,   21.5771465,   54.0677567,           0.
   1112,   34.9422989,   51.0361595,           0.
   1113,   30.8917618,   51.1473732,           0.
   1114,   15.3929262,    57.727459,           0.
   1115,   46.7570992,   51.0060806,           0.
   1116,    25.450201,   54.2596741,           0.
   1117,   50.7131004,   51.0005035,           0.
   1118,   56.8646545,   54.1430435,           0.
   1119,   20.5431118,   31.7406368,           0.
   1120,   23.9936237,   37.7056961,           0.
   1121,   23.9533615,   41.6444283,           0.
   1122,   20.4808197,   27.7600803,           0.
   1123,   24.0089779,    45.721611,           0.
   1124,   23.8439922,   50.2719307,           0.
   1125,    57.996891,   17.1942081,           0.
   1126,   43.9917717,   20.7056122,           0.
   1127,   34.0078659,    24.141346,           0.
   1128,   37.9932327,   24.1492958,           0.
   1129,   30.0498009,   24.1227951,           0.
   1130,     26.66469,   23.9231548,           0.
   1131,   66.3824539,   17.0525265,           0.
   1132,   51.9918861,   20.6251087,           0.
   1133,   62.0410423,   17.0484962,           0.
   1134,    47.995369,   20.6842175,           0.
   1135,   20.4274445,   23.8154888,           0.
   1136,   20.1579514,   20.4256115,           0.
   1137,   66.5806503,   48.8423882,           0.
   1138,   63.7059402,   23.0504589,           0.
   1139,   60.3543739,   32.4427414,           0.
   1140,   63.7718124,   26.7911816,           0.
   1141,   40.8966293,    47.604702,           0.
   1142,   44.7915001,   47.6002617,           0.
   1143,    36.800415,   47.5837975,           0.
   1144,   32.6225052,   47.7336922,           0.
   1145,   60.3483963,   36.3583488,           0.
   1146,    63.631485,   42.2725563,           0.
   1147,     27.49683,   51.5799332,           0.
   1148,   48.7106094,   47.5946007,           0.
   1149,   54.7576828,   50.7766304,           0.
   1150,   23.9838753,   33.7523232,           0.
   1151,   27.3514137,   39.7292404,           0.
   1152,   27.4556103,   43.5879288,           0.
   1153,   23.9765892,   29.7452621,           0.
   1154,   28.1360569,   47.8543396,           0.
   1155,   55.9439316,   20.5153217,           0.
   1156,   41.9948158,   24.1455498,           0.
   1157,   32.0220909,   27.4473953,           0.
   1158,   35.9863281,   27.5242901,           0.
   1159,   27.7724934,   27.5998383,           0.
   1160,   50.1359367,   24.1435909,           0.
   1161,   60.2013435,   20.8369541,           0.
   1162,   46.0218697,   24.1369038,           0.
   1163,   64.5861511,   52.3581543,           0.
   1164,   60.4133873,   24.8626614,           0.
   1165,   56.8440018,   34.5153198,           0.
   1166,   42.8356133,   44.1898994,           0.
   1167,   60.3259544,   28.5828857,           0.
   1168,   63.3535957,   46.2109566,           0.
   1169,    38.768074,   44.1070595,           0.
   1170,   34.2256012,   43.8318977,           0.
   1171,   46.7327881,   44.1770706,           0.
   1172,    60.271843,   40.3460236,           0.
   1173,   52.5950203,   47.4502182,           0.
   1174,   58.7246284,   50.5221596,           0.
   1175,   27.4681454,   35.8515739,           0.
   1176,   30.5971298,   41.7159004,           0.
   1177,     23.85639,   25.6983624,           0.
   1178,   30.6073799,   44.9447517,           0.
   1179,   27.5139446,   31.8916397,           0.
   1180,   54.2018166,   23.8498726,           0.
   1181,   39.9948807,   27.5653629,           0.
   1182,   33.9582138,   30.7388763,           0.
   1183,    44.003231,   27.5573635,           0.
   1184,   48.0948448,   27.5483856,           0.
   1185,   63.8586006,   19.8235893,           0.
   1186,   58.6404877,   56.6091919,           0.
   1187,   56.9848137,   26.4870014,           0.
   1188,   40.6653862,   40.7558327,           0.
   1189,   56.6592293,   30.4936352,           0.
   1190,   36.5993462,   40.6124687,           0.
   1191,   44.6434402,   40.7926636,           0.
   1192,   56.9295158,   38.4787178,           0.
   1193,   61.0295982,   53.8840752,           0.
   1194,   60.2152824,   44.2714844,           0.
   1195,   56.7753525,   46.7701797,           0.
   1196,   50.6172409,   44.1476822,           0.
   1197,   30.7385197,   38.1481209,           0.
   1198,   37.9912758,   30.8570995,           0.
   1199,   52.6315384,   28.0072498,           0.
   1200,   31.4902534,   34.0653343,           0.
   1201,   42.0501556,   30.8801575,           0.
   1202,   57.5490608,   23.3103638,           0.
   1203,   46.0442085,   30.7519188,           0.
   1204,   30.5513992,   30.3486176,           0.
   1205,   62.4327278,   49.8977509,           0.
   1206,   42.3955307,   37.4560814,           0.
   1207,   38.3401794,   37.4187546,           0.
   1208,   54.0385513,   36.6962776,           0.
   1209,   56.8673401,   42.4660072,           0.
   1210,   48.6937637,   40.6724892,           0.
   1211,   53.9894791,   44.2812462,           0.
   1212,   60.3003159,   47.5345078,           0.
   1213,    33.308033,    40.337841,           0.
   1214,   61.1315918,   57.2939339,           0.
   1215,   36.0472679,   34.1161461,           0.
   1216,   49.5453873,   30.6195068,           0.
   1217,   40.1695938,    34.144886,           0.
   1218,   44.2276192,   34.0755348,           0.
   1219,   46.4778137,   37.2947083,           0.
   1220,   34.4206009,   37.4497757,           0.
   1221,   53.1106262,   40.5272522,           0.
   1222,   50.5461845,   36.9967842,           0.
   1223,   52.6475639,    33.021698,           0.
   1224,   48.2481308,   33.7933578,           0.
*Element, type=S3
  1, 266, 208, 238
  2, 254,  58, 206
  3, 222,  41, 221
  4, 205, 204,  24
  5, 247, 223, 222
  6, 206,  13,  14
  7, 207,  23, 204
  8, 208,  16,  17
  9, 302, 264, 273
 10, 209,  22, 207
 11, 210, 208,  17
 12, 211,  19,  20
 13,  19,   2,  20
 14,  25,   3,  26
 15, 232,  52, 231
 16, 267, 238, 210
 17,  34,   4,  35
 18, 213,  34,  35
 19, 226,  37, 225
 20, 214,  32,  33
 21, 215,  31,  32
 22, 216,  30,  31
 23, 244, 215, 214
 24, 218,  29, 217
 25, 220,  26,  27
 26,  46,  45,   5
 27, 237,  46,  47
 28, 303, 297, 274
 29, 248, 245,  43
 30, 245,  42,  43
 31, 251, 247, 222
 32, 223,  40, 222
 33, 298, 277, 278
 34, 277, 276, 252
 35, 271, 269, 240
 36, 293,  35,  36
 37,  58,   1,  13
 38, 206,  58,  13
 39, 254, 227,  57
 40, 228,  56, 227
 41, 344, 343, 331
 42, 315, 313, 288
 43, 230,  54, 229
 44, 231,  53, 230
 45, 233,  51, 232
 46, 234,  50, 233
 47, 235,  49, 234
 48, 236,  48, 235
 49, 237,  47, 236
 50, 204,  23,  24
 51, 205,  24,  25
 52, 220,  25,  26
 53, 219,  28, 218
 54, 263,  15, 239
 55, 239,  16, 208
 56, 229,  55, 228
 57, 207,  22,  23
 58, 210,  17,  18
 59, 267, 210, 211
 60, 209,  21,  22
 61, 256, 230, 229
 62, 211,  18,  19
 63, 211, 210,  18
 64, 212,  20,  21
 65, 212, 211,  20
 66, 212,  21, 209
 67, 309, 308, 285
 68, 214,  33, 213
 69, 213,  33,  34
 70, 225,  38, 224
 71, 215,  32, 214
 72, 224,  39, 223
 73, 216,  31, 215
 74, 317, 299, 298
 75, 217,  30, 216
 76, 241, 217, 216
 77, 217,  29,  30
 78, 243, 218, 242
 79, 218,  28,  29
 80, 288, 219, 243
 81, 219,  27,  28
 82, 220, 205,  25
 83, 220,  27, 219
 84, 221,  41,  42
 85, 257, 232, 231
 86, 296, 276, 271
 87, 222,  40,  41
 88, 244, 240, 215
 89, 223,  39,  40
 90, 293, 272, 213
 91, 224,  38,  39
 92, 296, 272, 246
 93, 225,  37,  38
 94, 293, 226, 272
 95, 226,  36,  37
 96, 227,  56,  57
 97, 264, 254, 206
 98, 258, 228, 255
 99, 228,  55,  56
100, 259, 257, 231
101, 229,  54,  55
102, 259, 230, 256
103, 230,  53,  54
104, 300, 251, 279
105, 231,  52,  53
106, 260, 232, 257
107, 232,  51,  52
108, 283, 257, 280
109, 233,  50,  51
110, 261, 233, 260
111, 234,  49,  50
112, 303, 265, 253
113, 235,  48,  49
114, 253, 236, 235
115, 236,  47,  48
116, 250,  45, 237
117, 237,  45,  46
118, 238, 208, 210
119, 258, 256, 229
120, 302, 287, 255
121, 239,  15,  16
122, 241, 216, 240
123, 240, 216, 215
124, 271, 240, 244
125, 242, 217, 241
126, 332, 315, 288
127, 242, 218, 217
128, 288, 220, 219
129, 243, 219, 218
130, 272, 244, 214
131, 246, 226, 225
132, 245, 221,  42
133, 248,  43,  44
134, 252, 225, 224
135, 249, 223, 247
136, 251, 222, 221
137, 282, 281, 261
138, 250, 248,  44
139, 265, 237, 236
140, 278, 247, 275
141, 249, 224, 223
142, 250,  44,  45
143, 265, 250, 237
144, 279, 221, 245
145, 261, 234, 233
146, 252, 246, 225
147, 252, 224, 249
148, 274, 248, 265
149, 262, 235, 234
150, 254,  57,  58
151, 264, 206, 263
152, 255, 228, 227
153, 273, 239, 266
154, 258, 229, 228
155, 308, 306, 280
156, 259, 231, 230
157, 345, 315, 340
158, 287, 286, 258
159, 286, 285, 256
160, 285, 280, 259
161, 285, 259, 256
162, 307, 297, 284
163, 260, 233, 232
164, 281, 262, 261
165, 262, 234, 261
166, 284, 262, 281
167, 262, 253, 235
168, 263, 206,  14
169, 263,  14,  15
170, 264, 255, 227
171, 264, 227, 254
172, 265, 248, 250
173, 265, 236, 253
174, 266, 239, 208
175, 310, 309, 286
176, 267, 211, 212
177, 319, 212, 209
178, 268, 243, 242
179, 270, 242, 241
180, 269, 241, 240
181, 292, 271, 276
182, 270, 268, 242
183, 270, 241, 269
184, 296, 271, 244
185, 276, 246, 252
186, 272, 214, 213
187, 272, 226, 246
188, 273, 264, 263
189, 273, 263, 239
190, 335, 334, 325
191, 274, 245, 248
192, 275, 247, 251
193, 330, 317, 323
194, 277, 252, 249
195, 278, 249, 247
196, 278, 277, 249
197, 299, 276, 277
198, 335, 325, 324
199, 317, 292, 299
200, 279, 251, 221
201, 279, 245, 274
202, 313, 311, 204
203, 280, 257, 259
204, 282, 261, 260
205, 283, 260, 257
206, 283, 282, 260
207, 295, 270, 294
208, 327, 326, 306
209, 323, 317, 298
210, 303, 284, 297
211, 284, 253, 262
212, 286, 256, 258
213, 328, 327, 308
214, 287, 258, 255
215, 314, 310, 287
216, 302, 289, 287
217, 289, 273, 266
218, 313, 205, 288
219, 288, 205, 220
220, 290, 266, 238
221, 290, 289, 266
222, 291, 238, 267
223, 291, 290, 238
224, 319, 291, 267
225, 329, 310, 314
226, 294, 269, 292
227, 292, 269, 271
228, 293, 213,  35
229, 293,  36, 226
230, 318, 294, 317
231, 294, 270, 269
232, 306, 304, 283
233, 295, 268, 270
234, 296, 244, 272
235, 296, 246, 276
236, 300, 279, 297
237, 297, 279, 274
238, 301, 278, 275
239, 301, 298, 278
240, 299, 292, 276
241, 299, 277, 298
242, 307, 284, 281
243, 300, 275, 251
244, 321, 275, 300
245, 305, 282, 304
246, 302, 255, 264
247, 302, 273, 289
248, 303, 274, 265
249, 303, 253, 284
250, 304, 282, 283
251, 306, 283, 280
252, 325, 307, 305
253, 305, 281, 282
254, 308, 280, 285
255, 347, 346, 337
256, 322, 297, 307
257, 307, 281, 305
258, 309, 285, 286
259, 353, 350, 333
260, 310, 286, 287
261, 329, 314, 316
262, 314, 287, 289
263, 316, 314, 290
264, 311, 207, 204
265, 346, 342, 336
266, 312, 209, 207
267, 312, 207, 311
268, 313, 204, 205
269, 332, 288, 243
270, 314, 289, 290
271, 316, 290, 291
272, 320, 268, 295
273, 332, 320, 315
274, 331, 291, 319
275, 341, 339, 329
276, 317, 294, 292
277, 323, 298, 301
278, 326, 324, 304
279, 318, 295, 294
280, 319, 267, 212
281, 344, 209, 312
282, 333, 295, 318
283, 340, 315, 320
284, 321, 301, 275
285, 322, 321, 300
286, 322, 300, 297
287, 325, 322, 307
288, 334, 301, 321
289, 336, 335, 324
290, 324, 305, 304
291, 326, 304, 306
292, 325, 321, 322
293, 325, 305, 324
294, 327, 306, 308
295, 337, 336, 326
296, 328, 308, 309
297, 338, 337, 327
298, 329, 328, 309
299, 352, 351, 348
300, 329, 309, 310
301, 341, 316, 331
302, 330, 318, 317
303, 342, 334, 335
304, 343, 341, 331
305, 331, 316, 291
306, 332, 243, 268
307, 332, 268, 320
308, 333, 320, 295
309, 353, 318, 330
310, 334, 323, 301
311, 334, 321, 325
312, 336, 324, 326
313, 342, 323, 334
314, 337, 326, 327
315, 353, 330, 342
316, 338, 327, 328
317, 347, 337, 338
318, 339, 338, 328
319, 348, 339, 343
320, 352, 349, 351
321, 339, 328, 329
322, 349, 345, 340
323, 340, 320, 333
324, 341, 329, 316
325, 344, 331, 319
326, 342, 330, 323
327, 342, 335, 336
328, 352, 311, 349
329, 343, 339, 341
330, 344, 319, 209
331, 344, 312, 343
332, 345, 311, 313
333, 345, 313, 315
334, 353, 346, 350
335, 346, 336, 337
336, 348, 347, 338
337, 351, 350, 347
338, 352, 348, 343
339, 348, 338, 339
340, 349, 311, 345
341, 351, 340, 350
342, 350, 340, 333
343, 350, 346, 347
344, 351, 347, 348
345, 351, 349, 340
346, 352, 343, 312
347, 352, 312, 311
348, 353, 333, 318
349, 353, 342, 346
350, 401,  18, 356
351, 424, 389, 388
352, 383, 110, 381
353, 358,  92,  93
354, 402,  90,  91
355, 384, 108, 380
356,  13,   1,  59
357, 354,  13,  59
358, 391,  61, 390
359, 399,  15, 357
360, 399,  16,  15
361, 356,  17, 355
362, 389,  63, 388
363,  78,   6,  79
364, 379,  79,  80
365, 419, 377, 417
366, 420, 375, 416
367, 416, 375, 374
368, 453, 411, 451
369, 359,  93,  94
370, 418,  88, 372
371, 359, 358,  93
372, 397,  73, 395
373, 367, 364,  97
374, 368,  99, 100
375, 548, 497, 480
376, 512, 467, 511
377, 387,  65, 386
378, 388,  64, 387
379, 425, 424, 388
380, 390,  62, 389
381, 426, 389, 424
382, 423,  59,  60
383,  90,  89,   7
384, 402, 372,  89
385, 403, 361, 358
386, 361,  92, 358
387, 415, 373,  86
388, 374,  85, 373
389, 375,  84, 374
390, 376,  83, 375
391, 377,  82, 376
392, 378,  81, 377
393, 379,  80, 378
394, 412, 366, 404
395, 462, 461, 416
396, 366,  96, 364
397, 469, 434, 466
398, 438, 396, 433
399, 367,  98, 360
400, 468, 466, 438
401, 454, 449, 410
402, 448, 446, 405
403, 369, 101, 362
404, 363, 102, 103
405, 431, 394, 393
406, 363, 362, 102
407, 370, 363, 103
408, 371, 105, 106
409, 105,   8, 106
410, 594,   2,  19
411, 380, 108, 109
412, 371, 370, 104
413, 357,  14, 354
414, 354,  14,  13
415, 594, 401, 381
416, 355,  17,  16
417, 594, 381, 111
418, 356,  18,  17
419, 357,  15,  14
420, 428, 390, 426
421, 502, 463, 496
422, 415,  86,  87
423, 365,  94,  95
424, 421, 416, 374
425, 393,  69, 392
426, 360,  98,  99
427, 442, 402, 361
428, 361,  91,  92
429, 393,  68,  69
430, 362, 101, 102
431, 370, 103, 104
432, 408, 406, 363
433, 398,  71, 396
434, 364,  96,  97
435, 365, 359,  94
436, 366, 365,  95
437, 366,  95,  96
438, 397, 396,  72
439, 367,  97,  98
440, 409, 360, 405
441, 368, 360,  99
442, 369, 368, 100
443, 369, 100, 101
444, 410, 362, 406
445, 371, 104, 105
446, 457, 371, 382
447, 382, 106, 107
448, 384, 382, 107
449, 372,  88,  89
450, 402,  89,  90
451, 422,  74,  75
452, 373,  85,  86
453, 435, 422,  75
454, 374,  84,  85
455, 478, 435, 465
456, 375,  83,  84
457, 417, 377, 376
458, 376,  82,  83
459, 436, 435,  76
460, 377,  81,  82
461, 441, 378, 419
462, 378,  80,  81
463, 437,  78, 379
464, 379,  78,  79
465, 383, 109, 110
466, 386,  66, 385
467, 381, 110, 111
468, 443, 401, 356
469, 382, 371, 106
470, 384, 107, 108
471, 400, 356, 355
472, 383, 380, 109
473, 456, 454, 406
474, 540, 511, 539
475, 385,  66,  67
476, 394,  67,  68
477, 430, 386, 429
478, 386,  65,  66
479, 517, 472, 512
480, 387,  64,  65
481, 476, 424, 475
482, 388,  63,  64
483, 444, 357, 440
484, 389,  62,  63
485, 440, 354, 423
486, 390,  61,  62
487, 440, 423, 391
488, 391,  60,  61
489, 392,  69,  70
490, 398,  70,  71
491, 431, 393, 427
492, 394,  68, 393
493, 432, 394, 431
494, 394, 385,  67
495, 411, 407, 359
496, 395,  73,  74
497, 396,  71,  72
498, 397,  72,  73
499, 439, 433, 397
500, 450, 413, 447
501, 447, 409, 446
502, 398, 392,  70
503, 399, 355,  16
504, 482, 481, 380
505, 479, 381, 443
506, 445, 355, 399
507, 401,  19,  18
508, 443, 356, 400
509, 402,  91, 361
510, 442, 361, 403
511, 407, 358, 359
512, 407, 403, 358
513, 404, 366, 364
514, 413, 364, 367
515, 405, 360, 368
516, 414, 368, 369
517, 406, 362, 363
518, 408, 363, 370
519, 411, 359, 365
520, 501, 500, 461
521, 457, 370, 371
522, 457, 408, 370
523, 493, 492, 446
524, 409, 367, 360
525, 414, 369, 410
526, 410, 369, 362
527, 412, 411, 365
528, 500, 499, 459
529, 412, 365, 366
530, 452, 404, 450
531, 413, 404, 364
532, 413, 367, 409
533, 449, 448, 414
534, 414, 405, 368
535, 418, 415,  87
536, 463, 458, 415
537, 420, 417, 376
538, 421, 374, 373
539, 460, 417, 459
540, 420, 376, 375
541, 418,  87,  88
542, 442, 418, 372
543, 465, 436, 441
544, 419, 378, 377
545, 531, 499, 500
546, 459, 417, 420
547, 458, 373, 415
548, 455, 407, 453
549, 422, 395,  74
550, 435,  75,  76
551, 423, 354,  59
552, 423,  60, 391
553, 425, 388, 387
554, 515, 477, 476
555, 430, 387, 386
556, 475, 425, 472
557, 485, 440, 428
558, 426, 390, 389
559, 427, 393, 392
560, 434, 392, 398
561, 477, 426, 476
562, 428, 391, 390
563, 429, 386, 385
564, 432, 385, 394
565, 472, 430, 467
566, 430, 425, 387
567, 473, 427, 469
568, 506, 469, 505
569, 510, 474, 509
570, 432, 429, 385
571, 433, 396, 397
572, 439, 397, 395
573, 434, 427, 392
574, 438, 434, 398
575, 436,  76,  77
576, 514, 478, 513
577, 437, 436,  77
578, 441, 436, 437
579, 437,  77,  78
580, 441, 437, 379
581, 438, 398, 396
582, 492, 490, 447
583, 464, 395, 422
584, 573, 572, 561
585, 440, 357, 354
586, 440, 391, 428
587, 441, 379, 378
588, 503, 465, 441
589, 442, 372, 402
590, 496, 463, 442
591, 518, 477, 515
592, 443, 381, 401
593, 544, 518, 515
594, 444, 399, 357
595, 445, 400, 355
596, 445, 399, 444
597, 446, 409, 405
598, 448, 405, 414
599, 507, 505, 466
600, 447, 413, 409
601, 449, 414, 410
602, 572, 571, 560
603, 454, 410, 406
604, 474, 431, 473
605, 470, 468, 433
606, 450, 404, 413
607, 451, 411, 412
608, 452, 451, 412
609, 452, 412, 404
610, 491, 450, 490
611, 487, 455, 453
612, 453, 407, 411
613, 456, 406, 408
614, 471, 467, 429
615, 557, 502, 487
616, 455, 403, 407
617, 497, 408, 457
618, 488, 486, 454
619, 480, 382, 384
620, 480, 457, 382
621, 458, 421, 373
622, 463, 415, 418
623, 461, 420, 416
624, 461, 459, 420
625, 542, 541, 531
626, 460, 419, 417
627, 462, 416, 421
628, 549, 530, 521
629, 498, 421, 458
630, 557, 521, 530
631, 463, 418, 442
632, 496, 442, 403
633, 464, 439, 395
634, 513, 465, 503
635, 465, 435, 436
636, 503, 441, 419
637, 466, 434, 438
638, 468, 438, 433
639, 467, 430, 429
640, 471, 429, 432
641, 470, 433, 439
642, 508, 507, 468
643, 495, 449, 486
644, 469, 427, 434
645, 504, 439, 464
646, 532, 531, 500
647, 474, 432, 431
648, 581, 547, 577
649, 482, 383, 479
650, 472, 425, 430
651, 473, 431, 427
652, 551, 526, 550
653, 509, 473, 506
654, 474, 471, 432
655, 517, 475, 472
656, 475, 424, 425
657, 485, 483, 444
658, 476, 426, 424
659, 485, 477, 483
660, 477, 428, 426
661, 478, 464, 422
662, 478, 422, 435
663, 479, 383, 381
664, 519, 400, 484
665, 481, 480, 384
666, 548, 529, 497
667, 481, 384, 380
668, 482, 380, 383
669, 590, 519, 546
670, 516, 515, 476
671, 484, 445, 483
672, 483, 445, 444
673, 546, 484, 518
674, 484, 400, 445
675, 485, 444, 440
676, 485, 428, 477
677, 486, 449, 454
678, 488, 454, 456
679, 489, 453, 451
680, 489, 487, 453
681, 529, 456, 497
682, 511, 471, 510
683, 494, 451, 452
684, 558, 531, 532
685, 490, 450, 447
686, 492, 447, 446
687, 527, 491, 523
688, 491, 452, 450
689, 493, 446, 448
690, 575, 555, 573
691, 495, 493, 448
692, 522, 486, 520
693, 494, 489, 451
694, 494, 452, 491
695, 495, 448, 449
696, 550, 522, 547
697, 496, 403, 455
698, 502, 498, 458
699, 497, 456, 408
700, 497, 457, 480
701, 498, 462, 421
702, 502, 458, 463
703, 499, 460, 459
704, 500, 459, 461
705, 501, 461, 462
706, 578, 549, 570
707, 530, 462, 498
708, 552, 549, 524
709, 502, 496, 455
710, 502, 455, 487
711, 503, 419, 460
712, 513, 503, 460
713, 504, 470, 439
714, 541, 513, 499
715, 505, 469, 466
716, 507, 466, 468
717, 526, 495, 522
718, 506, 473, 469
719, 508, 468, 470
720, 554, 525, 551
721, 533, 470, 504
722, 587, 574, 579
723, 538, 509, 536
724, 509, 474, 473
725, 539, 510, 538
726, 510, 471, 474
727, 565, 564, 539
728, 511, 467, 471
729, 566, 540, 564
730, 512, 472, 467
731, 513, 478, 465
732, 513, 460, 499
733, 514, 504, 464
734, 514, 464, 478
735, 516, 476, 475
736, 586, 544, 568
737, 517, 516, 475
738, 545, 516, 517
739, 543, 512, 540
740, 545, 517, 543
741, 518, 484, 483
742, 518, 483, 477
743, 519, 479, 443
744, 519, 443, 400
745, 520, 486, 488
746, 556, 488, 529
747, 521, 487, 489
748, 524, 489, 494
749, 536, 506, 534
750, 522, 495, 486
751, 523, 491, 490
752, 528, 490, 492
753, 524, 521, 489
754, 527, 524, 494
755, 525, 492, 493
756, 526, 525, 493
757, 526, 493, 495
758, 571, 569, 563
759, 527, 494, 491
760, 553, 552, 527
761, 528, 523, 490
762, 528, 492, 525
763, 583, 566, 582
764, 529, 488, 456
765, 530, 501, 462
766, 557, 530, 498
767, 542, 514, 541
768, 532, 500, 501
769, 578, 530, 549
770, 570, 558, 532
771, 533, 508, 470
772, 542, 504, 514
773, 534, 506, 505
774, 537, 505, 507
775, 535, 507, 508
776, 559, 508, 533
777, 563, 536, 560
778, 536, 509, 506
779, 537, 534, 505
780, 537, 507, 535
781, 565, 538, 563
782, 538, 510, 509
783, 582, 564, 581
784, 539, 511, 510
785, 592, 588, 584
786, 540, 512, 511
787, 541, 514, 513
788, 541, 499, 531
789, 580, 531, 558
790, 542, 533, 504
791, 545, 544, 516
792, 543, 517, 512
793, 590, 586, 589
794, 544, 515, 516
795, 567, 543, 566
796, 568, 545, 567
797, 546, 519, 484
798, 546, 518, 544
799, 547, 522, 520
800, 577, 520, 556
801, 585, 480, 481
802, 593, 584, 588
803, 549, 521, 524
804, 552, 524, 527
805, 572, 560, 561
806, 550, 526, 522
807, 573, 561, 562
808, 551, 525, 526
809, 553, 527, 523
810, 587, 570, 574
811, 555, 523, 528
812, 579, 574, 575
813, 579, 562, 535
814, 554, 528, 525
815, 555, 553, 523
816, 555, 528, 554
817, 556, 520, 488
818, 576, 529, 548
819, 557, 498, 502
820, 557, 487, 521
821, 587, 580, 558
822, 578, 570, 532
823, 559, 535, 508
824, 580, 559, 533
825, 560, 536, 534
826, 561, 560, 534
827, 561, 534, 537
828, 562, 561, 537
829, 562, 537, 535
830, 579, 575, 562
831, 571, 563, 560
832, 563, 538, 536
833, 564, 540, 539
834, 582, 581, 577
835, 565, 539, 538
836, 569, 565, 563
837, 591, 583, 582
838, 566, 543, 540
839, 584, 568, 567
840, 567, 545, 543
841, 589, 586, 568
842, 568, 544, 545
843, 569, 550, 547
844, 581, 569, 547
845, 570, 549, 552
846, 574, 570, 552
847, 571, 551, 550
848, 571, 550, 569
849, 572, 554, 551
850, 572, 551, 571
851, 573, 555, 554
852, 573, 554, 572
853, 574, 552, 553
854, 575, 574, 553
855, 575, 553, 555
856, 575, 573, 562
857, 576, 556, 529
858, 585, 576, 548
859, 577, 547, 520
860, 591, 577, 556
861, 578, 532, 501
862, 578, 501, 530
863, 579, 535, 559
864, 587, 579, 559
865, 580, 533, 542
866, 580, 542, 531
867, 581, 564, 565
868, 581, 565, 569
869, 591, 582, 577
870, 582, 566, 564
871, 588, 576, 585
872, 583, 567, 566
873, 584, 567, 583
874, 593, 589, 584
875, 585, 548, 480
876, 588, 585, 481
877, 590, 589, 482
878, 586, 546, 544
879, 587, 559, 580
880, 587, 558, 570
881, 593, 481, 482
882, 592, 584, 583
883, 590, 482, 479
884, 589, 568, 584
885, 590, 479, 519
886, 590, 546, 586
887, 591, 556, 576
888, 592, 591, 576
889, 592, 583, 591
890, 592, 576, 588
891, 593, 588, 481
892, 593, 482, 589
893, 594, 111,   2
894, 594,  19, 401
 895, 647, 113, 607
 896, 698, 663, 697
 897, 754, 727, 753
 898, 639,  34,  33
 899, 667, 623, 660
 900, 629, 159, 627
 901, 124,  10, 125
 902, 603, 124, 125
 903, 637, 127, 636
 904, 608, 122, 123
 905, 648, 645, 120
 906, 648, 120, 121
 907, 645, 119, 120
 908, 701, 658, 698
 909, 605, 117, 118
 910, 609, 116, 602
 911, 609, 606, 115
 912, 607, 114, 606
 913, 646, 607, 606
 914, 137,  11, 138
 915, 621, 138, 139
 916, 656, 620, 619
 917, 701, 700, 657
 918, 700, 664, 657
 919, 632, 133, 631
 920, 736, 735, 698
 921, 633, 132, 632
 922, 634, 129, 130
 923, 635, 129, 634
 924, 712, 671, 711
 925, 671, 635, 634
 926, 715, 125, 126
 927, 154,   4,  34
 928, 639, 622, 154
 929, 598, 597,  32
 930, 624, 152, 623
 931, 759, 684, 681
 932, 628, 626, 157
 933, 611, 149, 610
 934, 612, 148, 611
 935, 613, 147, 612
 936, 614, 146, 613
 937, 614, 145, 146
 938, 615, 144, 145
 939, 617, 143, 616
 940, 618, 142, 617
 941, 619, 141, 618
 942, 620, 140, 619
 943, 621, 139, 620
 944, 597,  33,  32
 945, 598,  31, 595
 946, 595,  31,  30
 947, 599,  30,  29
 948, 623, 153, 622
 949, 600,  29,  28
 950, 601,  27,  26
 951, 601,  26, 155
 952,  26,   3, 155
 953, 837,   9, 112
 954, 737, 732, 694
 955, 601, 596,  27
 956, 600,  28, 596
 957, 703, 695, 659
 958, 596,  28,  27
 959, 600, 599,  29
 960, 660, 639, 597
 961, 598,  32,  31
 962, 640, 598, 595
 963, 644, 598, 640
 964, 681, 640, 643
 965, 599, 595,  30
 966, 693, 601, 630
 967, 642, 641, 600
 968, 630, 155, 156
 969, 742, 703, 705
 970, 651, 602, 605
 971, 602, 116, 117
 972, 608, 123, 603
 973, 603, 123, 124
 974, 604, 118, 119
 975, 638, 131, 633
 976, 605, 602, 117
 977, 605, 118, 604
 978, 837, 647, 627
 979, 606, 114, 115
 980, 837, 627, 160
 981, 607, 113, 114
 982, 636, 128, 635
 983, 650, 122, 608
 984, 609, 115, 116
 985, 651, 649, 602
 986, 610, 149, 150
 987, 625, 150, 151
 988, 695, 665, 659
 989, 611, 148, 149
 990, 629, 628, 158
 991, 612, 147, 148
 992, 662, 613, 654
 993, 613, 146, 147
 994, 689, 653, 688
 995, 615, 145, 614
 996, 785, 784, 761
 997, 616, 144, 615
 998, 668, 134, 135
 999, 616, 143, 144
1000, 714, 673, 679
1001, 617, 142, 143
1002, 714, 707, 668
1003, 618, 141, 142
1004, 673, 668, 135
1005, 619, 140, 141
1006, 679, 620, 656
1007, 620, 139, 140
1008, 674, 137, 621
1009, 621, 137, 138
1010, 622, 153, 154
1011, 639, 154,  34
1012, 667, 624, 623
1013, 623, 152, 153
1014, 625, 151, 624
1015, 624, 151, 152
1016, 666, 625, 655
1017, 625, 610, 150
1018, 626, 156, 157
1019, 628, 157, 158
1020, 740, 699, 733
1021, 627, 159, 160
1022, 629, 158, 159
1023, 695, 694, 665
1024, 718, 627, 691
1025, 781, 758, 724
1026, 630, 601, 155
1027, 630, 156, 626
1028, 631, 133, 134
1029, 688, 649, 687
1030, 652, 651, 605
1031, 632, 132, 133
1032, 638, 634, 130
1033, 633, 131, 132
1034, 690, 680, 650
1035, 638, 130, 131
1036, 678, 637, 675
1037, 635, 128, 129
1038, 675, 636, 672
1039, 636, 127, 128
1040, 715, 637, 678
1041, 637, 126, 127
1042, 670, 632, 631
1043, 677, 633, 669
1044, 639,  33, 597
1045, 660, 597, 644
1046, 643, 595, 599
1047, 641, 599, 600
1048, 642, 600, 596
1049, 666, 659, 610
1050, 693, 596, 601
1051, 693, 642, 596
1052, 643, 640, 595
1053, 643, 599, 641
1054, 706, 660, 644
1055, 644, 597, 598
1056, 645, 604, 119
1057, 672, 635, 671
1058, 691, 647, 607
1059, 653, 606, 609
1060, 647, 112, 113
1061, 691, 607, 646
1062, 650, 121, 122
1063, 650, 648, 121
1064, 649, 609, 602
1065, 670, 669, 632
1066, 713, 672, 712
1067, 747, 713, 712
1068, 652, 605, 604
1069, 710, 709, 669
1070, 692, 604, 645
1071, 756, 752, 722
1072, 653, 646, 606
1073, 653, 609, 649
1074, 654, 613, 612
1075, 665, 612, 611
1076, 769, 765, 737
1077, 655, 625, 624
1078, 664, 619, 618
1079, 657, 618, 617
1080, 658, 617, 616
1081, 658, 657, 617
1082, 663, 616, 615
1083, 687, 651, 686
1084, 659, 611, 610
1085, 666, 610, 625
1086, 660, 623, 622
1087, 660, 622, 639
1088, 661, 615, 614
1089, 662, 661, 614
1090, 662, 614, 613
1091, 791, 787, 765
1092, 663, 658, 616
1093, 663, 615, 661
1094, 664, 656, 619
1095, 664, 618, 657
1096, 665, 654, 612
1097, 665, 611, 659
1098, 706, 704, 667
1099, 705, 655, 704
1100, 684, 640, 681
1101, 667, 655, 624
1102, 668, 631, 134
1103, 673, 135, 136
1104, 676, 671, 634
1105, 669, 633, 632
1106, 707, 631, 668
1107, 702, 664, 700
1108, 676, 634, 638
1109, 677, 676, 638
1110, 690, 608, 678
1111, 672, 636, 635
1112, 674, 673, 136
1113, 679, 673, 674
1114, 674, 136, 137
1115, 679, 674, 621
1116, 775, 774, 749
1117, 675, 637, 636
1118, 708, 676, 677
1119, 711, 676, 708
1120, 677, 638, 633
1121, 709, 708, 677
1122, 678, 608, 603
1123, 715, 678, 603
1124, 679, 621, 620
1125, 743, 714, 679
1126, 685, 648, 680
1127, 680, 648, 650
1128, 683, 643, 641
1129, 682, 641, 642
1130, 731, 642, 693
1131, 779, 760, 731
1132, 683, 681, 643
1133, 683, 641, 682
1134, 706, 684, 704
1135, 684, 644, 640
1136, 722, 685, 721
1137, 685, 645, 648
1138, 686, 651, 652
1139, 729, 652, 692
1140, 699, 662, 696
1141, 687, 649, 651
1142, 696, 654, 694
1143, 688, 653, 649
1144, 758, 728, 689
1145, 689, 646, 653
1146, 690, 650, 608
1147, 730, 678, 675
1148, 728, 646, 689
1149, 691, 627, 647
1150, 692, 652, 604
1151, 692, 645, 685
1152, 719, 630, 626
1153, 779, 731, 719
1154, 717, 716, 628
1155, 694, 654, 665
1156, 703, 659, 666
1157, 742, 705, 738
1158, 763, 736, 762
1159, 696, 662, 654
1160, 697, 663, 661
1161, 699, 697, 661
1162, 746, 709, 745
1163, 698, 658, 663
1164, 699, 661, 662
1165, 733, 696, 732
1166, 788, 767, 771
1167, 701, 657, 658
1168, 838, 831, 820
1169, 766, 735, 763
1170, 788, 750, 734
1171, 702, 656, 664
1172, 705, 666, 655
1173, 742, 741, 703
1174, 704, 655, 667
1175, 759, 738, 704
1176, 723, 681, 683
1177, 705, 703, 666
1178, 706, 667, 660
1179, 706, 644, 684
1180, 707, 670, 631
1181, 714, 668, 673
1182, 748, 708, 746
1183, 709, 677, 669
1184, 710, 669, 670
1185, 739, 701, 735
1186, 744, 670, 707
1187, 734, 702, 700
1188, 751, 713, 747
1189, 711, 671, 676
1190, 730, 720, 690
1191, 712, 672, 671
1192, 730, 713, 720
1193, 713, 675, 672
1194, 743, 679, 656
1195, 750, 714, 743
1196, 715, 603, 125
1197, 715, 126, 637
1198, 716, 626, 628
1199, 717, 628, 629
1200, 718, 717, 629
1201, 818, 728, 758
1202, 718, 629, 627
1203, 728, 718, 691
1204, 719, 693, 630
1205, 719, 626, 716
1206, 721, 680, 720
1207, 720, 680, 690
1208, 751, 720, 713
1209, 721, 685, 680
1210, 752, 729, 722
1211, 722, 692, 685
1212, 725, 683, 682
1213, 725, 723, 683
1214, 724, 689, 688
1215, 727, 688, 687
1216, 760, 682, 731
1217, 807, 806, 785
1218, 726, 687, 686
1219, 757, 686, 729
1220, 727, 724, 688
1221, 727, 687, 726
1222, 728, 691, 646
1223, 758, 689, 724
1224, 729, 686, 652
1225, 729, 692, 722
1226, 730, 690, 678
1227, 730, 675, 713
1228, 731, 682, 642
1229, 731, 693, 719
1230, 732, 696, 694
1231, 737, 694, 695
1232, 764, 761, 733
1233, 733, 699, 696
1234, 739, 700, 701
1235, 735, 701, 698
1236, 771, 710, 744
1237, 736, 698, 697
1238, 740, 736, 697
1239, 762, 740, 761
1240, 741, 695, 703
1241, 770, 742, 768
1242, 738, 705, 704
1243, 759, 704, 684
1244, 767, 734, 739
1245, 739, 734, 700
1246, 740, 697, 699
1247, 784, 783, 762
1248, 770, 769, 741
1249, 741, 737, 695
1250, 768, 723, 755
1251, 755, 723, 725
1252, 743, 656, 702
1253, 750, 744, 707
1254, 744, 710, 670
1255, 750, 707, 714
1256, 797, 790, 789
1257, 745, 709, 710
1258, 749, 711, 748
1259, 746, 708, 709
1260, 749, 712, 711
1261, 748, 711, 708
1262, 773, 746, 772
1263, 778, 756, 774
1264, 775, 748, 773
1265, 749, 747, 712
1266, 750, 743, 702
1267, 750, 702, 734
1268, 756, 721, 751
1269, 751, 721, 720
1270, 778, 776, 752
1271, 756, 722, 721
1272, 753, 727, 726
1273, 780, 726, 757
1274, 765, 764, 732
1275, 754, 724, 727
1276, 782, 725, 760
1277, 824, 823, 808
1278, 774, 751, 747
1279, 774, 747, 749
1280, 757, 726, 686
1281, 757, 729, 752
1282, 781, 724, 754
1283, 830, 818, 802
1284, 759, 681, 723
1285, 768, 759, 723
1286, 803, 760, 779
1287, 760, 725, 682
1288, 761, 740, 733
1289, 764, 733, 732
1290, 805, 786, 783
1291, 762, 736, 740
1292, 786, 763, 783
1293, 763, 735, 736
1294, 765, 732, 737
1295, 787, 785, 764
1296, 769, 737, 741
1297, 827, 826, 803
1298, 790, 772, 745
1299, 766, 739, 735
1300, 790, 767, 789
1301, 767, 739, 766
1302, 768, 742, 738
1303, 768, 738, 759
1304, 770, 741, 742
1305, 826, 782, 803
1306, 792, 768, 755
1307, 798, 755, 782
1308, 771, 745, 710
1309, 788, 771, 744
1310, 810, 795, 794
1311, 772, 746, 745
1312, 795, 773, 794
1313, 773, 748, 746
1314, 774, 756, 751
1315, 775, 749, 748
1316, 796, 776, 778
1317, 831, 821, 820
1318, 811, 776, 796
1319, 776, 757, 752
1320, 777, 754, 753
1321, 800, 753, 780
1322, 778, 752, 756
1323, 796, 774, 775
1324, 812, 719, 716
1325, 813, 803, 812
1326, 780, 753, 726
1327, 780, 757, 776
1328, 802, 758, 781
1329, 801, 754, 777
1330, 793, 769, 770
1331, 782, 755, 725
1332, 783, 763, 762
1333, 784, 762, 761
1334, 785, 761, 764
1335, 821, 814, 810
1336, 787, 764, 765
1337, 806, 804, 784
1338, 797, 794, 772
1339, 786, 766, 763
1340, 791, 765, 769
1341, 808, 807, 787
1342, 788, 744, 750
1343, 788, 734, 767
1344, 789, 767, 766
1345, 789, 766, 786
1346, 790, 745, 771
1347, 790, 771, 767
1348, 793, 770, 792
1349, 809, 808, 791
1350, 792, 770, 768
1351, 798, 792, 755
1352, 798, 793, 792
1353, 793, 791, 769
1354, 794, 773, 772
1355, 797, 772, 790
1356, 811, 799, 776
1357, 795, 775, 773
1358, 796, 778, 774
1359, 796, 775, 795
1360, 797, 789, 786
1361, 805, 797, 786
1362, 803, 782, 760
1363, 825, 824, 809
1364, 821, 805, 804
1365, 799, 780, 776
1366, 800, 777, 753
1367, 800, 780, 799
1368, 801, 781, 754
1369, 838, 820, 822
1370, 818, 717, 718
1371, 819, 781, 801
1372, 812, 803, 779
1373, 833, 716, 717
1374, 804, 783, 784
1375, 806, 784, 785
1376, 815, 797, 805
1377, 805, 783, 804
1378, 807, 785, 787
1379, 816, 800, 814
1380, 808, 787, 791
1381, 817, 777, 816
1382, 809, 791, 793
1383, 839, 828, 817
1384, 809, 793, 798
1385, 835, 829, 819
1386, 814, 811, 810
1387, 815, 810, 794
1388, 811, 796, 795
1389, 811, 795, 810
1390, 812, 779, 719
1391, 813, 812, 716
1392, 834, 833, 830
1393, 835, 832, 829
1394, 814, 800, 799
1395, 814, 799, 811
1396, 815, 794, 797
1397, 821, 815, 805
1398, 839, 838, 822
1399, 816, 777, 800
1400, 823, 822, 807
1401, 817, 801, 777
1402, 818, 718, 728
1403, 818, 758, 802
1404, 819, 802, 781
1405, 828, 801, 817
1406, 820, 804, 806
1407, 822, 820, 806
1408, 821, 810, 815
1409, 821, 804, 820
1410, 822, 806, 807
1411, 823, 807, 808
1412, 839, 822, 823
1413, 824, 808, 809
1414, 825, 809, 798
1415, 836, 832, 835
1416, 826, 825, 798
1417, 834, 832, 827
1418, 826, 798, 782
1419, 827, 803, 813
1420, 834, 829, 832
1421, 827, 825, 826
1422, 828, 819, 801
1423, 839, 836, 828
1424, 834, 830, 829
1425, 829, 802, 819
1426, 830, 717, 818
1427, 830, 802, 829
1428, 831, 816, 814
1429, 831, 814, 821
1430, 832, 824, 825
1431, 832, 825, 827
1432, 833, 813, 716
1433, 833, 717, 830
1434, 834, 827, 813
1435, 834, 813, 833
1436, 835, 819, 828
1437, 836, 835, 828
1438, 836, 823, 824
1439, 836, 824, 832
1440, 837, 160,   9
1441, 837, 112, 647
1442, 838, 817, 816
1443, 838, 816, 831
1444, 839, 817, 838
1445, 839, 823, 836
1446,  974,  928,  882
1447, 1007,  203,  842
1448,  872,  193,  871
1449,  841,  840,  165
1450,  942,  941,  890
1451,  842,  124,  123
1452,  928,  120,  882
1453,  882,  120,  119
1454,  883,  118,  843
1455,  843,  118,  117
1456,  871,  194,  870
1457,  913,  196,  197
1458,  845,  116,  115
1459,  844,  843,  117
1460,  845,  844,  116
1461,  881,  846,  848
1462,  848,  846,  114
1463,  849,  112,  161
1464,  112,    9,  161
1465,  166,    8,  105
1466,  850,  164,  840
1467,  934,  849,  851
1468,   90,    7,  167
1469,  852,   90,  167
1470,  889,   91,  852
1471,  944,  868,  912
1472,  938,  937,  896
1473,  910,  863,  901
1474,  939,  895,  894
1475,  984,  983,  935
1476,  896,   96,   95
1477,  938,  896,  897
1478,  888,   99,   98
1479,  854,  100,  853
1480,  855,  101,  854
1481,  890,  855,  854
1482,  856,  102,  855
1483,  858,  105,  104
1484,  184,  183,   12
1485,  880,  184,  185
1486,  947,  904,  946
1487, 1014, 1013,  969
1488,  906,  181,  182
1489,  946,  906,  926
1490,  899,  178,  179
1491,  860,  177,  859
1492,  861,  176,  860
1493,  862,  175,  861
1494,  863,  174,  862
1495,  864,  173,  863
1496,  865,  172,  864
1497,  866,  171,  865
1498,  900,  865,  864
1499,  868,  169,  867
1500, 1019,  167,  168
1501,  203,   10,  124
1502,  842,  203,  124
1503, 1007,  959,  202
1504,  978,  929,  884
1505,  960,  201,  959
1506,  883,  882,  119
1507,  958,  199,  200
1508,  918,  198,  917
1509, 1125, 1056, 1090
1510,  850,  847,  163
1511,  870,  195,  869
1512,  919,  914,  870
1513,  873,  192,  872
1514,  874,  191,  873
1515,  875,  190,  874
1516,  876,  189,  875
1517,  877,  188,  876
1518,  878,  187,  877
1519,  879,  186,  878
1520,  880,  185,  879
1521,  840,  164,  165
1522,  841,  165,  166
1523,  858,  166,  105
1524,  857,  103,  856
1525,  929,  122,  884
1526,  884,  122,  121
1527,  844,  117,  116
1528,  885,  843,  844
1529,  846,  115,  114
1530, 1054,  961, 1003
1531,  846,  845,  115
1532,  934,  848,  849
1533,  848,  114,  113
1534,  847,  162,  163
1535,  850,  163,  164
1536, 1022,  840, 1021
1537,  849,  113,  112
1538,  849,  848,  113
1539,  851,  161,  162
1540,  851,  849,  161
1541, 1075,  976, 1036
1542, 1214, 1024, 1186
1543,  851,  162,  847
1544,  934,  881,  848
1545,  867,  170,  866
1546,  852,   91,   90
1547,  853,  100,   99
1548, 1037, 1035,  983
1549,  940,  892,  891
1550,  854,  101,  100
1551,  891,  855,  890
1552,  855,  102,  101
1553,  892,  856,  891
1554,  856,  103,  102
1555,  972,  857,  892
1556,  857,  104,  103
1557,  858,  841,  166
1558,  858,  104,  857
1559,  859,  177,  178
1560,  952,  909,  903
1561,  921,  871,  914
1562,  860,  176,  177
1563,  985,  984,  939
1564,  861,  175,  176
1565,  896,  894,   96
1566,  862,  174,  175
1567,  897,  896,   95
1568,  863,  173,  174
1569,  893,   93,   92
1570,  864,  172,  173
1571,  912,  867,  902
1572,  865,  171,  172
1573, 1034,  973,  991
1574,  866,  170,  171
1575,  982,  893,  973
1576,  867,  169,  170
1577, 1019,  868,  944
1578,  868,  168,  169
1579,  869,  195,  196
1580,  930,  885,  886
1581,  898,  890,  854
1582,  870,  194,  195
1583,  983,  943,  935
1584,  871,  193,  194
1585,  956,  859,  899
1586,  872,  192,  193
1587,  922,  873,  920
1588,  873,  191,  192
1589,  922,  874,  873
1590,  874,  190,  191
1591, 1015,  962, 1009
1592,  875,  189,  190
1593,  947,  905,  904
1594,  876,  188,  189
1595,  916,  877,  876
1596,  877,  187,  188
1597,  906,  904,  181
1598,  878,  186,  187
1599, 1004,  926,  915
1600,  879,  185,  186
1601,  907,  183,  880
1602,  880,  183,  184
1603,  887,  846,  881
1604,  977,  931,  976
1605, 1026, 1020,  978
1606,  883,  119,  118
1607,  933,  843,  885
1608, 1003,  917,  958
1609, 1064, 1008, 1026
1610,  928,  121,  120
1611,  886,  844,  845
1612,  886,  885,  844
1613,  887,  886,  845
1614, 1090, 1016, 1054
1615,  887,  845,  846
1616,  931,  930,  886
1617,  888,  853,   99
1618,  895,   98,   97
1619,  893,   92,  889
1620,  889,   92,   91
1621,  941,  940,  891
1622,  898,  854,  853
1623, 1072, 1024,  972
1624,  891,  856,  855
1625,  972,  858,  857
1626,  892,  857,  856
1627,  902,  867,  866
1628,  936,   93,  893
1629,  894,   97,   96
1630,  948,  910,  901
1631,  895,  888,   98
1632,  895,   97,  894
1633,  897,   95,   94
1634,  911,  865,  900
1635,  936,   94,   93
1636,  911,  902,  866
1637,  943,  853,  888
1638, 1110, 1106, 1074
1639,  899,  859,  178
1640,  905,  179,  180
1641,  910,  864,  863
1642,  901,  863,  862
1643,  908,  862,  861
1644,  952,  949,  909
1645,  973,  889,  944
1646,  911,  866,  865
1647,  909,  860,  903
1648,  903,  860,  859
1649,  904,  180,  181
1650,  915,  879,  878
1651,  905,  899,  179
1652,  905,  180,  904
1653,  907,  906,  182
1654,  926,  880,  879
1655,  907,  182,  183
1656,  926,  907,  880
1657,  908,  901,  862
1658,  909,  908,  861
1659,  909,  861,  860
1660, 1044,  952,  999
1661,  986,  985,  937
1662,  910,  900,  864
1663,  996,  948,  950
1664,  953,  900,  951
1665,  991,  973,  944
1666,  912,  868,  867
1667,  913,  869,  196
1668,  918,  197,  198
1669,  914,  871,  870
1670,  919,  870,  869
1671,  925,  878,  877
1672,  925,  877,  916
1673,  924,  876,  875
1674,  923,  874,  922
1675,  917,  198,  199
1676, 1068, 1027, 1031
1677,  927,  882,  883
1678,  918,  913,  197
1679,  957,  869,  913
1680,  967,  965,  914
1681,  920,  873,  872
1682,  921,  920,  872
1683,  921,  872,  871
1684, 1012,  966, 1006
1685,  963,  962,  923
1686,  923,  875,  874
1687, 1050,  993,  994
1688,  924,  875,  923
1689,  968,  924,  962
1690,  924,  916,  876
1691,  969,  916,  968
1692,  925,  915,  878
1693,  926,  906,  907
1694,  926,  879,  915
1695,  933,  927,  883
1696,  979,  975,  933
1697,  928,  884,  121
1698,  974,  882,  927
1699,  929,  842,  123
1700,  929,  123,  122
1701,  931,  886,  887
1702,  932,  887,  881
1703,  932,  931,  887
1704, 1036,  932,  981
1705,  981,  881,  934
1706, 1075, 1028,  976
1707,  933,  883,  843
1708,  979,  885,  930
1709, 1029,  851,  847
1710, 1029,  981,  934
1711,  935,  888,  895
1712, 1077, 1076, 1037
1713,  936,  897,   94
1714, 1034,  982,  973
1715,  937,  894,  896
1716,  951,  910,  948
1717,  989,  897,  936
1718,  955,  911,  953
1719,  939,  935,  895
1720,  939,  894,  937
1721, 1072,  972,  892
1722,  941,  891,  890
1723,  942,  890,  898
1724,  988,  941,  987
1725,  990,  898,  943
1726, 1011, 1006,  965
1727,  943,  898,  853
1728,  943,  888,  935
1729,  944,  889,  852
1730, 1019,  944,  852
1731,  993,  956,  945
1732,  945,  899,  905
1733,  946,  904,  906
1734, 1049,  997, 1013
1735,  970,  925,  969
1736,  947,  945,  905
1737,  950,  901,  908
1738,  998,  949,  995
1739,  949,  908,  909
1740, 1143, 1141, 1110
1741,  950,  948,  901
1742,  950,  908,  949
1743, 1000,  948,  996
1744,  951,  900,  910
1745,  999,  903,  956
1746,  962,  924,  923
1747,  955,  954,  902
1748,  953,  911,  900
1749,  954,  912,  902
1750,  955,  902,  911
1751, 1002,  951, 1000
1752, 1114, 1051, 1073
1753,  956,  903,  859
1754,  956,  899,  945
1755,  957,  919,  869
1756,  971,  913,  918
1757,  958,  917,  199
1758,  960,  200,  201
1759,  959,  201,  202
1760, 1020,  842,  929
1761,  980,  978,  884
1762,  960,  958,  200
1763,  961,  918,  917
1764, 1104, 1030, 1027
1765,  963,  923,  922
1766,  964,  922,  920
1767,  964,  963,  922
1768, 1009,  962,  963
1769,  966,  920,  921
1770, 1010, 1009,  963
1771,  965,  921,  914
1772,  967,  914,  919
1773,  966,  964,  920
1774,  966,  921,  965
1775, 1005,  919,  957
1776, 1060, 1057, 1006
1777,  994,  993,  945
1778,  968,  916,  924
1779, 1004,  997,  946
1780,  969,  925,  916
1781, 1004,  970,  997
1782,  970,  915,  925
1783,  971,  957,  913
1784,  971,  918,  961
1785, 1021,  841,  972
1786,  972,  841,  858
1787,  973,  893,  889
1788,  991,  944,  912
1789,  980,  928,  974
1790, 1031,  927,  975
1791,  975,  927,  933
1792, 1033, 1025,  979
1793,  976,  931,  932
1794, 1040,  988,  987
1795, 1066, 1017, 1056
1796,  977,  930,  931
1797, 1020, 1008,  959
1798,  980,  884,  928
1799,  979,  933,  885
1800, 1033,  930,  977
1801, 1133, 1099, 1131
1802, 1064, 1026, 1030
1803, 1023,  847,  850
1804,  981,  932,  881
1805,  989,  936,  982
1806,  982,  936,  893
1807, 1035,  990,  983
1808,  984,  935,  939
1809,  985,  939,  937
1810, 1039, 1038,  985
1811,  986,  937,  938
1812, 1045,  996,  998
1813, 1041,  938,  989
1814, 1002,  953,  951
1815,  987,  941,  942
1816, 1042,  942,  990
1817, 1209, 1194, 1195
1818,  988,  940,  941
1819,  989,  938,  897
1820, 1034, 1032,  982
1821,  990,  942,  898
1822,  990,  943,  983
1823,  991,  912,  954
1824, 1114,  954,  992
1825,  992,  954,  955
1826, 1001,  955,  953
1827, 1047, 1044,  999
1828,  994,  945,  947
1829,  997,  994,  947
1830, 1013,  970,  969
1831,  995,  949,  952
1832, 1122, 1119, 1082
1833, 1038, 1037,  984
1834,  998,  996,  950
1835,  997,  947,  946
1836, 1013,  997,  970
1837,  998,  950,  949
1838, 1048, 1045,  998
1839,  999,  952,  903
1840,  999,  956,  993
1841, 1002, 1001,  953
1842, 1000,  951,  948
1843, 1111, 1051, 1088
1844, 1001,  992,  955
1845, 1046,  996, 1045
1846, 1052, 1000, 1046
1847, 1003,  961,  917
1848, 1018,  958,  960
1849, 1004,  946,  926
1850, 1004,  915,  970
1851, 1005,  967,  919
1852, 1017,  957,  971
1853, 1006,  966,  965
1854, 1011,  965,  967
1855, 1007,  202,  203
1856, 1020, 1007,  842
1857, 1008,  960,  959
1858, 1030,  978,  980
1859, 1010,  963,  964
1860, 1128, 1127, 1092
1861, 1012, 1010,  964
1862, 1058, 1012, 1057
1863, 1055,  967, 1005
1864, 1187, 1164, 1167
1865, 1012,  964,  966
1866, 1094, 1092, 1057
1867, 1014,  969,  968
1868, 1015,  968,  962
1869, 1015, 1014,  968
1870, 1062, 1049, 1013
1871, 1085, 1082, 1044
1872, 1061, 1009, 1059
1873, 1016,  971,  961
1874, 1131, 1068, 1102
1875, 1017, 1005,  957
1876, 1017,  971, 1016
1877, 1018, 1003,  958
1878, 1018,  960, 1008
1879, 1019,  852,  167
1880, 1019,  168,  868
1881, 1020,  959, 1007
1882, 1020,  929,  978
1883, 1024, 1021,  972
1884, 1021,  840,  841
1885, 1107, 1036, 1069
1886, 1022,  850,  840
1887, 1069, 1036,  981
1888, 1023,  850, 1022
1889, 1043,  940,  988
1890, 1072, 1043, 1024
1891, 1025,  975,  979
1892, 1071, 1067, 1033
1893, 1026, 1008, 1020
1894, 1027,  980,  974
1895, 1031, 1027,  974
1896, 1099, 1065, 1096
1897, 1028,  977,  976
1898, 1109, 1108, 1028
1899, 1029,  934,  851
1900, 1103,  847, 1023
1901, 1030, 1026,  978
1902, 1030,  980, 1027
1903, 1031,  974,  927
1904, 1070,  975, 1025
1905, 1041,  989, 1032
1906, 1032,  989,  982
1907, 1033,  979,  930
1908, 1071,  977, 1028
1909, 1034,  991,  954
1910, 1114, 1034,  954
1911, 1074, 1042, 1035
1912, 1037,  983,  984
1913, 1036,  976,  932
1914, 1069,  981, 1029
1915, 1038,  984,  985
1916, 1078, 1077, 1038
1917, 1039,  985,  986
1918, 1112, 1110, 1076
1919, 1079,  986, 1041
1920, 1052, 1002, 1000
1921, 1080,  987, 1042
1922, 1108, 1101, 1071
1923, 1124, 1116, 1111
1924, 1041,  986,  938
1925, 1042,  987,  942
1926, 1042,  990, 1035
1927, 1081,  988, 1040
1928, 1186, 1043, 1118
1929, 1044,  995,  952
1930, 1047,  999,  993
1931, 1076, 1074, 1035
1932, 1048,  998,  995
1933, 1053, 1002, 1052
1934, 1046, 1000,  996
1935, 1050,  994, 1049
1936, 1063, 1015, 1061
1937, 1082,  995, 1044
1938, 1059, 1010, 1058
1939, 1049,  994,  997
1940, 1062, 1013, 1014
1941, 1063, 1062, 1014
1942, 1050, 1047,  993
1943, 1051,  992, 1001
1944, 1053, 1001, 1002
1945, 1083, 1046, 1045
1946, 1086, 1046, 1083
1947, 1124, 1111, 1088
1948, 1053, 1051, 1001
1949, 1054, 1016,  961
1950, 1065, 1003, 1018
1951, 1055, 1011,  967
1952, 1066, 1005, 1017
1953, 1056, 1017, 1016
1954, 1185, 1102, 1138
1955, 1057, 1012, 1006
1956, 1060, 1006, 1011
1957, 1127, 1093, 1092
1958, 1058, 1010, 1012
1959, 1153, 1150, 1119
1960, 1059, 1009, 1010
1961, 1091, 1011, 1055
1962, 1115, 1080, 1106
1963, 1087, 1085, 1047
1964, 1061, 1015, 1009
1965, 1062, 1050, 1049
1966, 1063, 1014, 1015
1967, 1095, 1059, 1093
1968, 1129, 1093, 1127
1969, 1064, 1018, 1008
1970, 1104, 1096, 1064
1971, 1065, 1054, 1003
1972, 1065, 1018, 1064
1973, 1100, 1066, 1097
1974, 1066, 1055, 1005
1975, 1067, 1025, 1033
1976, 1155, 1097, 1125
1977, 1070, 1068, 1031
1978, 1185, 1161, 1133
1979, 1103, 1069, 1029
1980, 1137, 1069, 1103
1981, 1070, 1031,  975
1982, 1105, 1025, 1067
1983, 1071, 1033,  977
1984, 1201, 1198, 1181
1985, 1072,  892,  940
1986, 1072,  940, 1043
1987, 1073, 1041, 1032
1988, 1114, 1073, 1032
1989, 1165, 1139, 1145
1990, 1076, 1035, 1037
1991, 1107, 1075, 1036
1992, 1118, 1043, 1081
1993, 1077, 1037, 1038
1994, 1113, 1112, 1077
1995, 1078, 1038, 1039
1996, 1120, 1083, 1084
1997, 1116, 1039, 1079
1998, 1089, 1052, 1086
1999, 1079, 1039,  986
2000, 1079, 1041, 1073
2001, 1080, 1040,  987
2002, 1080, 1042, 1074
2003, 1081, 1043,  988
2004, 1145, 1139, 1108
2005, 1082, 1048,  995
2006, 1085, 1044, 1047
2007, 1084, 1045, 1048
2008, 1084, 1083, 1045
2009, 1119, 1048, 1082
2010, 1093, 1058, 1092
2011, 1087, 1047, 1050
2012, 1098, 1061, 1095
2013, 1089, 1088, 1053
2014, 1086, 1052, 1046
2015, 1087, 1050, 1062
2016, 1136, 1062, 1063
2017, 1088, 1051, 1053
2018, 1089, 1053, 1052
2019, 1121, 1083, 1120
2020, 1154, 1124, 1123
2021, 1090, 1056, 1016
2022, 1099, 1054, 1065
2023, 1091, 1060, 1011
2024, 1100, 1055, 1066
2025, 1092, 1058, 1057
2026, 1094, 1057, 1060
2027, 1220, 1200, 1215
2028, 1093, 1059, 1058
2029, 1126, 1060, 1091
2030, 1183, 1181, 1156
2031, 1136, 1135, 1087
2032, 1095, 1061, 1059
2033, 1096, 1065, 1064
2034, 1104, 1064, 1030
2035, 1097, 1066, 1056
2036, 1185, 1138, 1161
2037, 1136, 1098, 1135
2038, 1098, 1063, 1061
2039, 1102, 1068, 1070
2040, 1099, 1090, 1054
2041, 1101, 1067, 1071
2042, 1100, 1091, 1055
2043, 1134, 1100, 1132
2044, 1108, 1071, 1028
2045, 1105, 1102, 1070
2046, 1164, 1161, 1138
2047, 1103, 1029,  847
2048, 1137, 1103, 1023
2049, 1104, 1027, 1068
2050, 1131, 1104, 1068
2051, 1105, 1070, 1025
2052, 1140, 1067, 1101
2053, 1106, 1080, 1074
2054, 1110, 1074, 1076
2055, 1137, 1107, 1069
2056, 1212, 1205, 1174
2057, 1109, 1028, 1075
2058, 1148, 1115, 1142
2059, 1146, 1075, 1107
2060, 1117, 1040, 1115
2061, 1112, 1076, 1077
2062, 1144, 1143, 1112
2063, 1111, 1079, 1073
2064, 1111, 1073, 1051
2065, 1113, 1077, 1078
2066, 1170, 1169, 1143
2067, 1147, 1116, 1124
2068, 1123, 1089, 1086
2069, 1114, 1032, 1034
2070, 1114,  992, 1051
2071, 1115, 1040, 1080
2072, 1142, 1106, 1141
2073, 1116, 1078, 1039
2074, 1116, 1079, 1111
2075, 1222, 1221, 1210
2076, 1117, 1081, 1040
2077, 1193, 1118, 1174
2078, 1149, 1081, 1117
2079, 1119, 1084, 1048
2080, 1122, 1082, 1085
2081, 1150, 1084, 1119
2082, 1157, 1129, 1127
2083, 1151, 1121, 1120
2084, 1121, 1086, 1083
2085, 1135, 1122, 1085
2086, 1130, 1098, 1095
2087, 1178, 1154, 1152
2088, 1123, 1086, 1121
2089, 1124, 1088, 1089
2090, 1124, 1089, 1123
2091, 1125, 1097, 1056
2092, 1133, 1090, 1099
2093, 1126, 1094, 1060
2094, 1134, 1091, 1100
2095, 1128, 1092, 1094
2096, 1158, 1157, 1127
2097, 1156, 1094, 1126
2098, 1169, 1166, 1141
2099, 1204, 1182, 1200
2100, 1129, 1095, 1093
2101, 1177, 1135, 1098
2102, 1130, 1095, 1129
2103, 1131, 1099, 1096
2104, 1131, 1096, 1104
2105, 1132, 1100, 1097
2106, 1139, 1101, 1108
2107, 1138, 1102, 1105
2108, 1133, 1125, 1090
2109, 1224, 1222, 1219
2110, 1134, 1126, 1091
2111, 1135, 1085, 1087
2112, 1177, 1098, 1130
2113, 1136, 1087, 1062
2114, 1136, 1063, 1098
2115, 1163, 1023, 1022
2116, 1163, 1137, 1023
2117, 1140, 1138, 1105
2118, 1202, 1161, 1164
2119, 1145, 1108, 1109
2120, 1199, 1180, 1187
2121, 1140, 1105, 1067
2122, 1167, 1164, 1140
2123, 1141, 1106, 1110
2124, 1143, 1110, 1112
2125, 1162, 1134, 1160
2126, 1142, 1115, 1106
2127, 1144, 1112, 1113
2128, 1178, 1170, 1144
2129, 1154, 1113, 1147
2130, 1152, 1123, 1121
2131, 1172, 1109, 1146
2132, 1212, 1195, 1194
2133, 1146, 1109, 1075
2134, 1168, 1107, 1137
2135, 1147, 1113, 1078
2136, 1147, 1078, 1116
2137, 1148, 1117, 1115
2138, 1171, 1142, 1166
2139, 1149, 1118, 1081
2140, 1173, 1117, 1148
2141, 1150, 1120, 1084
2142, 1153, 1119, 1122
2143, 1175, 1120, 1150
2144, 1220, 1215, 1207
2145, 1154, 1144, 1113
2146, 1152, 1121, 1151
2147, 1177, 1153, 1122
2148, 1159, 1130, 1129
2149, 1154, 1147, 1124
2150, 1154, 1123, 1152
2151, 1155, 1132, 1097
2152, 1161, 1155, 1125
2153, 1156, 1128, 1094
2154, 1162, 1126, 1134
2155, 1179, 1153, 1159
2156, 1158, 1127, 1128
2157, 1181, 1128, 1156
2158, 1190, 1188, 1169
2159, 1177, 1159, 1153
2160, 1159, 1129, 1157
2161, 1160, 1134, 1132
2162, 1180, 1132, 1155
2163, 1161, 1125, 1133
2164, 1164, 1138, 1140
2165, 1184, 1183, 1162
2166, 1162, 1156, 1126
2167, 1193, 1186, 1118
2168, 1174, 1118, 1149
2169, 1167, 1140, 1101
2170, 1202, 1180, 1155
2171, 1192, 1145, 1172
2172, 1191, 1166, 1188
2173, 1166, 1142, 1141
2174, 1169, 1141, 1143
2175, 1167, 1101, 1139
2176, 1189, 1187, 1167
2177, 1168, 1146, 1107
2178, 1205, 1137, 1163
2179, 1170, 1143, 1144
2180, 1217, 1207, 1215
2181, 1178, 1176, 1170
2182, 1204, 1200, 1179
2183, 1221, 1209, 1211
2184, 1171, 1148, 1142
2185, 1172, 1145, 1109
2186, 1194, 1146, 1168
2187, 1173, 1149, 1117
2188, 1196, 1148, 1171
2189, 1214, 1022, 1021
2190, 1195, 1149, 1173
2191, 1175, 1151, 1120
2192, 1179, 1175, 1150
2193, 1176, 1152, 1151
2194, 1197, 1151, 1175
2195, 1177, 1130, 1159
2196, 1177, 1122, 1135
2197, 1178, 1144, 1154
2198, 1178, 1152, 1176
2199, 1179, 1150, 1153
2200, 1204, 1159, 1157
2201, 1180, 1160, 1132
2202, 1202, 1187, 1180
2203, 1181, 1158, 1128
2204, 1183, 1156, 1162
2205, 1182, 1157, 1158
2206, 1198, 1158, 1181
2207, 1184, 1162, 1160
2208, 1218, 1206, 1217
2209, 1223, 1216, 1199
2210, 1221, 1192, 1209
2211, 1185, 1133, 1131
2212, 1185, 1131, 1102
2213, 1214, 1193, 1022
2214, 1186, 1024, 1043
2215, 1189, 1167, 1139
2216, 1199, 1187, 1189
2217, 1188, 1166, 1169
2218, 1190, 1169, 1170
2219, 1189, 1139, 1165
2220, 1223, 1208, 1222
2221, 1213, 1170, 1176
2222, 1217, 1215, 1198
2223, 1203, 1201, 1183
2224, 1191, 1171, 1166
2225, 1192, 1165, 1145
2226, 1211, 1195, 1173
2227, 1205, 1193, 1174
2228, 1193, 1163, 1022
2229, 1194, 1172, 1146
2230, 1212, 1168, 1205
2231, 1195, 1174, 1149
2232, 1211, 1209, 1195
2233, 1196, 1173, 1148
2234, 1210, 1171, 1191
2235, 1197, 1176, 1151
2236, 1200, 1197, 1175
2237, 1198, 1182, 1158
2238, 1201, 1181, 1183
2239, 1199, 1184, 1160
2240, 1199, 1160, 1180
2241, 1200, 1175, 1179
2242, 1220, 1207, 1190
2243, 1203, 1183, 1184
2244, 1217, 1206, 1207
2245, 1202, 1155, 1161
2246, 1202, 1164, 1187
2247, 1216, 1184, 1199
2248, 1224, 1223, 1222
2249, 1204, 1179, 1159
2250, 1204, 1157, 1182
2251, 1205, 1168, 1137
2252, 1205, 1163, 1193
2253, 1206, 1191, 1188
2254, 1207, 1206, 1188
2255, 1207, 1188, 1190
2256, 1220, 1190, 1213
2257, 1219, 1206, 1218
2258, 1208, 1165, 1192
2259, 1209, 1192, 1172
2260, 1209, 1172, 1194
2261, 1210, 1196, 1171
2262, 1219, 1191, 1206
2263, 1211, 1173, 1196
2264, 1221, 1211, 1196
2265, 1212, 1174, 1195
2266, 1212, 1194, 1168
2267, 1213, 1190, 1170
2268, 1213, 1176, 1197
2269, 1214, 1021, 1024
2270, 1214, 1186, 1193
2271, 1215, 1200, 1182
2272, 1215, 1182, 1198
2273, 1216, 1203, 1184
2274, 1223, 1199, 1189
2275, 1217, 1198, 1201
2276, 1218, 1217, 1201
2277, 1218, 1201, 1203
2278, 1224, 1218, 1203
2279, 1224, 1219, 1218
2280, 1219, 1210, 1191
2281, 1220, 1213, 1197
2282, 1220, 1197, 1200
2283, 1221, 1196, 1210
2284, 1221, 1208, 1192
2285, 1222, 1208, 1221
2286, 1222, 1210, 1219
2287, 1223, 1189, 1165
2288, 1223, 1165, 1208
2289, 1224, 1203, 1216
2290, 1224, 1216, 1223
*Orientation, name=Ori-1
1., 0., 0., 0., 1., 0.
3, 0.
** Region: (CompositeLayup-1-1: Generated From Layup)
*Elset, elset=CompositeLayup-1-1, generate
    1,  2290,     1
** Section: CompositeLayup-1-1
*Shell Section, elset=CompositeLayup-1-1, composite, orientation=Ori-1, layup=CompositeLayup-1
0.25, 1, ABQ_PLY_FABRIC, 45., Ply-1
0.25, 1, ABQ_PLY_FABRIC, -45., Ply-2
0.25, 1, ABQ_PLY_FABRIC, -45., Ply-3
0.25, 1, ABQ_PLY_FABRIC, 45., Ply-4
*End Part
**  
**
** ASSEMBLY
**
*Assembly, name=Assembly
**  
*Instance, name=Plate-1, part=PLATE
*End Instance
**  
*Nset, nset=Set-1, instance=Plate-1
   6,   7,  12,  79,  80,  81,  82,  83,  84,  85,  86,  87,  88,  89, 167, 168
 169, 170, 171, 172, 173, 174, 175, 176, 177, 178, 179, 180, 181, 182, 183
*Elset, elset=Set-1, instance=Plate-1
  363,  364,  383,  422,  449,  452,  454,  456,  458,  460,  462,  541, 1468, 1484, 1488, 1490
 1500, 1559, 1562, 1564, 1566, 1568, 1570, 1572, 1574, 1576, 1578, 1640, 1649, 1655
*Nset, nset=Set-2, instance=Plate-1
   4,   5,  11,  35,  36,  37,  38,  39,  40,  41,  42,  43,  44,  45, 138, 139
 140, 141, 142, 143, 144, 145, 146, 147, 148, 149, 150, 151, 152, 153, 154
*Elset, elset=Set-2, instance=Plate-1
   17,   26,   30,   36,   84,   87,   89,   91,   93,   95,  133,  142,  914,  915,  927,  937
  938,  986,  987,  989,  991,  993,  999, 1001, 1003, 1005, 1007, 1010, 1013, 1015
*End Assembly
*Amplitude, name=Ramp, time=TOTAL TIME
             0.,              0.,            0.01,              1.
** 
** MATERIALS
** 
*Material, name=ABQ_PLY_FABRIC
*Density
 1.594e-09,
*Depvar, delete=16
     16,
*User Material, constants=40
27500., 27500.,   0.11,  2900., 27500., 27500.,   0.11,     0.
   604.,   291.,   604.,   291.,    75.,     0.,     0.,     0.
 20.438, 4.6257, 20.438, 4.6257, 0.3221,     1.,     0.,     0.
    75., 0.0008,  0.552,     0.,     0.,     0.,     0.,     0.
     0.,     1.,  1e+09,  1e+09, -1e+09,     0.,     0.,     0.
** ----------------------------------------------------------------
** 
** STEP: Step-1
** 
*Step, name=Step-1, nlgeom=NO
*Dynamic, Explicit
, 0.01
*Bulk Viscosity
0.06, 1.2
** 
** BOUNDARY CONDITIONS
** 
** Name: BC-1 Type: Symmetry/Antisymmetry/Encastre
*Boundary
Set-1, ENCASTRE
** Name: BC-2 Type: Displacement/Rotation
*Boundary, amplitude=Ramp
Set-2, 1, 1, 1.21053
** 
** OUTPUT REQUESTS
** 
*Restart, write, number interval=1, time marks=NO
** 
** FIELD OUTPUT: F-Output-1
** 
*Output, field, number interval=1
*Element Output, position=NODES, directions=YES
LE, PEEQ, SDV
** 
** HISTORY OUTPUT: H-Output-1
** 
*Output, history, variable=PRESELECT
*End Step
