*Heading
** Job name: Plate_nonlinear_173 Model name: Model-1
** Generated by: Abaqus/CAE 2024.HF3
*Preprint, echo=NO, model=NO, history=NO, contact=NO
**
** PARTS
**
*Part, name=PLATE
*Node
      1,   68.4625778,   186.783173,           0.
      2,   68.4625778,   92.7524643,           0.
      3,   80.2756653,   80.9393768,           0.
      4,   157.990555,   80.9393768,           0.
      5,   157.990555,   186.783173,           0.
      6,           0.,   186.783173,           0.
      7,           0.,   80.9393768,           0.
      8,   56.6494865,   80.9393768,           0.
      9,   68.4625778,   69.1262894,           0.
     10,   68.4625778,           0.,           0.
     11,   157.990555,           0.,           0.
     12,           0.,           0.,           0.
     13,   68.4625778,   181.251953,           0.
     14,   68.4625778,   175.720734,           0.
     15,   68.4625778,   170.189529,           0.
     16,   68.4625778,    164.65831,           0.
     17,   68.4625778,    159.12709,           0.
     18,   68.4625778,   153.595871,           0.
     19,   68.4625778,   148.064651,           0.
     20,   68.4625778,   142.533432,           0.
     21,   68.4625778,   137.002213,           0.
     22,   68.4625778,   131.470993,           0.
     23,   68.4625778,   125.939774,           0.
     24,   68.4625778,   120.408554,           0.
     25,   68.4625778,   114.877335,           0.
     26,   68.4625778,   109.346123,           0.
     27,   68.4625778,   103.814903,           0.
     28,   68.4625778,   98.2836838,           0.
     29,   72.9832458,   91.8532486,           0.
     30,   76.8156891,   89.2924881,           0.
     31,   79.3764496,   85.4600525,           0.
     32,   85.8267288,   80.9393768,           0.
     33,   91.3777924,   80.9393768,           0.
     34,   96.9288559,   80.9393768,           0.
     35,   102.479919,   80.9393768,           0.
     36,   108.030983,   80.9393768,           0.
     37,   113.582047,   80.9393768,           0.
     38,    119.13311,   80.9393768,           0.
     39,   124.684174,   80.9393768,           0.
     40,   130.235245,   80.9393768,           0.
     41,   135.786301,   80.9393768,           0.
     42,   141.337372,   80.9393768,           0.
     43,   146.888428,   80.9393768,           0.
     44,   152.439499,   80.9393768,           0.
     45,   157.990555,   86.2315674,           0.
     46,   157.990555,   91.5237579,           0.
     47,   157.990555,   96.8159485,           0.
     48,   157.990555,   102.108139,           0.
     49,   157.990555,    107.40033,           0.
     50,   157.990555,    112.69252,           0.
     51,   157.990555,   117.984703,           0.
     52,   157.990555,   123.276894,           0.
     53,   157.990555,   128.569092,           0.
     54,   157.990555,   133.861282,           0.
     55,   157.990555,   139.153473,           0.
     56,   157.990555,   144.445663,           0.
     57,   157.990555,   149.737854,           0.
     58,   157.990555,   155.030029,           0.
     59,   157.990555,    160.32222,           0.
     60,   157.990555,    165.61441,           0.
     61,   157.990555,   170.906601,           0.
     62,   157.990555,   176.198792,           0.
     63,   157.990555,   181.490982,           0.
     64,   152.724213,   186.783173,           0.
     65,   147.457855,   186.783173,           0.
     66,   142.191498,   186.783173,           0.
     67,   136.925156,   186.783173,           0.
     68,   131.658798,   186.783173,           0.
     69,   126.392448,   186.783173,           0.
     70,   121.126099,   186.783173,           0.
     71,   115.859741,   186.783173,           0.
     72,   110.593391,   186.783173,           0.
     73,   105.327042,   186.783173,           0.
     74,   100.060684,   186.783173,           0.
     75,   94.7943344,   186.783173,           0.
     76,   89.5279846,   186.783173,           0.
     77,   84.2616348,   186.783173,           0.
     78,   78.9952774,   186.783173,           0.
     79,   73.7289276,   186.783173,           0.
     80,   63.1962242,   186.783173,           0.
     81,   57.9298706,   186.783173,           0.
     82,   52.6635208,   186.783173,           0.
     83,   47.3971672,   186.783173,           0.
     84,   42.1308174,   186.783173,           0.
     85,   36.8644638,   186.783173,           0.
     86,   31.5981121,   186.783173,           0.
     87,   26.3317604,   186.783173,           0.
     88,   21.0654087,   186.783173,           0.
     89,   15.7990561,   186.783173,           0.
     90,   10.5327044,   186.783173,           0.
     91,   5.26635218,   186.783173,           0.
     92,           0.,   181.490982,           0.
     93,           0.,   176.198792,           0.
     94,           0.,   170.906601,           0.
     95,           0.,    165.61441,           0.
     96,           0.,    160.32222,           0.
     97,           0.,   155.030029,           0.
     98,           0.,   149.737854,           0.
     99,           0.,   144.445663,           0.
    100,           0.,   139.153473,           0.
    101,           0.,   133.861282,           0.
    102,           0.,   128.569092,           0.
    103,           0.,   123.276894,           0.
    104,           0.,   117.984703,           0.
    105,           0.,    112.69252,           0.
    106,           0.,    107.40033,           0.
    107,           0.,   102.108139,           0.
    108,           0.,   96.8159485,           0.
    109,           0.,   91.5237579,           0.
    110,           0.,   86.2315674,           0.
    111,   5.14995337,   80.9393768,           0.
    112,   10.2999067,   80.9393768,           0.
    113,   15.4498606,   80.9393768,           0.
    114,   20.5998135,   80.9393768,           0.
    115,   25.7497673,   80.9393768,           0.
    116,   30.8997211,   80.9393768,           0.
    117,    36.049675,   80.9393768,           0.
    118,   41.1996269,   80.9393768,           0.
    119,   46.3495789,   80.9393768,           0.
    120,   51.4995346,   80.9393768,           0.
    121,   57.5487061,   85.4600525,           0.
    122,   60.1094627,   89.2924881,           0.
    123,   63.9419022,   91.8532486,           0.
    124,   68.4625778,   63.8088799,           0.
    125,   68.4625778,   58.4914742,           0.
    126,   68.4625778,   53.1740685,           0.
    127,   68.4625778,   47.8566628,           0.
    128,   68.4625778,   42.5392532,           0.
    129,   68.4625778,   37.2218475,           0.
    130,   68.4625778,   31.9044399,           0.
    131,   68.4625778,   26.5870342,           0.
    132,   68.4625778,   21.2696266,           0.
    133,   68.4625778,     15.95222,           0.
    134,   68.4625778,   10.6348133,           0.
    135,   68.4625778,   5.31740665,           0.
    136,   73.7289276,           0.,           0.
    137,   78.9952774,           0.,           0.
    138,   84.2616348,           0.,           0.
    139,   89.5279846,           0.,           0.
    140,   94.7943344,           0.,           0.
    141,   100.060684,           0.,           0.
    142,   105.327042,           0.,           0.
    143,   110.593391,           0.,           0.
    144,   115.859741,           0.,           0.
    145,   121.126099,           0.,           0.
    146,   126.392448,           0.,           0.
    147,   131.658798,           0.,           0.
    148,   136.925156,           0.,           0.
    149,   142.191498,           0.,           0.
    150,   147.457855,           0.,           0.
    151,   152.724213,           0.,           0.
    152,   157.990555,   5.39595842,           0.
    153,   157.990555,   10.7919168,           0.
    154,   157.990555,   16.1878757,           0.
    155,   157.990555,   21.5838337,           0.
    156,   157.990555,   26.9797916,           0.
    157,   157.990555,   32.3757515,           0.
    158,   157.990555,   37.7717094,           0.
    159,   157.990555,   43.1676674,           0.
    160,   157.990555,   48.5636253,           0.
    161,   157.990555,   53.9595833,           0.
    162,   157.990555,   59.3555412,           0.
    163,   157.990555,    64.751503,           0.
    164,   157.990555,   70.1474609,           0.
    165,   157.990555,   75.5434189,           0.
    166,   79.3764496,   76.4187012,           0.
    167,   76.8156891,   72.5862656,           0.
    168,   72.9832458,   70.0255051,           0.
    169,   63.9419022,   70.0255051,           0.
    170,   60.1094627,   72.5862656,           0.
    171,   57.5487061,   76.4187012,           0.
    172,           0.,   75.5434189,           0.
    173,           0.,   70.1474609,           0.
    174,           0.,    64.751503,           0.
    175,           0.,   59.3555412,           0.
    176,           0.,   53.9595833,           0.
    177,           0.,   48.5636253,           0.
    178,           0.,   43.1676674,           0.
    179,           0.,   37.7717094,           0.
    180,           0.,   32.3757515,           0.
    181,           0.,   26.9797916,           0.
    182,           0.,   21.5838337,           0.
    183,           0.,   16.1878757,           0.
    184,           0.,   10.7919168,           0.
    185,           0.,   5.39595842,           0.
    186,   5.26635218,           0.,           0.
    187,   10.5327044,           0.,           0.
    188,   15.7990561,           0.,           0.
    189,   21.0654087,           0.,           0.
    190,   26.3317604,           0.,           0.
    191,   31.5981121,           0.,           0.
    192,   36.8644638,           0.,           0.
    193,   42.1308174,           0.,           0.
    194,   47.3971672,           0.,           0.
    195,   52.6635208,           0.,           0.
    196,   57.9298706,           0.,           0.
    197,   63.1962242,           0.,           0.
    198,   77.2051239,    93.260025,           0.
    199,   83.4785538,   85.3698196,           0.
    200,   73.2397003,   156.359116,           0.
    201,   73.2423248,   150.828888,           0.
    202,   73.2436295,   145.298782,           0.
    203,   73.2443619,   139.767807,           0.
    204,   73.2439346,   134.236404,           0.
    205,   73.2391891,   128.703934,           0.
    206,   73.2198029,   123.168129,           0.
    207,   73.1846924,   117.632828,           0.
    208,   73.1332932,   112.095909,           0.
    209,     73.00354,   106.549965,           0.
    210,   72.9150085,   101.059441,           0.
    211,   72.8959122,   95.8935471,           0.
    212,   80.8878174,   89.6948471,           0.
    213,   110.793243,   85.7051773,           0.
    214,   105.242966,   85.6794891,           0.
    215,   99.6924744,   85.6385498,           0.
    216,   94.1674881,   85.5466385,           0.
    217,   88.6977463,   85.4821701,           0.
    218,   153.437103,    168.24321,           0.
    219,    153.40712,    162.96553,           0.
    220,   153.401382,    157.67569,           0.
    221,   153.400269,   152.383881,           0.
    222,    153.40007,   147.091736,           0.
    223,   153.400101,   141.799561,           0.
    224,   153.400391,   136.507416,           0.
    225,   153.400467,   131.215302,           0.
    226,   153.399414,   125.923332,           0.
    227,   153.396759,   120.631447,           0.
    228,   153.392242,   115.339684,           0.
    229,    153.38652,   110.047821,           0.
    230,   153.375946,    104.75724,           0.
    231,   153.318024,   99.4481812,           0.
    232,   153.127365,   93.9612961,           0.
    233,   153.049988,   88.1747742,           0.
    234,   75.6792603,   181.846802,           0.
    235,   81.4222031,   181.925827,           0.
    236,   86.8718796,   182.128723,           0.
    237,   92.1590576,   182.183548,           0.
    238,   97.4271164,   182.197495,           0.
    239,   102.693878,   182.200516,           0.
    240,   107.960541,   182.202393,           0.
    241,   113.227112,    182.20462,           0.
    242,    118.49353,   182.207306,           0.
    243,   123.759811,   182.209854,           0.
    244,   129.026031,   182.212219,           0.
    245,   134.292252,   182.214035,           0.
    246,    139.68605,   182.131683,           0.
    247,   145.249329,   181.951492,           0.
    248,   150.984619,   181.935303,           0.
    249,   85.9245987,   89.9905396,           0.
    250,   77.5167847,   98.2399597,           0.
    251,   137.080994,   177.575836,           0.
    252,   84.1639709,   177.305191,           0.
    253,   94.7973709,   177.591217,           0.
    254,   105.328461,   177.605621,           0.
    255,   115.862854,    177.61673,           0.
    256,   126.397041,   177.630188,           0.
    257,   110.596252,   177.607712,           0.
    258,   89.4785461,   177.499008,           0.
    259,    100.06189,   177.597351,           0.
    260,   121.130112,   177.621811,           0.
    261,   131.699982,   177.621414,           0.
    262,   142.562546,   177.427933,           0.
    263,   153.466858,   173.473816,           0.
    264,   148.754822,    107.41011,           0.
    265,   148.789185,   117.989494,           0.
    266,   148.808212,   160.322754,           0.
    267,   148.803864,   149.737839,           0.
    268,   148.804733,    139.15329,           0.
    269,   148.551117,   96.8631058,           0.
    270,   153.799744,   177.953094,           0.
    271,    148.80397,   128.570267,           0.
    272,   148.796997,   123.280304,           0.
    273,   148.699066,   102.158791,           0.
    274,   148.772537,   112.700233,           0.
    275,   148.691422,   165.662994,           0.
    276,   148.804428,   155.030167,           0.
    277,    148.80275,   144.445526,           0.
    278,   148.804214,   133.861404,           0.
    279,   77.8098145,   114.813919,           0.
    280,   73.2360535,   161.901016,           0.
    281,   78.0081635,   153.593124,           0.
    282,   77.9782333,   125.918541,           0.
    283,   77.5538788,   103.708023,           0.
    284,   78.0142441,   148.063232,           0.
    285,   78.0173264,   142.533539,           0.
    286,   78.0172501,   137.001389,           0.
    287,   78.0056458,    131.46283,           0.
    288,   77.9034119,   120.360237,           0.
    289,   73.2483368,   172.975098,           0.
    290,   73.2253189,   167.460617,           0.
    291,   77.6635437,    109.24456,           0.
    292,   116.346466,   85.7121811,           0.
    293,   127.457954,   85.7222366,           0.
    294,    121.90287,    85.716011,           0.
    295,   107.983315,   90.4221878,           0.
    296,   102.423592,   90.3430176,           0.
    297,   96.8922272,   90.2301636,           0.
    298,   91.3762207,   90.0822754,           0.
    299,   133.057938,   85.8014221,           0.
    300,     138.6931,   85.8972092,           0.
    301,    144.22554,   85.8443375,           0.
    302,   148.865051,   85.3534012,           0.
    303,   82.6111221,   95.0036011,           0.
    304,   78.2093735,   176.431046,           0.
    305,   147.689178,   90.8820419,           0.
    306,   148.542099,   176.697327,           0.
    307,   82.0893936,   172.940109,           0.
    308,   144.207108,   94.9192429,           0.
    309,   102.697136,   172.985458,           0.
    310,   97.4263077,   172.971466,           0.
    311,   92.0871048,   172.902756,           0.
    312,   139.930786,   173.098862,           0.
    313,   134.466248,   173.085648,           0.
    314,   129.070694,    173.04628,           0.
    315,   107.966942,   172.993149,           0.
    316,   123.775253,   173.032196,           0.
    317,   118.503975,   173.018326,           0.
    318,    113.23613,   173.003494,           0.
    319,   86.7596283,   172.782028,           0.
    320,   144.201691,   136.506714,           0.
    321,   144.199509,   141.798874,           0.
    322,     144.1996,   147.091705,           0.
    323,   144.201904,   152.384766,           0.
    324,   144.186874,   157.703979,           0.
    325,   144.066574,   162.933777,           0.
    326,   144.200043,   131.217041,           0.
    327,    144.19368,   125.929901,           0.
    328,   144.180862,    120.64325,           0.
    329,   144.159668,   115.356705,           0.
    330,   144.131088,   110.069702,           0.
    331,   144.083969,   104.819618,           0.
    332,   143.987961,   99.5252075,           0.
    333,   148.726166,   170.984573,           0.
    334,   113.545494,   90.4549026,           0.
    335,   77.9921494,   159.120636,           0.
    336,   78.0242081,    170.38736,           0.
    337,   82.7385178,    128.66391,           0.
    338,   82.7701416,   134.222061,           0.
    339,   82.7788773,   139.765472,           0.
    340,   82.7772446,   145.296982,           0.
    341,   82.7646179,   150.801285,           0.
    342,   82.6513977,   123.081619,           0.
    343,   82.1924438,    106.39534,           0.
    344,   82.3629227,    111.95253,           0.
    345,   82.5198441,   117.503296,           0.
    346,   78.1016083,   164.749969,           0.
    347,   124.673744,   90.4880829,           0.
    348,    130.25795,    90.604744,           0.
    349,   141.637299,   90.7827454,           0.
    350,   135.934799,   90.7979279,           0.
    351,   105.122337,   95.0765686,           0.
    352,   99.5839157,   94.9259491,           0.
    353,   94.0634995,   94.8782654,           0.
    354,   119.111969,    90.470314,           0.
    355,   82.1101379,   100.919403,           0.
    356,   83.4531631,   167.859818,           0.
    357,   139.014923,   96.1813583,           0.
    358,   89.3273926,   168.279678,           0.
    359,   126.407722,   168.441956,           0.
    360,   131.836945,   168.444565,           0.
    361,   137.363708,   168.595703,           0.
    362,   121.145744,   168.417877,           0.
    363,   115.880424,   168.395248,           0.
    364,   94.6742325,   168.313354,           0.
    365,   100.034309,   168.338379,           0.
    366,   110.611313,   168.374451,           0.
    367,   105.332878,   168.354965,           0.
    368,    88.556488,   94.7865677,           0.
    369,   144.629349,   173.358078,           0.
    370,   139.278915,   107.401413,           0.
    371,    139.54454,   118.018097,           0.
    372,   139.568359,   123.298409,           0.
    373,   139.587753,   133.862488,           0.
    374,   139.474976,    112.72953,           0.
    375,   139.191528,   102.019264,           0.
    376,   139.580597,   128.578979,           0.
    377,   143.320526,   168.497955,           0.
    378,   139.587097,   139.152496,           0.
    379,    139.58812,    144.44577,           0.
    380,    139.59201,   149.740173,           0.
    381,   139.578262,    155.06723,           0.
    382,   139.567719,    160.29538,           0.
    383,    110.71183,   95.1569138,           0.
    384,   86.2225876,   98.8852692,           0.
    385,   82.8928146,   156.303909,           0.
    386,   87.0930634,   114.624191,           0.
    387,   86.8531189,   109.069221,           0.
    388,   87.4979248,   131.413239,           0.
    389,   87.5239792,   136.985138,           0.
    390,   87.5282288,   142.528061,           0.
    391,   87.5276337,   148.019562,           0.
    392,   82.9870987,   161.869537,           0.
    393,   132.973969,   95.4106674,           0.
    394,   127.433182,   95.2737045,           0.
    395,   121.878967,   95.2245026,           0.
    396,   102.275803,   99.6565704,           0.
    397,   96.9072876,   99.5714874,           0.
    398,   87.4116669,   125.802742,           0.
    399,    87.270874,   120.192207,           0.
    400,   116.302734,   95.1942673,           0.
    401,   72.8124237,   177.645126,           0.
    402,   91.2142334,    100.20842,           0.
    403,   91.8984833,   163.778046,           0.
    404,   134.800812,    163.37767,           0.
    405,   129.056534,   163.890839,           0.
    406,   123.807251,   163.853287,           0.
    407,   118.535187,   163.795166,           0.
    408,   97.3130493,   163.734421,           0.
    409,   113.263924,   163.755951,           0.
    410,   102.676735,   163.715118,           0.
    411,   107.982117,   163.727783,           0.
    412,   134.950333,   125.949715,           0.
    413,   134.960205,   131.224655,           0.
    414,   134.923126,    120.68042,           0.
    415,   134.658478,   110.224968,           0.
    416,   133.770111,   104.623238,           0.
    417,   134.847076,    115.42392,           0.
    418,   135.001495,   147.059891,           0.
    419,   134.907852,    152.34819,           0.
    420,   134.964645,   136.507782,           0.
    421,   134.976105,   141.788589,           0.
    422,   134.936249,   157.653992,           0.
    423,   139.823868,   164.740097,           0.
    424,   86.6345291,   103.607056,           0.
    425,   107.849106,   99.8089981,           0.
    426,   87.6396866,     153.3694,           0.
    427,   92.2481003,   134.175018,           0.
    428,   92.2654724,   139.747849,           0.
    429,   91.5803146,   111.524948,           0.
    430,   92.2618942,   145.263077,           0.
    431,   130.264511,   99.9266052,           0.
    432,   88.4348373,   159.130585,           0.
    433,   124.739677,   99.9661484,           0.
    434,   119.125862,   99.9591522,           0.
    435,   91.8762131,   117.167671,           0.
    436,   92.1739502,    128.53833,           0.
    437,   99.4033127,   104.258514,           0.
    438,   113.481102,     99.89431,           0.
    439,   92.0452805,   122.860718,           0.
    440,   135.043015,    99.632225,           0.
    441,   94.4615021,   159.141495,           0.
    442,   126.467857,   159.443314,           0.
    443,   121.221703,   159.280472,           0.
    444,    115.93399,   159.163406,           0.
    445,   130.321732,   128.597092,           0.
    446,   130.297562,   123.337624,           0.
    447,   99.9616241,   158.988998,           0.
    448,   110.650215,   159.102203,           0.
    449,   130.260986,   118.103012,           0.
    450,    105.35788,   159.059616,           0.
    451,   130.159058,   112.959328,           0.
    452,   130.298492,   108.470016,           0.
    453,   130.330109,   133.869598,           0.
    454,   91.1802368,   106.023972,           0.
    455,   130.400223,   149.502686,           0.
    456,   129.733932,   155.004868,           0.
    457,   130.397415,   144.362579,           0.
    458,   130.351776,   139.134262,           0.
    459,   87.2201996,   164.183533,           0.
    460,    104.88839,   104.644333,           0.
    461,   92.2392731,   150.631653,           0.
    462,   97.0253983,   137.014038,           0.
    463,   97.0009384,   142.675308,           0.
    464,   127.720009,   104.614853,           0.
    465,   122.026535,    104.75135,           0.
    466,   96.4675674,   113.912033,           0.
    467,   116.286331,   104.652412,           0.
    468,   96.9413986,   131.318878,           0.
    469,   96.6541824,    119.80027,           0.
    470,   110.595619,   104.625664,           0.
    471,   96.8144226,    125.57988,           0.
    472,   125.664551,   125.986504,           0.
    473,   125.649788,   120.747711,           0.
    474,   124.084328,   154.992828,           0.
    475,   97.0277939,   153.811661,           0.
    476,    125.68132,    131.24324,           0.
    477,   125.616928,   115.553154,           0.
    478,     118.8451,   154.475937,           0.
    479,   113.438553,   154.209229,           0.
    480,   125.189278,   109.900139,           0.
    481,   108.044014,   154.336761,           0.
    482,   102.749207,   154.369934,           0.
    483,   125.701714,   136.508713,           0.
    484,   95.8448639,    108.24295,           0.
    485,   126.047478,   147.009247,           0.
    486,   125.805374,   141.823654,           0.
    487,   96.8237991,   148.090698,           0.
    488,   101.563232,   110.150253,           0.
    489,   101.879616,    140.15863,           0.
    490,    119.07637,   109.495476,           0.
    491,   101.758766,   134.244095,           0.
    492,   113.304047,   109.524689,           0.
    493,    101.37542,   116.558563,           0.
    494,   101.618843,   128.377136,           0.
    495,   101.580231,   122.440048,           0.
    496,   107.640076,   109.497299,           0.
    497,   130.999084,    159.87413,           0.
    498,   120.927429,   123.260544,           0.
    499,    120.97963,   118.061569,           0.
    500,   120.916336,   128.538864,           0.
    501,   122.194656,   150.197586,           0.
    502,   116.509666,      148.597,           0.
    503,   100.699844,   150.390106,           0.
    504,   120.939453,   133.869904,           0.
    505,   110.513702,   149.260574,           0.
    506,   105.140503,   149.686127,           0.
    507,   126.492119,   151.341446,           0.
    508,   121.075516,   139.303604,           0.
    509,   121.366791,   144.863419,           0.
    510,   94.9099884,   103.661072,           0.
    511,   91.9606171,   155.216965,           0.
    512,   101.462875,   145.808533,           0.
    513,   106.733452,   137.223114,           0.
    514,   116.145256,   114.787018,           0.
    515,   106.483047,   131.238266,           0.
    516,   106.876312,   119.060379,           0.
    517,   110.243088,   114.168434,           0.
    518,   106.504288,   125.373001,           0.
    519,   121.401497,   113.559471,           0.
    520,   116.245506,   120.483925,           0.
    521,    116.11142,   125.761948,           0.
    522,   116.096809,   131.178116,           0.
    523,   107.163231,   143.821564,           0.
    524,   116.300514,   136.737686,           0.
    525,   116.610825,   142.352615,           0.
    526,   105.539627,   113.886986,           0.
    527,   111.439789,   134.078918,           0.
    528,   111.321251,   128.411514,           0.
    529,   111.519569,   122.891197,           0.
    530,    111.80175,     139.8358,           0.
    531,   112.205948,   118.278191,           0.
    532,   112.519836,   144.773514,           0.
    533,   55.8450699,   89.4988403,           0.
    534,   59.0093117,   93.7730484,           0.
    535,   53.5454597,   85.2793884,           0.
    536,   28.3266487,   85.4121094,           0.
    537,     17.96171,   85.4513779,           0.
    538,   23.1631374,   85.4239883,           0.
    539,   33.4786568,   85.4022141,           0.
    540,   38.6289291,   85.3878555,           0.
    541,   43.7172432,    85.355896,           0.
    542,   48.6908798,   85.3342896,           0.
    543,   28.9615536,   182.213959,           0.
    544,   34.2284737,   182.209198,           0.
    545,   39.4956474,   182.203003,           0.
    546,   44.7620697,   182.195877,           0.
    547,   50.1409912,   182.060822,           0.
    548,   55.6805382,   181.802963,           0.
    549,   61.4159546,   181.730286,           0.
    550,   4.59206676,   131.215149,           0.
    551,   4.59225798,   136.507477,           0.
    552,   4.59130239,   141.799896,           0.
    553,   4.58928394,   147.092285,           0.
    554,   4.58691978,    152.38443,           0.
    555,   4.58475256,   157.676483,           0.
    556,   4.58316517,   162.968613,           0.
    557,   4.66314888,   168.393906,           0.
    558,   4.83281851,   173.991028,           0.
    559,    4.8362112,   179.754486,           0.
    560,   4.25133562,   89.6150208,           0.
    561,   4.58088207,   99.4187164,           0.
    562,   4.58305597,     104.7463,           0.
    563,   4.58722782,   110.044502,           0.
    564,   4.59048986,   115.338074,           0.
    565,   4.59200811,   120.630615,           0.
    566,   4.59305286,   125.922913,           0.
    567,   63.6828423,   139.767975,           0.
    568,   63.6871185,   156.358185,           0.
    569,   63.6860008,   150.828461,           0.
    570,   63.6856689,   145.298843,           0.
    571,   63.6826744,   134.236679,           0.
    572,   63.6825752,   128.705399,           0.
    573,   63.6856384,   123.173355,           0.
    574,   63.7002563,   117.639481,           0.
    575,   63.8247147,   106.612175,           0.
    576,   63.9220963,   101.236137,           0.
    577,   63.7428551,   112.113686,           0.
    578,   63.8920059,   96.1146393,           0.
    579,   51.0940552,   89.6600418,           0.
    580,   41.1161079,   89.8675232,           0.
    581,     36.04319,   89.8750458,           0.
    582,   6.97847843,   85.6621246,           0.
    583,   20.4977798,   89.9601669,           0.
    584,    12.569006,    85.640419,           0.
    585,   30.9080601,   89.8909531,           0.
    586,   25.7352467,   89.9137878,           0.
    587,   46.1376572,   89.8011703,           0.
    588,   59.5128174,   98.9446259,           0.
    589,   23.6958981,   182.215866,           0.
    590,   18.4541245,   182.245636,           0.
    591,   13.2571077,   182.262115,           0.
    592,   8.79876041,   182.584641,           0.
    593,   47.5111771,     177.4702,           0.
    594,   42.1416435,   177.580826,           0.
    595,   36.8564835,   177.613449,           0.
    596,   31.5904713,   177.630966,           0.
    597,   52.9532661,   177.196579,           0.
    598,   4.56079865,   94.1451569,           0.
    599,   9.19243717,   133.861603,           0.
    600,   9.22347927,   165.766327,           0.
    601,   9.18691444,   144.447998,           0.
    602,   9.17453194,   155.032257,           0.
    603,   9.27006435,   102.013359,           0.
    604,   9.19241905,   123.276474,           0.
    605,   9.18253422,   112.689209,           0.
    606,   9.19198227,   139.154877,           0.
    607,   9.35315514,   171.267624,           0.
    608,   9.18196297,   149.740936,           0.
    609,   9.17951584,   160.349213,           0.
    610,   9.19462967,   128.568954,           0.
    611,   9.19030476,   117.983154,           0.
    612,   9.19012356,   107.378853,           0.
    613,   63.6984024,   161.892288,           0.
    614,   58.9120598,   137.002899,           0.
    615,   58.9216957,   153.590866,           0.
    616,   58.9163132,    125.93647,           0.
    617,   58.9402237,   120.394768,           0.
    618,   63.7651176,   167.415482,           0.
    619,   63.8460464,   172.891724,           0.
    620,    64.223999,   177.579117,           0.
    621,   58.9136543,   131.470703,           0.
    622,    58.918808,   148.062424,           0.
    623,   58.9170303,   142.533844,           0.
    624,   59.3190308,   104.029701,           0.
    625,   58.9924736,   114.857826,           0.
    626,   59.0990753,   109.377579,           0.
    627,   53.6850624,   93.7458038,           0.
    628,   10.0592899,   177.284103,           0.
    629,   58.9136848,    176.32254,           0.
    630,   9.40989685,   90.8649673,           0.
    631,   23.0760536,   94.4008026,           0.
    632,   28.3232746,   94.3954697,           0.
    633,   43.6883698,   94.3363419,           0.
    634,   38.6024132,   94.3746719,           0.
    635,    33.490612,   94.3836441,           0.
    636,   15.2183752,   90.1116486,           0.
    637,   21.0888901,   177.519272,           0.
    638,   15.7890167,   177.486389,           0.
    639,   34.2039528,   173.018509,           0.
    640,   39.4724617,   172.994293,           0.
    641,   44.8648567,   172.892532,           0.
    642,   50.2819176,   172.722336,           0.
    643,   26.3582211,   177.630188,           0.
    644,   9.24721146,   96.6234283,           0.
    645,   13.8024063,   136.509796,           0.
    646,    13.805603,   131.215607,           0.
    647,   13.7995453,   120.627892,           0.
    648,   13.8056116,   125.921967,           0.
    649,   13.7885208,   115.330231,           0.
    650,   13.7530718,   163.136398,           0.
    651,   13.7660742,   157.714142,           0.
    652,   13.7348652,   168.630692,           0.
    653,     13.79772,   141.805237,           0.
    654,   13.7765636,   152.397354,           0.
    655,   13.7795916,    109.99218,           0.
    656,   13.7888784,   147.100876,           0.
    657,    13.856739,   104.699043,           0.
    658,    58.933712,   159.116531,           0.
    659,    59.035862,   170.313171,           0.
    660,   54.1531601,   134.237854,           0.
    661,   54.1589508,    128.69931,           0.
    662,   54.1854744,     123.1465,           0.
    663,   54.1580009,   139.769791,           0.
    664,    54.166256,   150.821793,           0.
    665,   54.1632385,   145.296951,           0.
    666,   54.2501106,   117.596085,           0.
    667,    54.579361,   106.675049,           0.
    668,   54.3992729,   112.122879,           0.
    669,   58.8652115,   164.726837,           0.
    670,   48.7854424,   94.1044922,           0.
    671,   36.0695457,   98.9249496,           0.
    672,   41.2201805,   98.9176407,           0.
    673,   25.7079124,    98.951973,           0.
    674,   30.9471645,   98.9024353,           0.
    675,   17.8134975,   94.4149246,           0.
    676,    23.844595,   172.879501,           0.
    677,   42.2178612,   168.332993,           0.
    678,   18.3000774,   172.069275,           0.
    679,   47.6697044,    168.27005,           0.
    680,   36.8413467,   168.374802,           0.
    681,   14.5490627,   99.0425797,           0.
    682,   13.4472809,    173.34761,           0.
    683,   18.3919754,   149.756561,           0.
    684,   18.3572769,   155.030106,           0.
    685,   18.3804092,   160.477783,           0.
    686,   18.4219151,   123.271233,           0.
    687,   18.4283714,   128.567703,           0.
    688,   18.4278831,   133.864395,           0.
    689,   18.2409401,   166.043472,           0.
    690,   18.4063225,    117.96875,           0.
    691,   18.4098186,   144.461075,           0.
    692,   18.3722305,   112.578064,           0.
    693,   18.4224777,    139.16301,           0.
    694,   28.9765873,   172.982346,           0.
    695,   18.3107033,   107.262665,           0.
    696,   54.9576149,   172.868469,           0.
    697,   55.0986404,   101.451958,           0.
    698,   54.0150871,   156.368423,           0.
    699,   49.9320908,   109.434029,           0.
    700,   49.4191704,   148.075226,           0.
    701,   49.4126625,   131.463959,           0.
    702,   49.4381599,    125.90081,           0.
    703,   49.4168396,   142.535553,           0.
    704,   49.4149971,   137.003189,           0.
    705,   53.5639534,   167.839462,           0.
    706,   53.9756088,   161.911545,           0.
    707,   49.5156097,   120.332138,           0.
    708,   49.7107582,   114.825119,           0.
    709,   51.5916672,   98.1769791,           0.
    710,   33.5985336,   103.500092,           0.
    711,   38.7880516,   103.545723,           0.
    712,   28.4793873,    103.43734,           0.
    713,   13.2476082,   94.2115097,           0.
    714,   20.3563042,   98.8967896,           0.
    715,   46.4680138,   98.7819061,           0.
    716,   26.4336109,   168.325516,           0.
    717,    45.032711,   163.870163,           0.
    718,   22.0312748,   168.546616,           0.
    719,     39.57061,    163.79686,           0.
    720,   18.0048428,    102.77446,           0.
    721,   22.9375553,   152.402908,           0.
    722,   22.8593445,   157.711838,           0.
    723,   23.0578403,    125.91452,           0.
    724,   23.2581787,   120.526588,           0.
    725,   23.0635872,   131.216476,           0.
    726,   23.3830929,   163.524521,           0.
    727,   23.0090694,    147.12233,           0.
    728,    23.059494,   136.519318,           0.
    729,   23.0436649,   141.822784,           0.
    730,   23.2607574,   115.000053,           0.
    731,   22.8682861,   109.649086,           0.
    732,   31.6013069,   168.370926,           0.
    733,   49.6549187,   103.616341,           0.
    734,   49.2919083,   153.501907,           0.
    735,   44.7422256,    128.68602,           0.
    736,   44.8002014,   145.228867,           0.
    737,   49.7470284,   164.233932,           0.
    738,    44.819191,   134.243866,           0.
    739,   44.8759346,   139.697006,           0.
    740,   45.2933884,   111.815796,           0.
    741,   48.4888306,   159.264984,           0.
    742,   44.7688408,   123.052742,           0.
    743,   44.8008652,   117.299355,           0.
    744,   22.9063969,   104.045303,           0.
    745,   43.9727135,   103.383209,           0.
    746,   55.7794991,    97.218483,           0.
    747,   36.2969093,    108.25975,           0.
    748,   30.9775944,   107.837006,           0.
    749,   28.9296494,   163.818161,           0.
    750,   42.4389687,   159.206161,           0.
    751,   27.4162865,   155.399536,           0.
    752,   27.7158947,    150.04718,           0.
    753,   27.5357304,   128.595963,           0.
    754,   27.7271481,   123.292625,           0.
    755,   27.5803528,   133.940765,           0.
    756,   27.6100597,   144.549194,           0.
    757,    27.580061,   139.226044,           0.
    758,   28.8341789,   117.535233,           0.
    759,   27.6223793,   111.684753,           0.
    760,   34.1579857,   163.748566,           0.
    761,   44.7627983,    150.65831,           0.
    762,   40.3796997,   131.435394,           0.
    763,   40.5013733,   142.285324,           0.
    764,   40.5095978,    136.85556,           0.
    765,   40.2791977,   125.867737,           0.
    766,   39.4416008,   113.765709,           0.
    767,   40.0018768,   120.211639,           0.
    768,   41.6425705,   108.017799,           0.
    769,   33.0100136,   112.861603,           0.
    770,   26.5708084,   107.330696,           0.
    771,   33.0483093,   153.425842,           0.
    772,   31.8602276,    131.33638,           0.
    773,   31.7909527,   126.093803,           0.
    774,   32.1601257,   147.289291,           0.
    775,   31.9239445,   136.630402,           0.
    776,   31.9680309,   141.945709,           0.
    777,   31.8146095,    121.64119,           0.
    778,   36.7043991,   158.845245,           0.
    779,   31.1691532,   159.173279,           0.
    780,   40.3987846,   147.641205,           0.
    781,   44.9531975,   155.279984,           0.
    782,   36.0623322,   128.668167,           0.
    783,   35.8060646,   123.428284,           0.
    784,    34.818058,   118.240608,           0.
    785,   26.7515049,   159.925461,           0.
    786,   39.7954483,   153.482391,           0.
    787,   46.0991364,   107.253433,           0.
    788,   36.1644363,   134.053192,           0.
    789,   36.3371696,   149.284973,           0.
    790,   36.2693863,   144.639954,           0.
    791,   36.2227936,   139.401688,           0.
    792,   72.8222198,   66.0695801,           0.
    793,   80.7515717,   72.2278671,           0.
    794,   73.0259476,   45.2120361,           0.
    795,   72.9859238,    50.531086,           0.
    796,   72.9049454,   55.8219948,           0.
    797,   72.8783722,   61.0670242,           0.
    798,   150.794769,   4.84360123,           0.
    799,   145.062302,   4.79577637,           0.
    800,   139.601456,   4.62565279,           0.
    801,   134.298798,   4.58199787,           0.
    802,   129.025635,   4.57000732,           0.
    803,   123.758377,   4.56426382,           0.
    804,   118.492683,   4.56133652,           0.
    805,    113.22673,    4.5606389,           0.
    806,   107.960533,   4.56092596,           0.
    807,   102.694252,   4.56182861,           0.
    808,   97.4279099,   4.56320858,           0.
    809,   92.1615372,   4.56495476,           0.
    810,    86.868454,   4.61115265,           0.
    811,   81.3874207,   4.76467657,           0.
    812,   75.6304626,   4.79094791,           0.
    813,    152.98259,   73.6035919,           0.
    814,    153.33017,   51.2567329,           0.
    815,   153.333313,   45.8635635,           0.
    816,   153.333191,   40.4695282,           0.
    817,   153.332306,   35.0738602,           0.
    818,   153.332581,    29.677721,           0.
    819,    153.33371,   24.2814789,           0.
    820,   153.269913,   18.8433666,           0.
    821,   153.252792,   13.4721518,           0.
    822,   144.103653,   76.1147156,           0.
    823,   110.784576,   76.2009964,           0.
    824,   105.237923,     76.23172,           0.
    825,   99.6924362,   76.2716293,           0.
    826,   94.1261597,   76.3960266,           0.
    827,   88.6065063,   76.4898605,           0.
    828,   83.4183884,   76.5130844,           0.
    829,     77.14431,   68.6064072,           0.
    830,   85.7435684,   71.9217911,           0.
    831,   100.062477,   9.12644768,           0.
    832,   121.123016,   9.12902927,           0.
    833,   110.594398,   9.12301159,           0.
    834,   89.5422134,    9.1681776,           0.
    835,   131.654968,   9.15022945,           0.
    836,   136.986389,   9.19579029,           0.
    837,   84.2414551,   9.28292847,           0.
    838,   94.7986221,   9.13593102,           0.
    839,   105.328514,    9.1245966,           0.
    840,     115.8592,   9.12508297,           0.
    841,   126.386986,   9.13955688,           0.
    842,   142.344849,   9.35294724,           0.
    843,   77.3356781,   63.7200928,           0.
    844,   73.0427628,   39.8918304,           0.
    845,   73.0582123,   29.2474594,           0.
    846,   77.5379105,   47.9157219,           0.
    847,   73.1529312,   23.9056492,           0.
    848,   73.2845612,   18.5489731,           0.
    849,   73.2717438,   13.2653589,           0.
    850,   72.8126678,   8.80171299,           0.
    851,   77.4296341,   53.2120819,           0.
    852,   73.0514297,   34.5690346,           0.
    853,   77.3312836,   58.4708328,           0.
    854,   153.299698,   56.6500778,           0.
    855,   153.239044,   62.0713425,           0.
    856,   153.027756,   67.7104797,           0.
    857,   148.678314,   48.5544395,           0.
    858,    148.68428,   37.7727242,           0.
    859,   148.684555,   32.3758125,           0.
    860,   148.686295,   26.9786377,           0.
    861,   148.516632,   21.4772968,           0.
    862,   148.685074,   43.1654091,           0.
    863,    148.46344,    15.987668,           0.
    864,   138.590317,   76.1331558,           0.
    865,   107.964333,   71.5261078,           0.
    866,   133.019257,   76.1499405,           0.
    867,   121.886963,   76.1718292,           0.
    868,   116.331985,   76.1884384,           0.
    869,   102.413559,   71.6101151,           0.
    870,   96.8198929,    71.762291,           0.
    871,   91.2515869,   71.8724823,           0.
    872,   82.3982925,   66.8994675,           0.
    873,   148.266357,   10.1259127,           0.
    874,   78.2831192,   10.0126715,           0.
    875,   77.5973282,   42.5823212,           0.
    876,   113.226059,   13.6904736,           0.
    877,   92.1696472,   13.7256279,           0.
    878,   107.962219,   13.6895304,           0.
    879,   118.486885,   13.6972246,           0.
    880,   86.8946533,   13.7249861,           0.
    881,   97.4314651,   13.7015028,           0.
    882,   102.697433,    13.692543,           0.
    883,   134.391052,   13.7214375,           0.
    884,   139.741028,   13.7374754,           0.
    885,     123.7472,   13.7093639,           0.
    886,   129.039413,   13.7152872,           0.
    887,   82.2312393,    13.455101,           0.
    888,   77.8128815,   26.6190128,           0.
    889,   78.1229553,   15.8227396,           0.
    890,   78.0804138,   21.2537689,           0.
    891,   77.6800919,    31.926342,           0.
    892,   81.9837875,   50.6389961,           0.
    893,   81.8397522,   55.9504852,           0.
    894,    77.633728,   37.2486763,           0.
    895,   148.641769,   53.9361916,           0.
    896,   144.042297,   29.6528435,           0.
    897,   144.046143,   35.0710487,           0.
    898,   143.909607,    24.262022,           0.
    899,   144.044968,   40.4673424,           0.
    900,   143.113388,   18.4690704,           0.
    901,    144.03508,   45.8514481,           0.
    902,   148.550491,   59.3870277,           0.
    903,   113.513374,    71.478157,           0.
    904,    141.47522,    71.196991,           0.
    905,   127.450294,   76.1635208,           0.
    906,   93.9160004,   67.1010208,           0.
    907,   99.5294495,   67.0467682,           0.
    908,   105.092209,   66.9212952,           0.
    909,   135.826996,   71.1643143,           0.
    910,   119.071686,   71.4435654,           0.
    911,   153.659012,   8.92590809,           0.
    912,    88.337059,   67.1831818,           0.
    913,   148.350525,   64.8922501,           0.
    914,   147.536087,   70.9949112,           0.
    915,   83.4610138,   18.4335823,           0.
    916,   81.8486481,   61.1966591,           0.
    917,   82.1138535,    45.305027,           0.
    918,   121.107613,   18.2805958,           0.
    919,    126.36544,   18.2747288,           0.
    920,    137.19902,   18.3171654,           0.
    921,   105.331635,   18.2583351,           0.
    922,   110.592918,   18.2606697,           0.
    923,    89.310112,   18.3514786,           0.
    924,   100.066154,   18.2643528,           0.
    925,   94.6852798,   18.4222851,           0.
    926,   115.850807,   18.2688885,           0.
    927,    131.75116,   18.3966522,           0.
    928,    143.80162,   62.1672363,           0.
    929,   144.385818,   13.5346146,           0.
    930,   82.5795517,   24.1272659,           0.
    931,   82.3552551,   29.3521481,           0.
    932,    86.490921,   53.4204445,           0.
    933,   82.2520828,   34.6210136,           0.
    934,    82.189476,   39.9521599,           0.
    935,   143.995819,   51.2323112,           0.
    936,   139.646255,   22.2872696,           0.
    937,   139.426498,   32.3202629,           0.
    938,   139.420242,   26.9353333,           0.
    939,   139.417053,    37.753891,           0.
    940,   139.395523,   43.1467667,           0.
    941,   143.910843,   56.6777649,           0.
    942,   110.658455,   66.8225632,           0.
    943,   124.639954,   71.4136505,           0.
    944,   85.9413223,   63.2159996,           0.
    945,   130.193695,   71.3301544,           0.
    946,   138.858887,    65.643692,           0.
    947,   102.215271,   62.3680878,           0.
    948,   96.7653046,   62.4647064,           0.
    949,   116.228767,   66.7556381,           0.
    950,   148.790054,   76.5183945,           0.
    951,    86.322998,   58.6538429,           0.
    952,   139.064758,   59.5841446,           0.
    953,   123.746452,   22.8672905,           0.
    954,   86.6352539,   48.0620728,           0.
    955,   118.487976,   22.8659172,           0.
    956,   102.642609,   22.8372803,           0.
    957,   97.3408127,   22.9471684,           0.
    958,   107.941109,   22.8356609,           0.
    959,   91.6614456,    23.621769,           0.
    960,    113.21637,   22.8468361,           0.
    961,    128.98172,   22.9507122,           0.
    962,   134.683426,   23.6487083,           0.
    963,    86.928093,   26.7960205,           0.
    964,   86.8236008,   32.0185966,           0.
    965,   86.7799301,   37.3238029,           0.
    966,   91.0105362,   61.8885918,           0.
    967,   139.329147,   48.5338287,           0.
    968,   139.073471,   54.0493889,           0.
    969,   144.004471,   66.9790115,           0.
    970,   86.7229538,   42.6882553,           0.
    971,   134.822754,    29.546402,           0.
    972,   134.739075,   35.0313683,           0.
    973,   134.781677,   40.4733047,           0.
    974,    107.76683,   62.2192383,           0.
    975,   132.869171,   66.4526672,           0.
    976,   121.808655,   66.7051163,           0.
    977,   99.2520905,      57.8848,           0.
    978,   127.356277,   66.6209183,           0.
    979,    113.35524,   62.1078873,           0.
    980,   86.7880402,   22.2660236,           0.
    981,    133.59024,   57.0725288,           0.
    982,   121.164528,   27.4639587,           0.
    983,   115.865799,   27.4540138,           0.
    984,   126.396484,   27.4357376,           0.
    985,   99.9139175,   27.3297958,           0.
    986,   105.239052,   27.3648281,           0.
    987,   95.3542633,   27.0415726,           0.
    988,   110.563164,   27.4148102,           0.
    989,   91.1830215,   50.9893913,           0.
    990,   91.4434814,   34.7008629,           0.
    991,    91.464798,   29.3482227,           0.
    992,   134.451401,   51.2449837,           0.
    993,   134.669678,   45.8710747,           0.
    994,    91.332901,   40.1228714,           0.
    995,   94.7335205,   58.5066376,           0.
    996,   130.193893,     37.88554,           0.
    997,   129.585114,   32.1416664,           0.
    998,    130.89389,   27.1446457,           0.
    999,   104.720016,   57.4281425,           0.
   1000,   118.979355,   62.0361443,           0.
   1001,     91.30793,     45.59655,           0.
   1002,    124.57859,   61.9826584,           0.
   1003,   130.124908,   61.9292831,           0.
   1004,   110.436455,    57.219471,           0.
   1005,   96.6520157,   31.9124279,           0.
   1006,   90.8979416,   56.2662506,           0.
   1007,   118.493187,   32.1185074,           0.
   1008,   130.077911,   53.2484169,           0.
   1009,   123.829613,    32.061203,           0.
   1010,   113.153015,   31.9989548,           0.
   1011,   102.438065,   31.7407551,           0.
   1012,   107.781616,    31.880621,           0.
   1013,   95.5603409,    54.097702,           0.
   1014,   129.940735,   48.5632172,           0.
   1015,   130.106598,   43.1986351,           0.
   1016,   134.901596,   62.1364632,           0.
   1017,   96.1249313,   37.6475029,           0.
   1018,    101.19828,   52.1046486,           0.
   1019,   116.111465,    57.091217,           0.
   1020,   96.1188049,   43.1166763,           0.
   1021,   95.9880142,   48.6746864,           0.
   1022,   127.522888,   57.2441635,           0.
   1023,   121.828003,   57.0499611,           0.
   1024,   107.310898,   52.1472588,           0.
   1025,   124.972855,   51.6753502,           0.
   1026,   100.278481,   35.6086273,           0.
   1027,   115.607094,   36.5817451,           0.
   1028,   104.915848,   36.1484146,           0.
   1029,   110.275764,   36.3729172,           0.
   1030,   125.502144,   45.7577629,           0.
   1031,   125.701546,   40.5064926,           0.
   1032,   112.703743,   41.0770493,           0.
   1033,   107.222054,   40.7676392,           0.
   1034,   121.174942,   37.2644691,           0.
   1035,   121.218414,   42.9757919,           0.
   1036,   101.413094,   40.5356445,           0.
   1037,   113.071709,   51.7882271,           0.
   1038,   118.923256,   51.8838539,           0.
   1039,   100.701302,    46.143383,           0.
   1040,   104.663353,   48.1810226,           0.
   1041,   126.097023,   35.9718742,           0.
   1042,   109.422264,    46.331871,           0.
   1043,    117.40329,   40.7886887,           0.
   1044,   121.385788,   47.6674271,           0.
   1045,    116.30407,   46.0732727,           0.
   1046,   104.684418,   44.3919106,           0.
   1047,   63.6805077,   7.12882662,           0.
   1048,   59.7452011,   68.6891556,           0.
   1049,   53.6902046,   76.5609207,           0.
   1050,   63.8341942,   23.8977432,           0.
   1051,   63.8541489,    29.240694,           0.
   1052,   63.8578453,    34.563961,           0.
   1053,   63.8667679,   39.8862228,           0.
   1054,   63.8907394,   45.2135925,           0.
   1055,   63.9460297,   50.5482063,           0.
   1056,   64.0011749,   55.8765755,           0.
   1057,   64.0223694,   61.1377029,           0.
   1058,   64.0330505,   66.1137466,           0.
   1059,   56.1821136,   72.2712021,           0.
   1060,   6.98107529,   76.0940018,           0.
   1061,   12.5964499,   76.1624451,           0.
   1062,   17.9477901,   76.3540421,           0.
   1063,   23.1537743,    76.435257,           0.
   1064,   28.3259315,   76.4739609,           0.
   1065,   33.4846382,    76.504303,           0.
   1066,   38.6266747,   76.5491791,           0.
   1067,   43.7498627,   76.5810089,           0.
   1068,   48.8331528,   76.5705643,           0.
   1069,    4.6207552,    13.518568,           0.
   1070,   4.68047523,   18.8566437,           0.
   1071,   4.69294596,   24.2604904,           0.
   1072,   4.67978811,   29.6692371,           0.
   1073,   4.67070675,   35.0715752,           0.
   1074,   4.66544247,   40.4702911,           0.
   1075,   4.66043282,   45.8676529,           0.
   1076,   4.65732193,   51.2685661,           0.
   1077,   4.67976952,   56.6989594,           0.
   1078,   4.69256258,   62.1410065,           0.
   1079,   4.64622736,   67.5003891,           0.
   1080,   55.2871857,   4.60704803,           0.
   1081,   34.2341766,   4.57556868,           0.
   1082,   28.9619122,   4.58142328,           0.
   1083,   23.6508446,   4.61223555,           0.
   1084,   18.2804775,   4.69273233,           0.
   1085,   12.7759962,   4.87346029,           0.
   1086,   7.05319738,   4.90874338,           0.
   1087,   20.5435352,   71.8947296,           0.
   1088,   36.0706406,   72.1199875,           0.
   1089,   25.7471523,   71.9842453,           0.
   1090,   30.9251633,   72.0470428,           0.
   1091,   41.1876984,   72.1691589,           0.
   1092,   46.3081169,   72.1496124,           0.
   1093,   15.3212376,   71.7013321,           0.
   1094,   39.4996147,   4.57279015,           0.
   1095,   20.9142342,    9.2426796,           0.
   1096,   15.5270767,   9.40119839,           0.
   1097,   26.2799015,    9.1841259,           0.
   1098,   59.7236404,   4.27012348,           0.
   1099,   44.7845154,   4.57578754,           0.
   1100,   31.5917568,   9.16670227,           0.
   1101,   50.0769272,   4.58762407,           0.
   1102,   59.5090561,   63.8877869,           0.
   1103,   63.7692833,   18.4792995,           0.
   1104,   59.3026657,   42.5770607,           0.
   1105,   59.4730682,   53.3135262,           0.
   1106,   59.1955223,   26.5603142,           0.
   1107,   59.2669678,   37.2369766,           0.
   1108,   59.3809738,   47.9466133,           0.
   1109,    59.241436,   31.8978176,           0.
   1110,   59.5260429,   58.6536179,           0.
   1111,    51.420002,   72.0736313,           0.
   1112,   9.30993652,   48.5873718,           0.
   1113,   9.46341419,   59.5421143,           0.
   1114,   9.33429813,   37.7667122,           0.
   1115,    4.2425766,   8.96410465,           0.
   1116,   9.51439381,   21.4748001,           0.
   1117,   9.40757942,   26.9305859,           0.
   1118,   9.44263744,   16.0247231,           0.
   1119,   9.36259556,   32.3443222,           0.
   1120,   9.34214783,   54.0350876,           0.
   1121,   9.31943226,   43.1760406,           0.
   1122,   9.40158653,   65.0352402,           0.
   1123,   54.5735245,   67.1175842,           0.
   1124,   9.51016903,   70.8661499,           0.
   1125,   58.4503136,   9.57713604,           0.
   1126,   9.59139633,   10.1838808,           0.
   1127,   17.9309139,   67.3513107,           0.
   1128,   23.1502476,   67.4300766,           0.
   1129,   33.5338058,   67.6621933,           0.
   1130,   28.3726959,   67.5326996,           0.
   1131,    38.620575,   67.7186508,           0.
   1132,    43.749836,    67.590683,           0.
   1133,   42.1774673,    9.1478796,           0.
   1134,   47.5132065,   9.13457203,           0.
   1135,   18.1889496,    13.804245,           0.
   1136,   28.9521046,   13.8032742,           0.
   1137,   23.5727634,   13.8057156,           0.
   1138,   52.7541504,    9.1315155,           0.
   1139,   36.8760681,   9.15753841,           0.
   1140,   54.6997375,   39.9407463,           0.
   1141,   63.6418037,   12.9037008,           0.
   1142,   54.5950546,   29.2363911,           0.
   1143,   54.6463966,    34.575695,           0.
   1144,   54.7931595,   45.3397179,           0.
   1145,   55.0469322,   56.1669502,           0.
   1146,   54.9211731,   50.7669334,           0.
   1147,    58.997612,   21.1264668,           0.
   1148,   55.0906105,   61.4345818,           0.
   1149,   13.9848471,   40.4692039,           0.
   1150,    14.851594,     18.53228,           0.
   1151,   14.1527367,   24.2698269,           0.
   1152,   14.0563345,   29.6079159,           0.
   1153,   14.0194082,   35.0257111,           0.
   1154,    13.949069,   45.9118118,           0.
   1155,   13.9357452,   51.3590584,           0.
   1156,   14.0127592,    56.757061,           0.
   1157,   14.6919813,   62.5613937,           0.
   1158,   4.22749424,   72.0302811,           0.
   1159,   48.9307709,   67.5233612,           0.
   1160,   31.0306206,   63.0804787,           0.
   1161,   20.4681644,   62.7781372,           0.
   1162,    25.781683,    62.805687,           0.
   1163,   36.1107292,   63.2175941,           0.
   1164,    41.070076,   63.2050743,           0.
   1165,   13.3711777,   67.5030823,           0.
   1166,   39.5609932,   13.7451363,           0.
   1167,   44.9256592,   13.6944342,           0.
   1168,   26.2938919,   18.6246433,           0.
   1169,   20.7911682,   18.4646492,           0.
   1170,   50.2508545,   13.6089487,           0.
   1171,   34.2679367,   13.7967691,           0.
   1172,   50.5291862,   53.7108498,           0.
   1173,   13.5203304,   13.5892658,           0.
   1174,   58.9038811,   15.5976372,           0.
   1175,   50.0843735,   31.9252052,           0.
   1176,   50.1108093,   37.3087273,           0.
   1177,   54.4474182,   23.9725037,           0.
   1178,   50.2727394,   48.2515411,           0.
   1179,   50.1397362,   42.7709389,           0.
   1180,   18.6642723,   32.3082886,           0.
   1181,   18.6590691,   26.9754086,           0.
   1182,   18.6398678,   37.7492828,           0.
   1183,      18.3813,   22.3995647,           0.
   1184,   18.1394958,   58.7634201,           0.
   1185,   18.4512844,   54.1227493,           0.
   1186,   18.5340672,   48.7015686,           0.
   1187,   18.5988712,   43.2201042,           0.
   1188,    51.148262,   63.5365524,           0.
   1189,   54.8065834,   13.2303705,           0.
   1190,   50.7620888,   59.0224915,           0.
   1191,   23.4083042,   23.9202938,           0.
   1192,   53.6272278,   18.2601604,           0.
   1193,   46.4101448,   62.4184952,           0.
   1194,   28.6214809,     58.35355,           0.
   1195,   23.0439281,   57.5052948,           0.
   1196,   45.6678886,   34.5832481,           0.
   1197,   23.0544224,    51.591114,           0.
   1198,   46.3430214,   56.7771492,           0.
   1199,   42.3554039,   18.4474602,           0.
   1200,   33.7333336,   58.5971756,           0.
   1201,   23.2247734,   35.1384048,           0.
   1202,   38.6822205,   58.8869171,           0.
   1203,   37.0302582,   18.5334797,           0.
   1204,   47.7804146,   18.2681637,           0.
   1205,   31.7372684,    18.641983,           0.
   1206,   50.0504417,   26.6671085,           0.
   1207,   45.7274704,   51.3846474,           0.
   1208,   45.4132996,   45.6973686,           0.
   1209,   45.5432167,   40.0399628,           0.
   1210,    23.198101,   40.5889168,           0.
   1211,   23.2232533,   46.0951424,           0.
   1212,    29.251049,   23.6442375,           0.
   1213,    23.153286,   29.7938366,           0.
   1214,   26.8617096,   54.0902786,           0.
   1215,   31.3380489,   53.9291763,           0.
   1216,   36.5787315,   54.1068993,           0.
   1217,   39.8328819,   23.2345333,           0.
   1218,   45.4092827,   23.5972557,           0.
   1219,   50.2629585,    22.153038,           0.
   1220,   45.7783279,   29.2798061,           0.
   1221,   34.6457024,    23.589901,           0.
   1222,   41.1478615,   36.9616318,           0.
   1223,    28.237484,   49.1307755,           0.
   1224,   27.6845589,   38.1149826,           0.
   1225,   27.6429615,   43.4268532,           0.
   1226,   39.9967003,   48.9425583,           0.
   1227,   40.7327843,   42.5491982,           0.
   1228,   41.6960487,   54.8967705,           0.
   1229,   27.6310196,   32.6623802,           0.
   1230,   27.1397209,   27.8691196,           0.
   1231,   37.8490868,   28.1027985,           0.
   1232,   42.0741234,   27.1837406,           0.
   1233,   33.9154167,   49.3433723,           0.
   1234,   41.5700493,   31.6121178,           0.
   1235,   32.1570015,   35.6663094,           0.
   1236,   31.8861866,   41.0577126,           0.
   1237,   36.4385681,   39.0437775,           0.
   1238,   35.7511063,   44.4035149,           0.
   1239,   31.4866314,   45.4724464,           0.
   1240,   32.2252274,   29.2994614,           0.
   1241,   36.8979645,   33.4476814,           0.
   1242,   42.8403015,   59.2368813,           0.
*Element, type=S3
  1, 336, 289, 290
  2, 401,  13,  14
  3, 288, 282, 206
  4, 199,   3,  32
  5, 297, 215, 296
  6, 290, 289,  15
  7, 280,  17, 200
  8, 200,  17,  18
  9, 241,  71,  72
 10, 201, 200,  18
 11, 202, 201,  19
 12, 203, 202,  20
 13, 204, 203,  21
 14, 205, 204,  22
 15, 206, 205,  23
 16, 208,  25,  26
 17, 207, 206,  24
 18, 209, 208,  26
 19, 211, 210,  28
 20, 250, 211, 198
 21, 211,   2,  29
 22, 212,  30,  31
 23,  44,   4,  45
 24, 233,  45,  46
 25, 273, 230, 264
 26, 264, 230, 229
 27, 274, 229, 228
 28, 416, 370, 415
 29, 299, 293,  40
 30, 294,  39, 293
 31, 292,  37,  38
 32, 214,  36, 213
 33, 295, 214, 213
 34, 214,  35,  36
 35, 217,  32,  33
 36,  64,  63,   5
 37, 248,  64,  65
 38, 306, 263, 270
 39, 315, 257, 254
 40, 219,  60, 218
 41, 220,  59, 219
 42, 221,  58, 220
 43, 222,  57, 221
 44, 223,  56, 222
 45, 224,  55, 223
 46, 225,  54, 224
 47, 226,  53, 225
 48, 227,  52, 226
 49, 228,  51, 227
 50, 229,  50, 228
 51, 230,  49, 229
 52, 231,  48, 230
 53, 232,  47, 231
 54, 233,  46, 232
 55,  79,   1,  13
 56, 234,  79,  13
 57, 235,  78, 234
 58, 235,  77,  78
 59, 252, 236, 235
 60, 237,  76, 236
 61, 237,  75,  76
 62, 238,  74,  75
 63, 239,  73,  74
 64, 240,  72,  73
 65, 242,  70,  71
 66, 244,  69, 243
 67, 245,  68, 244
 68, 246,  67, 245
 69, 247,  66, 246
 70, 248,  65, 247
 71, 198,  29,  30
 72, 212,  31, 199
 73, 199,  31,   3
 74, 216,  33,  34
 75, 201,  18,  19
 76, 257, 240, 254
 77, 202,  19,  20
 78, 275, 266, 219
 79, 203,  20,  21
 80, 266, 220, 219
 81, 204,  21,  22
 82, 276, 220, 266
 83, 205,  22,  23
 84, 267, 222, 221
 85, 206,  23,  24
 86, 326, 278, 320
 87, 207,  24,  25
 88, 268, 224, 223
 89, 208, 207,  25
 90, 437, 397, 396
 91, 209,  26,  27
 92, 283, 209, 210
 93, 210, 209,  27
 94, 352, 296, 351
 95, 210,  27,  28
 96, 250, 210, 211
 97, 211,  28,   2
 98, 211,  29, 198
 99, 216,  34, 215
100, 212, 198,  30
101, 213,  36,  37
102, 271, 226, 225
103, 387, 344, 343
104, 215,  35, 214
105, 296, 214, 295
106, 215,  34,  35
107, 298, 216, 297
108, 217,  33, 216
109, 249, 199, 217
110, 217, 199,  32
111, 218,  60,  61
112, 263,  61,  62
113, 284, 281, 201
114, 219,  59,  60
115, 276, 267, 221
116, 220,  58,  59
117, 287, 204, 205
118, 221,  57,  58
119, 277, 222, 267
120, 222,  56,  57
121, 287, 205, 282
122, 223,  55,  56
123, 278, 224, 268
124, 224,  54,  55
125, 288, 207, 279
126, 225,  53,  54
127, 272, 227, 226
128, 226,  52,  53
129, 439, 436, 398
130, 227,  51,  52
131, 393, 350, 357
132, 228,  50,  51
133, 349, 305, 308
134, 229,  49,  50
135, 301, 300,  42
136, 230,  48,  49
137, 269, 232, 231
138, 231,  47,  48
139, 305, 232, 269
140, 232,  46,  47
141, 302,  44, 233
142, 233,  44,  45
143, 234,  78,  79
144, 289,  14,  15
145, 290,  16, 280
146, 236,  77, 235
147, 258, 236, 252
148, 236,  76,  77
149, 258, 253, 237
150, 238,  75, 237
151, 259, 238, 253
152, 239,  74, 238
153, 259, 254, 239
154, 240,  73, 239
155, 325, 324, 266
156, 241,  72, 240
157, 257, 241, 240
158, 242,  71, 241
159, 257, 255, 241
160, 243,  70, 242
161, 256, 244, 243
162, 243,  69,  70
163, 261, 245, 244
164, 244,  68,  69
165, 251, 246, 245
166, 245,  67,  68
167, 262, 246, 251
168, 246,  66,  67
169, 306, 248, 247
170, 247,  65,  66
171, 270,  63, 248
172, 248,  63,  64
173, 303, 212, 249
174, 249, 212, 199
175, 283, 210, 250
176, 303, 198, 212
177, 260, 242, 255
178, 377, 333, 369
179, 304, 235, 234
180, 319, 252, 307
181, 253, 238, 237
182, 310, 309, 259
183, 254, 240, 239
184, 380, 379, 322
185, 314, 313, 261
186, 255, 242, 241
187, 313, 312, 251
188, 260, 256, 243
189, 310, 259, 253
190, 281, 200, 201
191, 258, 237, 236
192, 410, 367, 365
193, 259, 239, 238
194, 311, 310, 253
195, 260, 243, 242
196, 318, 257, 315
197, 261, 251, 245
198, 261, 244, 256
199, 333, 263, 306
200, 262, 247, 246
201, 263, 218,  61
202, 270, 263,  62
203, 265, 228, 227
204, 299,  40,  41
205, 327, 271, 326
206, 329, 265, 328
207, 275, 219, 218
208, 285, 284, 202
209, 276, 221, 220
210, 277, 268, 223
211, 277, 223, 222
212, 439, 398, 399
213, 300, 299,  41
214, 273, 269, 231
215, 270,  62,  63
216, 306, 270, 248
217, 278, 271, 225
218, 328, 272, 327
219, 272, 265, 227
220, 272, 226, 271
221, 273, 231, 230
222, 348, 347, 293
223, 274, 264, 229
224, 274, 228, 265
225, 333, 218, 263
226, 312, 262, 251
227, 324, 323, 276
228, 359, 314, 316
229, 322, 321, 277
230, 321, 320, 268
231, 278, 225, 224
232, 286, 285, 203
233, 279, 207, 208
234, 291, 208, 209
235, 280,  16,  17
236, 335, 200, 281
237, 367, 309, 365
238, 284, 201, 202
239, 282, 205, 206
240, 288, 206, 207
241, 355, 250, 303
242, 297, 216, 215
243, 285, 202, 203
244, 341, 284, 340
245, 286, 203, 204
246, 340, 285, 339
247, 287, 286, 204
248, 339, 286, 338
249, 420, 413, 373
250, 338, 287, 337
251, 454, 429, 387
252, 344, 279, 291
253, 401, 289, 304
254, 290,  15,  16
255, 346, 280, 335
256, 336, 304, 289
257, 291, 279, 208
258, 291, 209, 283
259, 292, 213,  37
260, 294,  38,  39
261, 293,  39,  40
262, 371, 329, 328
263, 330, 274, 329
264, 294, 292,  38
265, 334, 213, 292
266, 372, 371, 328
267, 355, 343, 283
268, 296, 215, 214
269, 353, 297, 352
270, 298, 217, 216
271, 368, 298, 353
272, 298, 249, 217
273, 300,  41,  42
274, 357, 349, 308
275, 301,  42,  43
276, 357, 308, 332
277, 302, 301,  43
278, 305, 302, 233
279, 302,  43,  44
280, 305, 233, 232
281, 303, 250, 198
282, 368, 249, 298
283, 304, 252, 235
284, 401, 304, 234
285, 308, 305, 269
286, 305, 301, 302
287, 306, 247, 262
288, 369, 306, 262
289, 307, 252, 304
290, 356, 336, 346
291, 332, 269, 273
292, 331, 264, 330
293, 315, 254, 309
294, 309, 254, 259
295, 311, 253, 258
296, 364, 311, 358
297, 319, 311, 258
298, 358, 319, 356
299, 313, 251, 261
300, 314, 261, 256
301, 316, 256, 260
302, 419, 418, 380
303, 317, 260, 255
304, 323, 322, 267
305, 441, 403, 432
306, 381, 380, 323
307, 316, 314, 256
308, 317, 316, 260
309, 318, 255, 257
310, 318, 317, 255
311, 365, 309, 310
312, 362, 359, 316
313, 319, 258, 252
314, 356, 307, 336
315, 320, 278, 268
316, 321, 268, 277
317, 322, 277, 267
318, 379, 378, 321
319, 323, 267, 276
320, 390, 339, 389
321, 324, 276, 266
322, 382, 381, 324
323, 325, 266, 275
324, 360, 314, 359
325, 377, 275, 333
326, 361, 312, 313
327, 413, 412, 376
328, 326, 271, 278
329, 342, 337, 282
330, 327, 272, 271
331, 395, 354, 347
332, 328, 265, 272
333, 348, 293, 299
334, 329, 274, 265
335, 440, 393, 357
336, 330, 264, 274
337, 440, 431, 393
338, 331, 273, 264
339, 332, 308, 269
340, 332, 273, 331
341, 369, 333, 306
342, 333, 275, 218
343, 334, 295, 213
344, 354, 292, 294
345, 335, 280, 200
346, 385, 281, 341
347, 336, 307, 304
348, 346, 336, 290
349, 337, 287, 282
350, 342, 282, 288
351, 389, 338, 388
352, 338, 286, 287
353, 378, 373, 320
354, 339, 285, 286
355, 419, 380, 381
356, 340, 284, 285
357, 432, 392, 385
358, 341, 281, 284
359, 345, 288, 279
360, 399, 342, 345
361, 344, 291, 343
362, 343, 291, 283
363, 424, 343, 355
364, 345, 279, 344
365, 351, 296, 295
366, 345, 342, 288
367, 346, 290, 280
368, 392, 346, 335
369, 347, 294, 293
370, 370, 331, 330
371, 350, 299, 300
372, 357, 350, 349
373, 349, 300, 301
374, 349, 301, 305
375, 350, 348, 299
376, 350, 300, 349
377, 383, 295, 334
378, 417, 371, 414
379, 396, 352, 351
380, 352, 297, 296
381, 402, 353, 397
382, 353, 298, 297
383, 354, 334, 292
384, 354, 294, 347
385, 355, 283, 250
386, 384, 303, 368
387, 385, 335, 281
388, 356, 319, 307
389, 375, 332, 331
390, 452, 416, 415
391, 459, 403, 358
392, 358, 311, 319
393, 362, 316, 317
394, 363, 317, 318
395, 423, 404, 382
396, 360, 313, 314
397, 423, 377, 361
398, 361, 313, 360
399, 363, 362, 317
400, 456, 455, 419
401, 366, 318, 315
402, 407, 406, 362
403, 365, 310, 364
404, 364, 310, 311
405, 367, 366, 315
406, 367, 315, 309
407, 428, 389, 427
408, 366, 363, 318
409, 450, 411, 410
410, 391, 340, 390
411, 368, 303, 249
412, 387, 386, 344
413, 369, 262, 312
414, 377, 369, 312
415, 374, 330, 329
416, 414, 372, 412
417, 372, 328, 327
418, 529, 520, 521
419, 376, 327, 326
420, 398, 388, 337
421, 373, 326, 320
422, 378, 320, 321
423, 374, 370, 330
424, 374, 329, 371
425, 375, 357, 332
426, 375, 331, 370
427, 376, 372, 327
428, 376, 326, 373
429, 377, 312, 361
430, 377, 325, 275
431, 379, 321, 322
432, 453, 445, 413
433, 380, 322, 323
434, 497, 456, 422
435, 381, 323, 324
436, 442, 405, 406
437, 382, 324, 325
438, 422, 419, 381
439, 423, 382, 325
440, 404, 361, 360
441, 383, 351, 295
442, 400, 334, 354
443, 424, 355, 384
444, 384, 355, 303
445, 392, 335, 385
446, 426, 341, 391
447, 399, 345, 386
448, 386, 345, 344
449, 402, 368, 353
450, 397, 352, 396
451, 388, 338, 337
452, 398, 337, 342
453, 443, 442, 406
454, 389, 339, 338
455, 411, 367, 410
456, 390, 340, 339
457, 408, 364, 403
458, 391, 341, 340
459, 459, 356, 392
460, 392, 356, 346
461, 394, 348, 393
462, 393, 348, 350
463, 395, 347, 394
464, 394, 347, 348
465, 415, 370, 374
466, 490, 465, 480
467, 425, 351, 383
468, 434, 400, 395
469, 454, 424, 402
470, 397, 353, 352
471, 399, 398, 342
472, 439, 399, 435
473, 510, 484, 454
474, 435, 386, 429
475, 400, 383, 334
476, 400, 354, 395
477, 401, 234,  13
478, 401,  14, 289
479, 510, 402, 397
480, 402, 384, 368
481, 403, 364, 358
482, 511, 432, 426
483, 405, 360, 359
484, 405, 404, 360
485, 406, 359, 362
486, 406, 405, 359
487, 407, 362, 363
488, 409, 363, 366
489, 411, 366, 367
490, 421, 420, 378
491, 410, 365, 408
492, 408, 365, 364
493, 450, 448, 411
494, 409, 407, 363
495, 511, 475, 441
496, 479, 478, 444
497, 430, 390, 428
498, 411, 409, 366
499, 412, 372, 376
500, 413, 376, 373
501, 420, 373, 378
502, 468, 462, 427
503, 499, 473, 498
504, 414, 371, 372
505, 452, 415, 451
506, 417, 415, 374
507, 440, 416, 431
508, 416, 375, 370
509, 417, 374, 371
510, 473, 446, 472
511, 421, 379, 418
512, 418, 379, 380
513, 422, 381, 382
514, 497, 442, 456
515, 421, 378, 379
516, 457, 421, 418
517, 474, 456, 442
518, 483, 476, 453
519, 422, 382, 404
520, 497, 404, 405
521, 423, 325, 377
522, 423, 361, 404
523, 424, 387, 343
524, 424, 384, 402
525, 425, 396, 351
526, 438, 383, 400
527, 426, 385, 341
528, 461, 391, 430
529, 427, 389, 388
530, 436, 388, 398
531, 457, 418, 455
532, 428, 390, 389
533, 488, 484, 437
534, 429, 386, 387
535, 447, 408, 441
536, 430, 391, 390
537, 433, 394, 431
538, 431, 394, 393
539, 459, 432, 403
540, 432, 385, 426
541, 434, 395, 433
542, 433, 395, 394
543, 451, 417, 449
544, 438, 400, 434
545, 446, 412, 445
546, 435, 399, 386
547, 471, 439, 469
548, 436, 427, 388
549, 460, 396, 425
550, 467, 438, 434
551, 449, 414, 446
552, 438, 425, 383
553, 494, 491, 468
554, 469, 435, 466
555, 440, 357, 375
556, 440, 375, 416
557, 441, 408, 403
558, 511, 461, 475
559, 443, 406, 407
560, 444, 407, 409
561, 444, 443, 407
562, 507, 456, 474
563, 448, 409, 411
564, 482, 450, 447
565, 445, 412, 413
566, 453, 413, 420
567, 484, 466, 429
568, 446, 414, 412
569, 450, 410, 447
570, 447, 410, 408
571, 463, 428, 462
572, 448, 444, 409
573, 480, 452, 451
574, 449, 417, 414
575, 481, 479, 448
576, 508, 504, 483
577, 480, 464, 452
578, 451, 415, 417
579, 464, 431, 416
580, 464, 416, 452
581, 458, 420, 421
582, 491, 489, 462
583, 454, 387, 424
584, 510, 454, 402
585, 501, 474, 478
586, 455, 418, 419
587, 456, 419, 422
588, 474, 442, 443
589, 507, 485, 455
590, 458, 421, 457
591, 486, 457, 485
592, 458, 453, 420
593, 459, 358, 356
594, 459, 392, 432
595, 460, 437, 396
596, 470, 438, 467
597, 461, 426, 391
598, 487, 430, 463
599, 462, 428, 427
600, 468, 427, 436
601, 482, 447, 475
602, 463, 430, 428
603, 465, 433, 464
604, 464, 433, 431
605, 467, 434, 465
606, 465, 434, 433
607, 526, 488, 496
608, 466, 435, 429
609, 477, 449, 473
610, 470, 425, 438
611, 471, 436, 439
612, 476, 472, 445
613, 495, 494, 471
614, 469, 439, 435
615, 492, 470, 467
616, 470, 460, 425
617, 495, 469, 493
618, 471, 468, 436
619, 472, 446, 445
620, 476, 445, 453
621, 519, 514, 490
622, 473, 449, 446
623, 478, 443, 444
624, 478, 474, 443
625, 475, 447, 441
626, 487, 475, 461
627, 483, 453, 458
628, 515, 513, 491
629, 519, 480, 477
630, 477, 451, 449
631, 479, 444, 448
632, 505, 502, 479
633, 481, 448, 450
634, 509, 508, 486
635, 480, 465, 464
636, 480, 451, 477
637, 482, 481, 450
638, 506, 482, 503
639, 503, 475, 487
640, 506, 505, 481
641, 486, 458, 457
642, 524, 522, 504
643, 484, 429, 454
644, 488, 437, 460
645, 485, 457, 455
646, 509, 485, 501
647, 502, 501, 478
648, 486, 483, 458
649, 487, 461, 430
650, 512, 463, 489
651, 488, 466, 484
652, 496, 470, 492
653, 489, 463, 462
654, 491, 462, 468
655, 492, 467, 490
656, 490, 467, 465
657, 494, 468, 471
658, 504, 500, 476
659, 518, 495, 516
660, 496, 460, 470
661, 493, 469, 466
662, 493, 466, 488
663, 495, 471, 469
664, 500, 498, 472
665, 531, 529, 516
666, 520, 514, 499
667, 496, 488, 460
668, 517, 492, 514
669, 497, 422, 404
670, 497, 405, 442
671, 498, 473, 472
672, 500, 472, 476
673, 519, 499, 514
674, 499, 477, 473
675, 504, 476, 483
676, 528, 521, 522
677, 507, 501, 485
678, 502, 478, 479
679, 505, 479, 481
680, 530, 527, 524
681, 503, 482, 475
682, 512, 487, 463
683, 508, 483, 486
684, 527, 522, 524
685, 506, 481, 482
686, 532, 530, 525
687, 512, 506, 503
688, 523, 506, 512
689, 507, 455, 456
690, 507, 474, 501
691, 509, 486, 485
692, 532, 502, 505
693, 509, 501, 502
694, 532, 525, 502
695, 510, 397, 437
696, 510, 437, 484
697, 511, 441, 432
698, 511, 426, 461
699, 512, 503, 487
700, 523, 512, 489
701, 513, 489, 491
702, 515, 491, 494
703, 526, 516, 493
704, 514, 492, 490
705, 518, 494, 495
706, 522, 521, 500
707, 516, 495, 493
708, 526, 517, 516
709, 517, 496, 492
710, 531, 514, 520
711, 521, 520, 498
712, 518, 515, 494
713, 519, 490, 480
714, 519, 477, 499
715, 520, 499, 498
716, 521, 498, 500
717, 522, 500, 504
718, 529, 521, 528
719, 524, 504, 508
720, 528, 522, 527
721, 523, 505, 506
722, 523, 489, 513
723, 525, 524, 508
724, 530, 524, 525
725, 525, 508, 509
726, 525, 509, 502
727, 526, 493, 488
728, 526, 496, 517
729, 527, 513, 515
730, 528, 527, 515
731, 528, 515, 518
732, 529, 528, 518
733, 529, 518, 516
734, 531, 516, 517
735, 530, 523, 513
736, 530, 513, 527
737, 531, 517, 514
738, 531, 520, 529
739, 532, 505, 523
740, 532, 523, 530
 741, 578,   2,  28
 742, 646, 645, 599
 743, 536, 115, 116
 744, 587, 541, 542
 745, 582, 110, 111
 746,  13,   1,  80
 747, 549,  80,  81
 748, 593, 547, 546
 749, 642, 593, 641
 750, 594, 593, 546
 751, 717, 679, 677
 752, 596, 595, 544
 753, 606, 551, 599
 754, 606, 601, 552
 755, 571,  21, 567
 756, 702, 661, 701
 757, 617, 573, 616
 758, 670, 587, 579
 759, 644, 598, 630
 760, 625, 574, 617
 761, 576,  28,  27
 762,  91,   6,  92
 763, 559,  92,  93
 764, 652, 600, 650
 765, 638, 590, 591
 766, 590, 589,  88
 767, 589,  87,  88
 768, 544,  86, 543
 769, 545,  85, 544
 770, 546,  84, 545
 771, 547,  83, 546
 772, 548,  82, 547
 773, 549,  81, 548
 774, 111, 110,   7
 775, 582, 111, 112
 776, 630, 598, 560
 777, 583, 537, 538
 778, 562, 107, 561
 779, 563, 106, 562
 780, 564, 105, 563
 781, 565, 104, 564
 782, 565, 103, 104
 783, 550, 101, 102
 784, 551, 101, 550
 785, 552, 100, 551
 786, 553,  99, 552
 787, 554,  98, 553
 788, 555,  97, 554
 789, 556,  96, 555
 790, 557,  95, 556
 791, 558,  94, 557
 792, 559,  93, 558
 793, 584, 113, 537
 794, 537, 113, 114
 795, 538, 115, 536
 796, 539, 116, 117
 797, 540, 117, 118
 798, 539, 536, 116
 799, 533, 121, 122
 800, 542, 120, 535
 801, 541, 540, 118
 802, 535,   8, 121
 803, 534, 533, 122
 804, 542, 119, 120
 805, 534, 122, 123
 806, 588, 578, 576
 807, 575,  27,  26
 808, 535, 120,   8
 809, 535, 121, 533
 810, 585, 539, 581
 811, 598, 561, 108
 812, 598, 109, 560
 813, 538, 537, 114
 814, 538, 114, 115
 815, 713, 630, 636
 816, 540, 539, 117
 817, 577, 575,  26
 818, 541, 118, 119
 819, 707, 662, 702
 820, 542, 541, 119
 821, 627, 533, 534
 822, 579, 535, 533
 823, 579, 542, 535
 824, 613,  17,  16
 825, 543,  86,  87
 826, 618, 613,  16
 827, 544,  85,  86
 828, 669, 618, 659
 829, 545,  84,  85
 830, 619, 618,  15
 831, 546,  83,  84
 832, 597, 547, 593
 833, 547,  82,  83
 834, 629, 548, 597
 835, 548,  81,  82
 836, 620,  13, 549
 837, 549,  13,  80
 838, 566, 102, 103
 839, 569,  19,  18
 840, 569,  18, 568
 841, 551, 100, 101
 842, 608, 553, 601
 843, 552,  99, 100
 844, 684, 654, 683
 845, 553,  98,  99
 846, 685, 651, 684
 847, 554,  97,  98
 848, 602, 555, 554
 849, 555,  96,  97
 850, 638, 591, 628
 851, 556,  95,  96
 852, 591, 590,  89
 853, 557,  94,  95
 854, 607, 557, 600
 855, 558,  93,  94
 856, 592,  91, 559
 857, 559,  91,  92
 858, 560, 109, 110
 859, 582, 560, 110
 860, 577,  25, 574
 861, 561, 107, 108
 862, 574,  24, 573
 863, 562, 106, 107
 864, 573,  23, 572
 865, 563, 105, 106
 866, 572,  22, 571
 867, 564, 104, 105
 868, 621, 571, 614
 869, 566, 103, 565
 870, 648, 604, 647
 871, 566, 550, 102
 872, 567,  21,  20
 873, 570,  20,  19
 874, 568,  18,  17
 875, 641, 594, 640
 876, 622, 569, 615
 877, 570,  19, 569
 878, 622, 570, 569
 879, 570, 567,  20
 880, 610, 566, 604
 881, 571,  22,  21
 882, 611, 564, 605
 883, 572,  23,  22
 884, 662, 616, 661
 885, 573,  24,  23
 886, 657, 655, 612
 887, 574,  25,  24
 888, 624, 576, 575
 889, 577,  26,  25
 890, 578, 534, 123
 891, 576,  27, 575
 892, 612, 605, 563
 893, 587, 580, 541
 894, 578, 123,   2
 895, 578,  28, 576
 896, 587, 542, 579
 897, 746, 534, 588
 898, 581, 540, 580
 899, 580, 540, 541
 900, 586, 536, 585
 901, 581, 539, 540
 902, 584, 112, 113
 903, 584, 582, 112
 904, 586, 538, 536
 905, 585, 536, 539
 906, 636, 537, 583
 907, 630, 582, 584
 908, 668, 667, 626
 909, 634, 581, 580
 910, 631, 583, 586
 911, 586, 583, 538
 912, 697, 588, 624
 913, 667, 624, 626
 914, 588, 534, 578
 915, 624, 588, 576
 916, 589, 543,  87
 917, 590,  88,  89
 918, 591,  89,  90
 919, 682, 678, 638
 920, 592, 591,  90
 921, 628, 559, 558
 922, 592,  90,  91
 923, 628, 592, 559
 924, 594, 546, 545
 925, 595, 545, 544
 926, 595, 594, 545
 927, 640, 595, 639
 928, 596, 544, 543
 929, 694, 596, 643
 930, 643, 543, 589
 931, 651, 650, 609
 932, 659, 619, 629
 933, 597, 548, 547
 934, 598, 108, 109
 935, 630, 560, 582
 936, 599, 551, 550
 937, 610, 550, 566
 938, 600, 557, 556
 939, 609, 556, 555
 940, 601, 553, 552
 941, 606, 552, 551
 942, 689, 652, 650
 943, 608, 602, 554
 944, 612, 562, 603
 945, 603, 562, 561
 946, 604, 566, 565
 947, 611, 565, 564
 948, 605, 564, 563
 949, 612, 563, 562
 950, 663, 660, 614
 951, 653, 606, 645
 952, 638, 637, 590
 953, 607, 558, 557
 954, 608, 554, 553
 955, 656, 601, 653
 956, 609, 600, 556
 957, 609, 555, 602
 958, 621, 616, 572
 959, 610, 599, 550
 960, 649, 647, 611
 961, 611, 604, 565
 962, 713, 681, 644
 963, 674, 635, 671
 964, 613, 568,  17
 965, 618,  16,  15
 966, 614, 571, 567
 967, 623, 567, 570
 968, 615, 569, 568
 969, 658, 568, 613
 970, 616, 573, 572
 971, 621, 572, 571
 972, 655, 649, 605
 973, 617, 574, 573
 974, 619,  15,  14
 975, 706, 669, 705
 976, 620, 619,  14
 977, 629, 620, 549
 978, 620,  14,  13
 979, 629, 549, 548
 980, 688, 646, 687
 981, 661, 621, 660
 982, 786, 780, 761
 983, 623, 570, 622
 984, 693, 645, 688
 985, 623, 614, 567
 986, 626, 575, 577
 987, 625, 577, 574
 988, 666, 617, 662
 989, 733, 667, 699
 990, 626, 624, 575
 991, 626, 577, 625
 992, 670, 579, 627
 993, 627, 579, 533
 994, 628, 591, 592
 995, 628, 558, 607
 996, 696, 659, 629
 997, 629, 619, 620
 998, 636, 630, 584
 999, 713, 675, 681
1000, 632, 586, 585
1001, 632, 631, 586
1002, 635, 585, 581
1003, 695, 692, 655
1004, 634, 580, 633
1005, 633, 580, 587
1006, 668, 625, 666
1007, 635, 581, 634
1008, 672, 634, 633
1009, 635, 632, 585
1010, 636, 584, 537
1011, 675, 583, 631
1012, 678, 676, 637
1013, 637, 589, 590
1014, 682, 628, 607
1015, 722, 684, 721
1016, 639, 595, 596
1017, 719, 717, 677
1018, 677, 641, 640
1019, 640, 594, 595
1020, 679, 641, 677
1021, 641, 593, 594
1022, 750, 717, 719
1023, 642, 597, 593
1024, 643, 596, 543
1025, 643, 589, 637
1026, 644, 603, 561
1027, 644, 561, 598
1028, 645, 606, 599
1029, 646, 599, 610
1030, 648, 610, 604
1031, 687, 648, 686
1032, 647, 604, 611
1033, 649, 611, 605
1034, 788, 782, 762
1035, 648, 646, 610
1036, 655, 605, 612
1037, 742, 702, 735
1038, 650, 600, 609
1039, 651, 609, 602
1040, 654, 602, 608
1041, 656, 654, 608
1042, 682, 652, 678
1043, 652, 607, 600
1044, 665, 622, 664
1045, 653, 601, 606
1046, 654, 651, 602
1047, 656, 608, 601
1048, 657, 612, 603
1049, 674, 673, 632
1050, 693, 653, 645
1051, 727, 721, 683
1052, 714, 675, 631
1053, 673, 631, 632
1054, 658, 615, 568
1055, 705, 696, 642
1056, 659, 618, 619
1057, 696, 629, 597
1058, 660, 621, 614
1059, 663, 614, 623
1060, 754, 753, 723
1061, 661, 616, 621
1062, 690, 686, 647
1063, 662, 617, 616
1064, 665, 623, 622
1065, 693, 691, 653
1066, 664, 622, 615
1067, 698, 615, 658
1068, 729, 693, 728
1069, 665, 663, 623
1070, 672, 671, 634
1071, 666, 625, 617
1072, 733, 697, 667
1073, 668, 626, 625
1074, 711, 710, 671
1075, 733, 715, 709
1076, 669, 658, 613
1077, 669, 613, 618
1078, 670, 633, 587
1079, 746, 709, 627
1080, 692, 690, 649
1081, 671, 635, 634
1082, 715, 633, 670
1083, 699, 667, 668
1084, 720, 681, 714
1085, 674, 632, 635
1086, 784, 777, 758
1087, 710, 674, 671
1088, 675, 636, 583
1089, 714, 681, 675
1090, 718, 716, 676
1091, 676, 643, 637
1092, 680, 640, 639
1093, 680, 677, 640
1094, 678, 637, 638
1095, 689, 678, 652
1096, 741, 737, 717
1097, 679, 642, 641
1098, 732, 639, 694
1099, 771, 751, 752
1100, 681, 657, 603
1101, 681, 603, 644
1102, 682, 638, 628
1103, 682, 607, 652
1104, 683, 654, 656
1105, 691, 656, 653
1106, 716, 694, 676
1107, 684, 651, 654
1108, 778, 719, 760
1109, 685, 650, 651
1110, 686, 648, 647
1111, 690, 647, 649
1112, 725, 687, 723
1113, 687, 646, 648
1114, 704, 663, 703
1115, 688, 645, 646
1116, 718, 678, 689
1117, 689, 650, 685
1118, 692, 649, 655
1119, 787, 768, 745
1120, 703, 665, 700
1121, 691, 683, 656
1122, 695, 655, 657
1123, 766, 740, 743
1124, 788, 775, 772
1125, 756, 752, 727
1126, 694, 639, 596
1127, 694, 643, 676
1128, 744, 714, 673
1129, 712, 674, 710
1130, 696, 597, 642
1131, 705, 642, 679
1132, 746, 697, 709
1133, 697, 624, 667
1134, 698, 664, 615
1135, 737, 705, 679
1136, 708, 668, 666
1137, 708, 666, 707
1138, 700, 665, 664
1139, 734, 664, 698
1140, 701, 661, 660
1141, 704, 660, 663
1142, 724, 723, 686
1143, 702, 662, 661
1144, 739, 738, 704
1145, 703, 663, 665
1146, 728, 688, 725
1147, 704, 701, 660
1148, 705, 669, 659
1149, 705, 659, 696
1150, 706, 698, 658
1151, 706, 658, 669
1152, 743, 707, 742
1153, 707, 666, 662
1154, 730, 724, 690
1155, 708, 699, 668
1156, 715, 670, 709
1157, 709, 670, 627
1158, 744, 731, 695
1159, 711, 671, 672
1160, 745, 672, 715
1161, 740, 699, 708
1162, 744, 720, 714
1163, 712, 673, 674
1164, 713, 644, 630
1165, 713, 636, 675
1166, 714, 631, 673
1167, 744, 673, 712
1168, 745, 715, 733
1169, 715, 672, 633
1170, 726, 689, 685
1171, 749, 716, 726
1172, 741, 706, 737
1173, 719, 677, 680
1174, 718, 676, 678
1175, 726, 718, 689
1176, 760, 680, 732
1177, 749, 732, 716
1178, 720, 695, 657
1179, 720, 657, 681
1180, 721, 684, 683
1181, 727, 683, 691
1182, 785, 751, 779
1183, 722, 685, 684
1184, 723, 687, 686
1185, 724, 686, 690
1186, 730, 690, 692
1187, 765, 735, 762
1188, 738, 735, 701
1189, 725, 688, 687
1190, 726, 716, 718
1191, 726, 685, 722
1192, 729, 691, 693
1193, 752, 751, 721
1194, 739, 703, 736
1195, 728, 693, 688
1196, 757, 756, 729
1197, 729, 727, 691
1198, 731, 730, 692
1199, 769, 758, 759
1200, 731, 692, 695
1201, 748, 710, 747
1202, 732, 680, 639
1203, 732, 694, 716
1204, 733, 709, 697
1205, 787, 733, 699
1206, 734, 700, 664
1207, 741, 698, 706
1208, 735, 702, 701
1209, 738, 701, 704
1210, 736, 703, 700
1211, 761, 700, 734
1212, 737, 706, 705
1213, 737, 679, 717
1214, 739, 704, 703
1215, 755, 725, 753
1216, 776, 757, 775
1217, 757, 728, 755
1218, 768, 747, 711
1219, 743, 708, 707
1220, 750, 741, 717
1221, 741, 734, 698
1222, 767, 742, 765
1223, 742, 707, 702
1224, 758, 754, 724
1225, 743, 740, 708
1226, 770, 744, 712
1227, 744, 695, 720
1228, 787, 745, 733
1229, 745, 711, 672
1230, 746, 627, 534
1231, 746, 588, 697
1232, 770, 759, 731
1233, 747, 710, 711
1234, 770, 748, 759
1235, 748, 712, 710
1236, 785, 726, 722
1237, 785, 779, 749
1238, 781, 741, 750
1239, 779, 771, 778
1240, 751, 722, 721
1241, 752, 721, 727
1242, 756, 727, 729
1243, 789, 780, 786
1244, 753, 725, 723
1245, 754, 723, 724
1246, 758, 724, 730
1247, 767, 766, 743
1248, 764, 739, 763
1249, 755, 728, 725
1250, 757, 729, 728
1251, 776, 756, 757
1252, 788, 772, 782
1253, 791, 775, 788
1254, 759, 758, 730
1255, 784, 767, 783
1256, 759, 730, 731
1257, 769, 748, 747
1258, 760, 719, 680
1259, 760, 732, 749
1260, 761, 736, 700
1261, 781, 761, 734
1262, 762, 735, 738
1263, 764, 738, 739
1264, 763, 739, 736
1265, 780, 736, 761
1266, 791, 763, 790
1267, 764, 762, 738
1268, 783, 782, 773
1269, 765, 742, 735
1270, 768, 766, 747
1271, 767, 743, 742
1272, 783, 765, 782
1273, 784, 783, 777
1274, 768, 711, 745
1275, 768, 740, 766
1276, 769, 759, 748
1277, 769, 747, 766
1278, 770, 731, 744
1279, 770, 712, 748
1280, 789, 786, 771
1281, 774, 771, 752
1282, 772, 755, 753
1283, 773, 772, 753
1284, 773, 753, 754
1285, 777, 773, 754
1286, 774, 752, 756
1287, 790, 780, 789
1288, 775, 757, 755
1289, 775, 755, 772
1290, 791, 790, 776
1291, 776, 774, 756
1292, 777, 754, 758
1293, 784, 758, 769
1294, 778, 750, 719
1295, 779, 778, 760
1296, 779, 760, 749
1297, 779, 751, 771
1298, 780, 763, 736
1299, 786, 761, 781
1300, 781, 734, 741
1301, 786, 781, 750
1302, 782, 765, 762
1303, 782, 772, 773
1304, 783, 767, 765
1305, 783, 773, 777
1306, 784, 769, 766
1307, 784, 766, 767
1308, 785, 749, 726
1309, 785, 722, 751
1310, 786, 750, 778
1311, 786, 778, 771
1312, 787, 699, 740
1313, 787, 740, 768
1314, 788, 762, 764
1315, 791, 788, 764
1316, 789, 771, 774
1317, 790, 789, 774
1318, 790, 763, 780
1319, 790, 774, 776
1320, 791, 764, 763
1321, 791, 776, 775
1322,  792,    9,  124
1323,  869,  865,  824
1324,  815,  160,  814
1325,  950,   44,   43
1326,  829,  167,  168
1327,  135,   10,  136
1328,  812,  136,  137
1329,  837,  810,  834
1330,  838,  808,  831
1331,  831,  808,  807
1332,  839,  807,  806
1333,  838,  834,  809
1334,  847,  131,  132
1335,  844,  128,  129
1336,  795,  127,  794
1337,  795,  126,  127
1338,  797,  124,  125
1339,  151,   11,  152
1340,  798,  151,  152
1341,  821,  154,  820
1342,  799,  149,  150
1343,  800,  148,  149
1344,  801,  147,  148
1345,  802,  146,  147
1346,  804,  145,  803
1347,  805,  144,  804
1348,  806,  143,  805
1349,  807,  142,  806
1350,  808,  141,  807
1351,  809,  140,  808
1352,  810,  139,  809
1353,  811,  138,  810
1354,  812,  137,  811
1355,   44,  165,    4
1356,  813,  165,   44
1357,  822,   43,   42
1358,  855,  854,  162
1359,  946,  904,  909
1360, 1022,  981, 1003
1361,  869,  824,  825
1362,  917,  892,  846
1363,  862,  858,  816
1364,  858,  817,  816
1365,  818,  157,  817
1366,  859,  817,  858
1367,  860,  818,  859
1368,  911,  152,  153
1369,  864,   42,   41
1370,  950,  822,  914
1371,  867,   39,   38
1372,  895,  857,  814
1373,  943,  867,  910
1374,  868,   37,  823
1375,  823,   37,   36
1376,  825,   35,   34
1377,  824,  823,   36
1378,  826,  825,   34
1379,  828,  827,   32
1380,  830,  828,  793
1381,  828,    3,  166
1382,  829,  168,  792
1383,  792,  168,    9
1384,  796,  126,  795
1385,  965,  934,  933
1386,  793,  166,  167
1387,  794,  127,  128
1388,  841,  803,  802
1389,  846,  795,  794
1390,  796,  125,  126
1391,  872,  829,  843
1392,  797,  125,  796
1393,  853,  796,  851
1394,  797,  792,  124
1395,  799,  150,  798
1396,  798,  150,  151
1397,  820,  155,  819
1398,  800,  149,  799
1399,  819,  156,  818
1400,  801,  148,  800
1401,  817,  158,  816
1402,  802,  147,  801
1403,  816,  159,  815
1404,  803,  146,  802
1405,  875,  846,  794
1406,  803,  145,  146
1407,  879,  876,  840
1408,  804,  144,  145
1409,  840,  833,  805
1410,  805,  143,  144
1411,  852,  130,  845
1412,  806,  142,  143
1413,  848,  847,  132
1414,  807,  141,  142
1415,  915,  889,  887
1416,  808,  140,  141
1417,  834,  810,  809
1418,  809,  139,  140
1419,  849,  848,  133
1420,  810,  138,  139
1421,  874,  811,  837
1422,  811,  137,  138
1423,  850,  135,  812
1424,  812,  135,  136
1425,  856,  855,  163
1426,  813,  164,  165
1427,  814,  160,  161
1428,  854,  161,  162
1429,  884,  836,  842
1430,  815,  159,  160
1431,  836,  801,  800
1432,  816,  158,  159
1433,  836,  835,  801
1434,  817,  157,  158
1435,  842,  836,  800
1436,  818,  156,  157
1437,  911,  873,  798
1438,  819,  155,  156
1439,  861,  819,  860
1440,  820,  154,  155
1441,  911,  821,  873
1442,  821,  153,  154
1443,  866,  864,   41
1444,  902,  895,  854
1445,  824,   36,   35
1446,  871,  826,  827
1447,  825,  824,   35
1448,  870,  869,  825
1449,  826,   34,   33
1450,  966,  912,  944
1451,  827,  826,   33
1452,  871,  827,  830
1453,  827,   33,   32
1454,  830,  827,  828
1455,  828,   32,    3
1456,  828,  166,  793
1457,  829,  793,  167
1458,  843,  792,  797
1459,  872,  793,  829
1460,  851,  796,  795
1461,  833,  806,  805
1462,  882,  839,  878
1463,  840,  804,  832
1464,  832,  804,  803
1465,  876,  833,  840
1466,  840,  805,  804
1467,  847,  845,  131
1468,  838,  809,  808
1469,  835,  802,  801
1470,  919,  885,  886
1471,  842,  800,  799
1472,  919,  918,  885
1473,  889,  874,  887
1474,  837,  811,  810
1475,  878,  833,  876
1476,  890,  847,  848
1477,  839,  831,  807
1478,  839,  806,  833
1479,  886,  885,  841
1480,  862,  815,  857
1481,  841,  832,  803
1482,  841,  802,  835
1483,  873,  842,  799
1484,  863,  821,  820
1485,  843,  829,  792
1486,  851,  795,  846
1487,  844,  794,  128
1488,  852,  129,  130
1489,  845,  130,  131
1490,  877,  834,  838
1491,  875,  794,  844
1492, 1004,  974,  999
1493,  848,  132,  133
1494,  880,  834,  877
1495,  849,  133,  134
1496,  930,  890,  915
1497,  850,  849,  134
1498,  874,  849,  850
1499,  850,  134,  135
1500,  874,  850,  812
1501,  892,  851,  846
1502,  853,  797,  796
1503,  891,  852,  845
1504,  852,  844,  129
1505,  932,  893,  892
1506,  853,  843,  797
1507,  854,  814,  161
1508,  855,  162,  163
1509,  856,  163,  164
1510,  969,  914,  904
1511,  856,  164,  813
1512,  914,  822,  904
1513,  857,  815,  814
1514,  895,  814,  854
1515,  927,  883,  920
1516,  862,  816,  815
1517,  884,  883,  836
1518,  859,  818,  817
1519,  998,  962,  971
1520,  860,  819,  818
1521,  898,  860,  896
1522,  861,  820,  819
1523,  901,  899,  862
1524,  984,  982,  953
1525,  929,  873,  863
1526,  863,  820,  861
1527,  864,  822,   42
1528,  866,   41,   40
1529,  865,  823,  824
1530,  907,  869,  870
1531,  905,   40,   39
1532,  943,  905,  867
1533,  868,  867,   38
1534,  903,  868,  823
1535,  868,   38,   37
1536,  903,  823,  865
1537,  870,  825,  826
1538,  912,  906,  871
1539,  871,  870,  826
1540, 1006,  995,  966
1541,  912,  830,  872
1542,  893,  851,  892
1543,  872,  830,  793
1544,  916,  843,  853
1545,  873,  799,  798
1546,  873,  821,  863
1547,  874,  812,  811
1548,  887,  837,  880
1549,  894,  844,  852
1550,  921,  882,  878
1551,  879,  840,  832
1552,  939,  937,  897
1553,  980,  963,  930
1554,  881,  838,  831
1555, 1017,  990, 1005
1556,  878,  839,  833
1557,  885,  832,  841
1558,  897,  896,  859
1559,  915,  890,  889
1560,  880,  837,  834
1561,  881,  877,  838
1562,  882,  881,  831
1563,  882,  831,  839
1564,  933,  894,  891
1565,  886,  835,  883
1566,  883,  835,  836
1567,  929,  884,  842
1568,  900,  863,  861
1569,  885,  879,  832
1570,  886,  841,  835
1571,  920,  884,  900
1572,  896,  860,  859
1573,  915,  887,  880
1574,  887,  874,  837
1575,  891,  845,  888
1576,  888,  845,  847
1577,  889,  848,  849
1578,  889,  849,  874
1579,  890,  888,  847
1580,  890,  848,  889
1581,  959,  925,  957
1582,  991,  959,  987
1583,  917,  846,  875
1584, 1011, 1005,  985
1585,  951,  893,  932
1586,  893,  853,  851
1587,  894,  875,  844
1588,  894,  852,  891
1589,  902,  854,  855
1590,  969,  928,  913
1591,  897,  859,  858
1592,  899,  858,  862
1593,  899,  897,  858
1594,  961,  953,  919
1595,  936,  900,  898
1596,  898,  861,  860
1597,  901,  862,  857
1598,  991,  990,  964
1599,  929,  900,  884
1600,  900,  861,  898
1601,  935,  857,  895
1602, 1009,  984,  997
1603,  913,  855,  856
1604,  904,  822,  864
1605,  910,  868,  903
1606,  942,  865,  908
1607,  909,  864,  866
1608,  909,  904,  864
1609,  905,  866,   40
1610,  905,   39,  867
1611,  907,  870,  906
1612,  906,  870,  871
1613,  948,  907,  906
1614,  908,  869,  907
1615,  940,  939,  899
1616,  908,  865,  869
1617, 1016,  946,  975
1618,  945,  866,  905
1619,  968,  941,  952
1620,  910,  867,  868
1621,  911,  798,  152
1622,  911,  153,  821
1623,  912,  871,  830
1624,  944,  872,  916
1625,  913,  902,  855
1626,  914,  913,  856
1627,  914,  856,  813
1628,  950,  914,  813
1629,  923,  880,  877
1630,  923,  915,  880
1631,  916,  872,  843
1632,  916,  853,  893
1633,  934,  875,  894
1634,  924,  882,  921
1635,  926,  879,  918
1636,  918,  879,  885
1637,  927,  886,  883
1638,  962,  920,  936
1639,  920,  883,  884
1640,  936,  920,  900
1641,  922,  878,  876
1642,  922,  921,  878
1643,  926,  922,  876
1644,  960,  926,  955
1645,  925,  877,  881
1646,  987,  957,  985
1647,  924,  881,  882
1648, 1005,  987,  985
1649,  925,  923,  877
1650,  925,  881,  924
1651,  926,  876,  879
1652,  961,  919,  927
1653,  937,  896,  897
1654,  927,  919,  886
1655,  941,  902,  928
1656,  928,  902,  913
1657,  929,  842,  873
1658,  929,  863,  900
1659,  931,  888,  930
1660,  930,  888,  890
1661,  933,  891,  931
1662,  931,  891,  888
1663,  948,  947,  907
1664,  954,  892,  917
1665,  957,  924,  956
1666,  934,  894,  933
1667,  956,  924,  921
1668,  934,  917,  875
1669,  935,  901,  857
1670,  941,  935,  895
1671,  938,  898,  896
1672,  938,  896,  937
1673,  939,  897,  899
1674,  996,  972,  973
1675,  962,  961,  927
1676,  938,  936,  898
1677,  940,  899,  901
1678,  973,  972,  939
1679,  967,  901,  935
1680,  949,  903,  942
1681,  941,  895,  902
1682,  952,  928,  946
1683,  942,  903,  865
1684,  974,  908,  947
1685,  945,  905,  943
1686,  976,  910,  949
1687,  944,  912,  872
1688,  951,  916,  893
1689,  975,  946,  909
1690,  945,  909,  866
1691,  969,  946,  928
1692,  975,  909,  945
1693,  947,  908,  907
1694,  995,  948,  966
1695,  966,  906,  912
1696,  989,  932,  954
1697, 1023, 1000, 1019
1698,  949,  910,  903
1699,  950,  813,   44
1700,  950,   43,  822
1701,  951,  944,  916
1702, 1013, 1006,  989
1703,  952,  941,  928
1704, 1002,  976, 1000
1705,  955,  918,  953
1706,  953,  918,  919
1707,  954,  932,  892
1708,  970,  934,  965
1709,  955,  926,  918
1710, 1041, 1031, 1034
1711,  958,  921,  922
1712,  958,  956,  921
1713,  980,  930,  915
1714,  957,  925,  924
1715,  960,  958,  922
1716,  988,  960,  983
1717,  980,  959,  963
1718,  959,  923,  925
1719,  960,  922,  926
1720,  983,  955,  982
1721,  962,  927,  920
1722,  971,  962,  938
1723,  962,  936,  938
1724,  971,  938,  937
1725,  964,  931,  963
1726,  963,  931,  930
1727,  965,  933,  964
1728,  964,  933,  931
1729,  985,  957,  956
1730,  970,  917,  934
1731,  966,  948,  906
1732,  966,  944,  951
1733,  967,  940,  901
1734,  968,  967,  935
1735,  968,  935,  941
1736, 1016, 1003,  981
1737,  969,  913,  914
1738,  969,  904,  946
1739, 1013,  995, 1006
1740,  970,  954,  917
1741,  972,  937,  939
1742,  972,  971,  937
1743,  973,  939,  940
1744, 1009, 1007,  982
1745,  993,  940,  967
1746,  979,  942,  974
1747,  974,  942,  908
1748,  999,  947,  977
1749,  978,  945,  943
1750,  976,  943,  910
1751, 1000,  949,  979
1752, 1003,  975,  978
1753,  986,  985,  956
1754,  977,  947,  948
1755,  978,  975,  945
1756,  978,  943,  976
1757, 1025, 1008, 1022
1758,  979,  949,  942
1759,  980,  915,  923
1760,  980,  923,  959
1761,  992,  968,  981
1762,  981,  968,  952
1763,  982,  955,  953
1764,  984,  953,  961
1765, 1046, 1036, 1033
1766,  983,  960,  955
1767,  998,  984,  961
1768,  997,  971,  972
1769, 1026, 1005, 1011
1770,  986,  956,  958
1771,  988,  986,  958
1772, 1012,  988, 1010
1773, 1005,  991,  987
1774,  987,  959,  957
1775,  988,  958,  960
1776, 1045, 1044, 1038
1777, 1001,  970,  994
1778,  994,  970,  965
1779,  994,  965,  990
1780,  990,  965,  964
1781,  991,  964,  963
1782,  991,  963,  959
1783, 1025, 1022, 1023
1784,  992,  967,  968
1785,  993,  973,  940
1786,  993,  967,  992
1787, 1028, 1026, 1011
1788, 1001,  954,  970
1789,  995,  977,  948
1790, 1006,  966,  951
1791, 1015,  973,  993
1792, 1045, 1035, 1044
1793,  998,  997,  984
1794,  997,  972,  996
1795,  998,  961,  962
1796,  998,  971,  997
1797,  999,  974,  947
1798, 1036, 1026, 1028
1799, 1000,  976,  949
1800, 1019,  979, 1004
1801, 1021,  989, 1001
1802, 1001,  989,  954
1803, 1022, 1003, 1002
1804, 1002,  978,  976
1805, 1016,  981,  952
1806, 1003,  978, 1002
1807, 1010,  983, 1007
1808, 1004,  979,  974
1809, 1005,  990,  991
1810, 1011,  985,  986
1811, 1006,  951,  932
1812, 1006,  932,  989
1813, 1007,  983,  982
1814, 1009,  982,  984
1815, 1014,  992, 1008
1816, 1008,  992,  981
1817, 1041,  997,  996
1818, 1035, 1034, 1031
1819, 1024,  999, 1018
1820, 1010,  988,  983
1821, 1012, 1011,  986
1822, 1018,  977, 1013
1823, 1012,  986,  988
1824, 1033, 1029, 1032
1825, 1013,  977,  995
1826, 1036, 1017, 1026
1827, 1030, 1014, 1025
1828, 1014,  993,  992
1829, 1015,  996,  973
1830, 1015,  993, 1014
1831, 1016,  952,  946
1832, 1016,  975, 1003
1833, 1020,  994, 1017
1834, 1017,  994,  990
1835, 1018,  999,  977
1836, 1021, 1018, 1013
1837, 1019, 1000,  979
1838, 1037, 1004, 1024
1839, 1039, 1020, 1036
1840, 1020, 1001,  994
1841, 1021, 1013,  989
1842, 1021, 1001, 1020
1843, 1022, 1008,  981
1844, 1023, 1022, 1002
1845, 1023, 1002, 1000
1846, 1038, 1023, 1019
1847, 1029, 1010, 1027
1848, 1024, 1004,  999
1849, 1038, 1019, 1037
1850, 1025, 1014, 1008
1851, 1026, 1017, 1005
1852, 1028, 1011, 1012
1853, 1027, 1010, 1007
1854, 1034, 1007, 1009
1855, 1029, 1028, 1012
1856, 1039, 1021, 1020
1857, 1029, 1012, 1010
1858, 1032, 1029, 1027
1859, 1030, 1015, 1014
1860, 1045, 1037, 1042
1861, 1031,  996, 1015
1862, 1031, 1015, 1030
1863, 1043, 1034, 1035
1864, 1046, 1042, 1040
1865, 1040, 1018, 1039
1866, 1033, 1028, 1029
1867, 1034, 1027, 1007
1868, 1041, 1034, 1009
1869, 1035, 1031, 1030
1870, 1044, 1025, 1038
1871, 1036, 1020, 1017
1872, 1036, 1028, 1033
1873, 1037, 1019, 1004
1874, 1042, 1037, 1024
1875, 1045, 1038, 1037
1876, 1038, 1025, 1023
1877, 1046, 1040, 1039
1878, 1039, 1018, 1021
1879, 1042, 1033, 1032
1880, 1040, 1024, 1018
1881, 1041, 1009,  997
1882, 1041,  996, 1031
1883, 1045, 1043, 1035
1884, 1042, 1024, 1040
1885, 1043, 1032, 1027
1886, 1043, 1027, 1034
1887, 1044, 1035, 1030
1888, 1044, 1030, 1025
1889, 1045, 1042, 1032
1890, 1045, 1032, 1043
1891, 1046, 1039, 1036
1892, 1046, 1033, 1042
1893, 1098,  197, 1047
1894, 1047,  135,  134
1895, 1110, 1056, 1057
1896, 1049,    8,  120
1897, 1130, 1129, 1090
1898, 1103,  132, 1050
1899, 1094,  192,  193
1900, 1082,  191, 1081
1901, 1051, 1050,  131
1902, 1052, 1051,  130
1903, 1053, 1052,  129
1904, 1054, 1053,  128
1905, 1055, 1054,  127
1906, 1056, 1055,  126
1907, 1058, 1057,  124
1908, 1102, 1058, 1048
1909, 1058,    9,  169
1910, 1059,  170,  171
1911,  111,    7,  172
1912, 1060,  111,  172
1913, 1079,  174, 1078
1914, 1061,  113,  112
1915, 1062,  114,  113
1916, 1063,  115,  114
1917, 1064,  116,  115
1918, 1093, 1062, 1061
1919, 1065,  117,  116
1920, 1068,  120,  119
1921,  186,  185,   12
1922, 1086,  185,  186
1923, 1097, 1083, 1082
1924, 1070,  183, 1069
1925, 1071,  182, 1070
1926, 1072,  181, 1071
1927, 1073,  180, 1072
1928, 1074,  179, 1073
1929, 1075,  178, 1074
1930, 1090, 1065, 1064
1931, 1144, 1140, 1104
1932, 1195, 1161, 1184
1933, 1120, 1113, 1077
1934, 1158,  172,  173
1935,  197,   10,  135
1936, 1047,  197,  135
1937, 1098, 1080,  196
1938, 1080,  195,  196
1939, 1138, 1101, 1080
1940, 1099, 1094,  193
1941, 1094, 1081,  192
1942, 1097, 1095, 1083
1943, 1083,  190, 1082
1944, 1084,  189, 1083
1945, 1085,  188, 1084
1946, 1126, 1115, 1086
1947, 1141,  133, 1103
1948, 1147, 1050, 1106
1949, 1048,  169,  170
1950, 1059,  171, 1049
1951, 1049,  171,    8
1952, 1067,  119,  118
1953, 1050,  132,  131
1954, 1051,  131,  130
1955, 1052,  130,  129
1956, 1118, 1116, 1070
1957, 1053,  129,  128
1958, 1117, 1071, 1116
1959, 1054,  128,  127
1960, 1119, 1072, 1117
1961, 1055,  127,  126
1962, 1143, 1107, 1140
1963, 1056,  126,  125
1964, 1130, 1090, 1089
1965, 1057, 1056,  125
1966, 1110, 1105, 1056
1967, 1057,  125,  124
1968, 1102, 1057, 1058
1969, 1058,  124,    9
1970, 1058,  169, 1048
1971, 1067,  118, 1066
1972, 1059, 1048,  170
1973, 1061,  112, 1060
1974, 1060,  112,  111
1975, 1078,  175, 1077
1976, 1062,  113, 1061
1977, 1077,  176, 1076
1978, 1063,  114, 1062
1979, 1076,  177, 1075
1980, 1064,  115, 1063
1981, 1120, 1076, 1112
1982, 1065,  116, 1064
1983, 1089, 1064, 1063
1984, 1066,  117, 1065
1985, 1091, 1066, 1088
1986, 1066,  118,  117
1987, 1092, 1067, 1091
1988, 1068,  119, 1067
1989, 1111, 1049, 1068
1990, 1068, 1049,  120
1991, 1069,  183,  184
1992, 1115,  185, 1086
1993, 1173, 1150, 1118
1994, 1070,  182,  183
1995, 1107, 1052, 1053
1996, 1071,  181,  182
1997, 1107, 1053, 1104
1998, 1072,  180,  181
1999, 1178, 1144, 1146
2000, 1073,  179,  180
2001, 1121, 1074, 1114
2002, 1074,  178,  179
2003, 1108, 1055, 1105
2004, 1075,  177,  178
2005, 1093, 1087, 1062
2006, 1076,  176,  177
2007, 1158, 1124, 1060
2008, 1077,  175,  176
2009, 1113, 1078, 1077
2010, 1078,  174,  175
2011, 1158, 1079, 1124
2012, 1079,  173,  174
2013, 1101,  195, 1080
2014, 1192, 1147, 1177
2015, 1081,  191,  192
2016, 1191, 1181, 1183
2017, 1173, 1135, 1150
2018, 1082,  190,  191
2019, 1095, 1084, 1083
2020, 1083,  189,  190
2021, 1096, 1084, 1095
2022, 1084,  188,  189
2023, 1126, 1086, 1085
2024, 1085,  187,  188
2025, 1086,  186,  187
2026, 1086,  187, 1085
2027, 1089, 1063, 1087
2028, 1087, 1063, 1062
2029, 1091, 1067, 1066
2030, 1088, 1066, 1065
2031, 1165, 1127, 1093
2032, 1112, 1076, 1075
2033, 1090, 1088, 1065
2034, 1090, 1064, 1089
2035, 1123, 1059, 1111
2036, 1148, 1145, 1110
2037, 1159, 1111, 1092
2038, 1092, 1068, 1067
2039, 1124, 1093, 1061
2040, 1122, 1079, 1078
2041, 1099,  193,  194
2042, 1134, 1099, 1101
2043, 1100, 1082, 1081
2044, 1126, 1118, 1069
2045, 1173, 1126, 1096
2046, 1096, 1085, 1084
2047, 1100, 1097, 1082
2048, 1167, 1166, 1133
2049, 1098,  196,  197
2050, 1125, 1098, 1047
2051, 1101,  194,  195
2052, 1101, 1099,  194
2053, 1139, 1081, 1094
2054, 1106, 1050, 1051
2055, 1138, 1080, 1125
2056, 1134, 1133, 1099
2057, 1110, 1057, 1102
2058, 1123, 1048, 1059
2059, 1174, 1103, 1147
2060, 1103,  133,  132
2061, 1104, 1053, 1054
2062, 1108, 1054, 1055
2063, 1105, 1055, 1056
2064, 1162, 1130, 1128
2065, 1109, 1051, 1052
2066, 1169, 1137, 1168
2067, 1153, 1119, 1152
2068, 1152, 1117, 1151
2069, 1131, 1088, 1129
2070, 1108, 1104, 1054
2071, 1109, 1106, 1051
2072, 1109, 1052, 1107
2073, 1148, 1102, 1123
2074, 1132, 1091, 1131
2075, 1111, 1059, 1049
2076, 1111, 1068, 1092
2077, 1128, 1089, 1087
2078, 1121, 1075, 1074
2079, 1157, 1122, 1113
2080, 1120, 1077, 1076
2081, 1114, 1074, 1073
2082, 1119, 1073, 1072
2083, 1115, 1069,  184
2084, 1115,  184,  185
2085, 1116, 1071, 1070
2086, 1168, 1137, 1136
2087, 1181, 1180, 1152
2088, 1117, 1072, 1071
2089, 1118, 1070, 1069
2090, 1135, 1096, 1095
2091, 1240, 1221, 1231
2092, 1119, 1114, 1073
2093, 1179, 1144, 1178
2094, 1156, 1120, 1155
2095, 1154, 1121, 1149
2096, 1121, 1112, 1075
2097, 1165, 1124, 1122
2098, 1122, 1078, 1113
2099, 1197, 1195, 1185
2100, 1123, 1102, 1048
2101, 1124, 1061, 1060
2102, 1124, 1079, 1122
2103, 1125, 1080, 1098
2104, 1141, 1125, 1047
2105, 1126, 1069, 1115
2106, 1126, 1085, 1096
2107, 1128, 1087, 1127
2108, 1127, 1087, 1093
2109, 1155, 1112, 1154
2110, 1130, 1089, 1128
2111, 1146, 1105, 1145
2112, 1129, 1088, 1090
2113, 1187, 1186, 1154
2114, 1162, 1128, 1161
2115, 1198, 1190, 1193
2116, 1131, 1091, 1088
2117, 1193, 1132, 1164
2118, 1132, 1092, 1091
2119, 1166, 1139, 1133
2120, 1133, 1094, 1099
2121, 1138, 1134, 1101
2122, 1170, 1167, 1134
2123, 1137, 1095, 1097
2124, 1136, 1097, 1100
2125, 1171, 1100, 1139
2126, 1232, 1218, 1220
2127, 1137, 1135, 1095
2128, 1137, 1097, 1136
2129, 1189, 1125, 1174
2130, 1219, 1218, 1204
2131, 1139, 1100, 1081
2132, 1139, 1094, 1133
2133, 1140, 1107, 1104
2134, 1144, 1104, 1108
2135, 1141, 1047,  134
2136, 1141,  134,  133
2137, 1142, 1106, 1109
2138, 1143, 1142, 1109
2139, 1143, 1109, 1107
2140, 1176, 1175, 1143
2141, 1146, 1108, 1105
2142, 1163, 1129, 1160
2143, 1145, 1105, 1110
2144, 1200, 1160, 1194
2145, 1164, 1131, 1163
2146, 1146, 1144, 1108
2147, 1147, 1103, 1050
2148, 1177, 1106, 1142
2149, 1148, 1110, 1102
2150, 1188, 1123, 1159
2151, 1149, 1121, 1114
2152, 1153, 1114, 1119
2153, 1151, 1116, 1150
2154, 1150, 1116, 1118
2155, 1151, 1117, 1116
2156, 1183, 1150, 1169
2157, 1212, 1168, 1205
2158, 1152, 1119, 1117
2159, 1238, 1226, 1233
2160, 1153, 1149, 1114
2161, 1195, 1162, 1161
2162, 1154, 1112, 1121
2163, 1161, 1127, 1157
2164, 1155, 1120, 1112
2165, 1184, 1157, 1156
2166, 1156, 1113, 1120
2167, 1165, 1157, 1127
2168, 1157, 1113, 1156
2169, 1158, 1060,  172
2170, 1158,  173, 1079
2171, 1159, 1123, 1111
2172, 1159, 1092, 1132
2173, 1198, 1172, 1190
2174, 1160, 1129, 1130
2175, 1161, 1128, 1127
2176, 1184, 1161, 1157
2177, 1195, 1194, 1162
2178, 1162, 1160, 1130
2179, 1193, 1190, 1188
2180, 1163, 1131, 1129
2181, 1190, 1148, 1188
2182, 1164, 1132, 1131
2183, 1165, 1093, 1124
2184, 1165, 1122, 1157
2185, 1203, 1166, 1199
2186, 1167, 1133, 1134
2187, 1170, 1134, 1138
2188, 1204, 1170, 1192
2189, 1205, 1136, 1171
2190, 1221, 1205, 1203
2191, 1169, 1150, 1135
2192, 1169, 1135, 1137
2193, 1192, 1174, 1147
2194, 1192, 1189, 1174
2195, 1171, 1136, 1100
2196, 1171, 1139, 1166
2197, 1178, 1146, 1172
2198, 1172, 1146, 1145
2199, 1173, 1118, 1126
2200, 1173, 1096, 1135
2201, 1174, 1125, 1141
2202, 1174, 1141, 1103
2203, 1175, 1142, 1143
2204, 1176, 1143, 1140
2205, 1179, 1140, 1144
2206, 1182, 1153, 1180
2207, 1177, 1147, 1106
2208, 1206, 1142, 1175
2209, 1207, 1172, 1198
2210, 1208, 1178, 1207
2211, 1187, 1149, 1182
2212, 1179, 1176, 1140
2213, 1180, 1153, 1152
2214, 1181, 1152, 1151
2215, 1183, 1181, 1151
2216, 1191, 1183, 1169
2217, 1208, 1179, 1178
2218, 1182, 1149, 1153
2219, 1183, 1151, 1150
2220, 1191, 1169, 1168
2221, 1185, 1156, 1155
2222, 1185, 1184, 1156
2223, 1186, 1155, 1154
2224, 1186, 1185, 1155
2225, 1187, 1154, 1149
2226, 1214, 1195, 1197
2227, 1210, 1182, 1201
2228, 1210, 1187, 1182
2229, 1188, 1148, 1123
2230, 1193, 1188, 1159
2231, 1189, 1170, 1138
2232, 1189, 1138, 1125
2233, 1190, 1172, 1145
2234, 1190, 1145, 1148
2235, 1217, 1203, 1199
2236, 1213, 1181, 1191
2237, 1219, 1192, 1177
2238, 1192, 1170, 1189
2239, 1193, 1159, 1132
2240, 1242, 1193, 1164
2241, 1242, 1228, 1198
2242, 1194, 1160, 1162
2243, 1195, 1184, 1185
2244, 1197, 1185, 1186
2245, 1196, 1175, 1176
2246, 1209, 1176, 1179
2247, 1211, 1186, 1187
2248, 1228, 1226, 1207
2249, 1202, 1163, 1200
2250, 1216, 1200, 1215
2251, 1199, 1166, 1167
2252, 1204, 1199, 1167
2253, 1200, 1163, 1160
2254, 1215, 1194, 1214
2255, 1201, 1182, 1180
2256, 1213, 1180, 1181
2257, 1242, 1202, 1228
2258, 1202, 1164, 1163
2259, 1234, 1232, 1220
2260, 1203, 1171, 1166
2261, 1204, 1167, 1170
2262, 1219, 1206, 1218
2263, 1205, 1168, 1136
2264, 1205, 1171, 1203
2265, 1206, 1177, 1142
2266, 1220, 1175, 1196
2267, 1223, 1214, 1197
2268, 1207, 1178, 1172
2269, 1225, 1210, 1224
2270, 1209, 1179, 1208
2271, 1227, 1209, 1208
2272, 1209, 1196, 1176
2273, 1211, 1187, 1210
2274, 1241, 1237, 1235
2275, 1223, 1215, 1214
2276, 1211, 1197, 1186
2277, 1240, 1235, 1229
2278, 1212, 1191, 1168
2279, 1213, 1201, 1180
2280, 1230, 1191, 1212
2281, 1214, 1194, 1195
2282, 1223, 1197, 1211
2283, 1233, 1215, 1223
2284, 1215, 1200, 1194
2285, 1228, 1216, 1226
2286, 1216, 1202, 1200
2287, 1218, 1217, 1199
2288, 1241, 1240, 1231
2289, 1218, 1199, 1204
2290, 1220, 1218, 1206
2291, 1219, 1204, 1192
2292, 1219, 1177, 1206
2293, 1220, 1206, 1175
2294, 1234, 1196, 1222
2295, 1221, 1212, 1205
2296, 1221, 1203, 1217
2297, 1229, 1224, 1201
2298, 1222, 1196, 1209
2299, 1225, 1211, 1210
2300, 1239, 1236, 1238
2301, 1224, 1210, 1201
2302, 1229, 1201, 1213
2303, 1227, 1208, 1226
2304, 1225, 1223, 1211
2305, 1226, 1208, 1207
2306, 1233, 1226, 1216
2307, 1238, 1236, 1237
2308, 1227, 1222, 1209
2309, 1228, 1207, 1198
2310, 1228, 1202, 1216
2311, 1230, 1229, 1213
2312, 1240, 1230, 1212
2313, 1230, 1213, 1191
2314, 1240, 1212, 1221
2315, 1231, 1221, 1217
2316, 1232, 1231, 1217
2317, 1232, 1217, 1218
2318, 1234, 1220, 1196
2319, 1233, 1216, 1215
2320, 1239, 1223, 1225
2321, 1241, 1235, 1240
2322, 1234, 1231, 1232
2323, 1237, 1236, 1235
2324, 1235, 1224, 1229
2325, 1236, 1225, 1224
2326, 1236, 1224, 1235
2327, 1237, 1222, 1227
2328, 1238, 1237, 1227
2329, 1238, 1227, 1226
2330, 1239, 1238, 1233
2331, 1239, 1233, 1223
2332, 1239, 1225, 1236
2333, 1240, 1229, 1230
2334, 1241, 1231, 1234
2335, 1241, 1234, 1222
2336, 1241, 1222, 1237
2337, 1242, 1198, 1193
2338, 1242, 1164, 1202
*Orientation, name=Ori-1
1., 0., 0., 0., 1., 0.
3, 0.
** Region: (CompositeLayup-1-1: Generated From Layup)
*Elset, elset=CompositeLayup-1-1, generate
    1,  2338,     1
** Section: CompositeLayup-1-1
*Shell Section, elset=CompositeLayup-1-1, composite, orientation=Ori-1, layup=CompositeLayup-1
0.25, 1, ABQ_PLY_FABRIC, 45., Ply-1
0.25, 1, ABQ_PLY_FABRIC, -45., Ply-2
0.25, 1, ABQ_PLY_FABRIC, -45., Ply-3
0.25, 1, ABQ_PLY_FABRIC, 45., Ply-4
*End Part
**  
**
** ASSEMBLY
**
*Assembly, name=Assembly
**  
*Instance, name=Plate-1, part=PLATE
*End Instance
**  
*Nset, nset=Set-1, instance=Plate-1
   6,   7,  12,  92,  93,  94,  95,  96,  97,  98,  99, 100, 101, 102, 103, 104
 105, 106, 107, 108, 109, 110, 172, 173, 174, 175, 176, 177, 178, 179, 180, 181
 182, 183, 184, 185
*Elset, elset=Set-1, instance=Plate-1
  762,  763,  774,  782,  783,  838,  841,  843,  845,  847,  849,  851,  853,  855,  858,  861
  863,  865,  867,  934, 1911, 1921, 1934, 1991, 1994, 1996, 1998, 2000, 2002, 2004, 2006, 2008
 2010, 2012, 2084
*Nset, nset=Set-2, instance=Plate-1
   4,   5,  11,  45,  46,  47,  48,  49,  50,  51,  52,  53,  54,  55,  56,  57
  58,  59,  60,  61,  62,  63, 152, 153, 154, 155, 156, 157, 158, 159, 160, 161
 162, 163, 164, 165
*Elset, elset=Set-2, instance=Plate-1
   23,   24,   36,  111,  112,  114,  116,  118,  120,  122,  124,  126,  128,  130,  132,  134
  136,  138,  140,  215, 1339, 1355, 1368, 1426, 1427, 1428, 1430, 1432, 1434, 1436, 1438, 1440
 1442, 1508, 1509
*End Assembly
*Amplitude, name=Ramp, time=TOTAL TIME
             0.,              0.,            0.01,              1.
** 
** MATERIALS
** 
*Material, name=ABQ_PLY_FABRIC
*Density
 1.594e-09,
*Depvar, delete=16
     16,
*User Material, constants=40
27500., 27500.,   0.11,  2900., 27500., 27500.,   0.11,     0.
   604.,   291.,   604.,   291.,    75.,     0.,     0.,     0.
 20.438, 4.6257, 20.438, 4.6257, 0.3221,     1.,     0.,     0.
    75., 0.0008,  0.552,     0.,     0.,     0.,     0.,     0.
     0.,     1.,  1e+09,  1e+09, -1e+09,     0.,     0.,     0.
** ----------------------------------------------------------------
** 
** STEP: Step-1
** 
*Step, name=Step-1, nlgeom=NO
*Dynamic, Explicit
, 0.01
*Bulk Viscosity
0.06, 1.2
** 
** BOUNDARY CONDITIONS
** 
** Name: BC-1 Type: Symmetry/Antisymmetry/Encastre
*Boundary
Set-1, ENCASTRE
** Name: BC-2 Type: Displacement/Rotation
*Boundary, amplitude=Ramp
Set-2, 1, 1, 2.36842
** 
** OUTPUT REQUESTS
** 
*Restart, write, number interval=1, time marks=NO
** 
** FIELD OUTPUT: F-Output-1
** 
*Output, field, number interval=1
*Element Output, position=NODES, directions=YES
LE, PEEQ, SDV
** 
** HISTORY OUTPUT: H-Output-1
** 
*Output, history, variable=PRESELECT
*End Step
