*Heading
** Job name: Plate_nonlinear_436 Model name: Model-1
** Generated by: Abaqus/CAE 2024.HF3
*Preprint, echo=NO, model=NO, history=NO, contact=NO
**
** PARTS
**
*Part, name=PLATE
*Node
      1,   127.878922,   183.259949,           0.
      2,   127.878922,   137.561111,           0.
      3,   146.321075,   119.118965,           0.
      4,   196.736801,   119.118965,           0.
      5,   196.736801,   183.259949,           0.
      6,           0.,   183.259949,           0.
      7,           0.,   119.118965,           0.
      8,   109.436768,   119.118965,           0.
      9,   127.878922,   100.676811,           0.
     10,   127.878922,           0.,           0.
     11,   196.736801,           0.,           0.
     12,           0.,           0.,           0.
     13,   127.878922,   177.547592,           0.
     14,   127.878922,   171.835236,           0.
     15,   127.878922,   166.122879,           0.
     16,   127.878922,   160.410522,           0.
     17,   127.878922,   154.698181,           0.
     18,   127.878922,   148.985825,           0.
     19,   127.878922,   143.273468,           0.
     20,   133.577866,   136.658493,           0.
     21,   138.718948,   134.038971,           0.
     22,   142.798935,   129.958984,           0.
     23,   145.418457,   124.817902,           0.
     24,   151.922821,   119.118965,           0.
     25,   157.524567,   119.118965,           0.
     26,   163.126312,   119.118965,           0.
     27,   168.728073,   119.118965,           0.
     28,   174.329819,   119.118965,           0.
     29,   179.931564,   119.118965,           0.
     30,    185.53331,   119.118965,           0.
     31,   191.135056,   119.118965,           0.
     32,   196.736801,   124.949959,           0.
     33,   196.736801,    130.78096,           0.
     34,   196.736801,   136.611954,           0.
     35,   196.736801,   142.442963,           0.
     36,   196.736801,   148.273956,           0.
     37,   196.736801,    154.10495,           0.
     38,   196.736801,   159.935959,           0.
     39,   196.736801,   165.766953,           0.
     40,   196.736801,   171.597946,           0.
     41,   196.736801,    177.42894,           0.
     42,   190.998642,   183.259949,           0.
     43,   185.260498,   183.259949,           0.
     44,   179.522339,   183.259949,           0.
     45,    173.78418,   183.259949,           0.
     46,   168.046021,   183.259949,           0.
     47,   162.307861,   183.259949,           0.
     48,   156.569702,   183.259949,           0.
     49,   150.831543,   183.259949,           0.
     50,   145.093399,   183.259949,           0.
     51,    139.35524,   183.259949,           0.
     52,   133.617081,   183.259949,           0.
     53,   122.066246,   183.259949,           0.
     54,   116.253563,   183.259949,           0.
     55,   110.440887,   183.259949,           0.
     56,   104.628212,   183.259949,           0.
     57,   98.8155289,   183.259949,           0.
     58,   93.0028534,   183.259949,           0.
     59,   87.1901779,   183.259949,           0.
     60,   81.3774948,   183.259949,           0.
     61,   75.5648193,   183.259949,           0.
     62,   69.7521362,   183.259949,           0.
     63,   63.9394608,   183.259949,           0.
     64,   58.1267815,   183.259949,           0.
     65,    52.314106,   183.259949,           0.
     66,   46.5014267,   183.259949,           0.
     67,   40.6887474,   183.259949,           0.
     68,   34.8760681,   183.259949,           0.
     69,   29.0633907,   183.259949,           0.
     70,   23.2507133,   183.259949,           0.
     71,   17.4380341,   183.259949,           0.
     72,   11.6253567,   183.259949,           0.
     73,   5.81267834,   183.259949,           0.
     74,           0.,    177.42894,           0.
     75,           0.,   171.597946,           0.
     76,           0.,   165.766953,           0.
     77,           0.,   159.935959,           0.
     78,           0.,    154.10495,           0.
     79,           0.,   148.273956,           0.
     80,           0.,   142.442963,           0.
     81,           0.,   136.611954,           0.
     82,           0.,    130.78096,           0.
     83,           0.,   124.949959,           0.
     84,      5.75983,   119.118965,           0.
     85,     11.51966,   119.118965,           0.
     86,   17.2794895,   119.118965,           0.
     87,     23.03932,   119.118965,           0.
     88,   28.7991505,   119.118965,           0.
     89,    34.558979,   119.118965,           0.
     90,   40.3188095,   119.118965,           0.
     91,     46.07864,   119.118965,           0.
     92,   51.8384705,   119.118965,           0.
     93,   57.5983009,   119.118965,           0.
     94,   63.3581314,   119.118965,           0.
     95,   69.1179581,   119.118965,           0.
     96,   74.8777924,   119.118965,           0.
     97,    80.637619,   119.118965,           0.
     98,   86.3974533,   119.118965,           0.
     99,     92.15728,   119.118965,           0.
    100,   97.9171143,   119.118965,           0.
    101,   103.676941,   119.118965,           0.
    102,   110.339394,   124.817902,           0.
    103,   112.958908,   129.958984,           0.
    104,   117.038895,   134.038971,           0.
    105,   122.179985,   136.658493,           0.
    106,   127.878922,   94.7546463,           0.
    107,   127.878922,   88.8324814,           0.
    108,   127.878922,   82.9103165,           0.
    109,   127.878922,   76.9881516,           0.
    110,   127.878922,   71.0659866,           0.
    111,   127.878922,   65.1438217,           0.
    112,   127.878922,    59.221653,           0.
    113,   127.878922,   53.2994881,           0.
    114,   127.878922,   47.3773232,           0.
    115,   127.878922,   41.4551582,           0.
    116,   127.878922,   35.5329933,           0.
    117,   127.878922,   29.6108265,           0.
    118,   127.878922,   23.6886616,           0.
    119,   127.878922,   17.7664967,           0.
    120,   127.878922,   11.8443308,           0.
    121,   127.878922,   5.92216539,           0.
    122,   133.617081,           0.,           0.
    123,    139.35524,           0.,           0.
    124,   145.093399,           0.,           0.
    125,   150.831543,           0.,           0.
    126,   156.569702,           0.,           0.
    127,   162.307861,           0.,           0.
    128,   168.046021,           0.,           0.
    129,    173.78418,           0.,           0.
    130,   179.522339,           0.,           0.
    131,   185.260498,           0.,           0.
    132,   190.998642,           0.,           0.
    133,   196.736801,   5.95594835,           0.
    134,   196.736801,   11.9118967,           0.
    135,   196.736801,   17.8678436,           0.
    136,   196.736801,   23.8237934,           0.
    137,   196.736801,   29.7797413,           0.
    138,   196.736801,   35.7356873,           0.
    139,   196.736801,   41.6916389,           0.
    140,   196.736801,   47.6475868,           0.
    141,   196.736801,   53.6035347,           0.
    142,   196.736801,   59.5594826,           0.
    143,   196.736801,   65.5154266,           0.
    144,   196.736801,   71.4713745,           0.
    145,   196.736801,     77.42733,           0.
    146,   196.736801,   83.3832779,           0.
    147,   196.736801,   89.3392258,           0.
    148,   196.736801,   95.2951736,           0.
    149,   196.736801,   101.251122,           0.
    150,   196.736801,   107.207069,           0.
    151,   196.736801,   113.163017,           0.
    152,   145.418457,   113.420029,           0.
    153,   142.798935,   108.278938,           0.
    154,   138.718948,   104.198952,           0.
    155,   133.577866,   101.579437,           0.
    156,   122.179985,   101.579437,           0.
    157,   117.038895,   104.198952,           0.
    158,   112.958908,   108.278938,           0.
    159,   110.339394,   113.420029,           0.
    160,           0.,   113.163017,           0.
    161,           0.,   107.207069,           0.
    162,           0.,   101.251122,           0.
    163,           0.,   95.2951736,           0.
    164,           0.,   89.3392258,           0.
    165,           0.,   83.3832779,           0.
    166,           0.,     77.42733,           0.
    167,           0.,   71.4713745,           0.
    168,           0.,   65.5154266,           0.
    169,           0.,   59.5594826,           0.
    170,           0.,   53.6035347,           0.
    171,           0.,   47.6475868,           0.
    172,           0.,   41.6916389,           0.
    173,           0.,   35.7356873,           0.
    174,           0.,   29.7797413,           0.
    175,           0.,   23.8237934,           0.
    176,           0.,   17.8678436,           0.
    177,           0.,   11.9118967,           0.
    178,           0.,   5.95594835,           0.
    179,   5.81267834,           0.,           0.
    180,   11.6253567,           0.,           0.
    181,   17.4380341,           0.,           0.
    182,   23.2507133,           0.,           0.
    183,   29.0633907,           0.,           0.
    184,   34.8760681,           0.,           0.
    185,   40.6887474,           0.,           0.
    186,   46.5014267,           0.,           0.
    187,    52.314106,           0.,           0.
    188,   58.1267815,           0.,           0.
    189,   63.9394608,           0.,           0.
    190,   69.7521362,           0.,           0.
    191,   75.5648193,           0.,           0.
    192,   81.3774948,           0.,           0.
    193,   87.1901779,           0.,           0.
    194,   93.0028534,           0.,           0.
    195,   98.8155289,           0.,           0.
    196,   104.628212,           0.,           0.
    197,   110.440887,           0.,           0.
    198,   116.253563,           0.,           0.
    199,   122.066246,           0.,           0.
    200,    133.13002,   175.643845,           0.
    201,   149.119461,   128.939011,           0.
    202,   149.371552,   123.205887,           0.
    203,   132.862396,   157.522125,           0.
    204,   132.938461,   151.850021,           0.
    205,    138.16011,   140.136292,           0.
    206,   133.819733,   145.793839,           0.
    207,   132.263107,   140.684647,           0.
    208,   144.671417,   135.660141,           0.
    209,   189.079498,   124.324997,           0.
    210,   182.983856,   124.251869,           0.
    211,   177.177521,   124.060707,           0.
    212,    171.53801,   124.016151,           0.
    213,   165.848846,   124.075157,           0.
    214,   159.934799,    124.26413,           0.
    215,   154.008331,   124.117401,           0.
    216,   191.684784,    162.85997,           0.
    217,    191.70195,   157.014847,           0.
    218,   191.703262,    151.18631,           0.
    219,   191.707123,   145.356461,           0.
    220,    191.65921,   139.466827,           0.
    221,    191.67305,   133.647568,           0.
    222,   142.299561,   178.331146,           0.
    223,   153.702667,   178.295441,           0.
    224,   159.438599,   178.289124,           0.
    225,   165.176453,   178.286118,           0.
    226,   170.914642,   178.283707,           0.
    227,   176.680328,   178.232346,           0.
    228,   182.662201,    178.04454,           0.
    229,   188.940323,   178.000458,           0.
    230,   168.672073,   128.999039,           0.
    231,    156.27681,   130.144379,           0.
    232,    180.07399,   129.136078,           0.
    233,   174.405975,   129.004288,           0.
    234,   162.863754,   129.270294,           0.
    235,    132.93428,   163.358231,           0.
    236,   137.812576,   154.685394,           0.
    237,    147.97319,   178.306885,           0.
    238,   162.306458,   173.310959,           0.
    239,   173.848465,   173.242462,           0.
    240,   137.443481,   178.687866,           0.
    241,   156.590714,   173.302856,           0.
    242,   168.065048,   173.290298,           0.
    243,   179.758148,   173.054443,           0.
    244,   191.638962,   168.672562,           0.
    245,   186.540421,    159.94313,           0.
    246,   186.544312,   142.298126,           0.
    247,   186.675781,   154.063812,           0.
    248,   192.040939,   173.589966,           0.
    249,   186.664932,   148.231125,           0.
    250,   186.546585,   136.340927,           0.
    251,   186.371338,   130.007889,           0.
    252,   186.279358,   172.223557,           0.
    253,   133.109512,    169.37085,           0.
    254,   151.454163,   135.023804,           0.
    255,   144.365173,   142.081055,           0.
    256,   138.798782,   172.919388,           0.
    257,   165.983017,   133.978989,           0.
    258,   171.633606,   133.883759,           0.
    259,   177.285339,   133.877655,           0.
    260,   137.874481,   160.472122,           0.
    261,   137.561386,   149.939728,           0.
    262,   145.034836,    173.16066,           0.
    263,   176.941116,   168.236832,           0.
    264,   171.040436,   168.301025,           0.
    265,   159.487366,   168.360779,           0.
    266,   165.214828,   168.326996,           0.
    267,   150.822632,      173.112,           0.
    268,   182.082077,   168.475311,           0.
    269,   186.494293,   165.872513,           0.
    270,   181.513062,    156.90509,           0.
    271,   181.640762,   151.107254,           0.
    272,   181.577545,   145.267029,           0.
    273,   180.811417,   138.993301,           0.
    274,   192.119507,   128.742279,           0.
    275,   138.007584,   166.407761,           0.
    276,   140.366562,   146.030518,           0.
    277,   148.772812,   139.490494,           0.
    278,   160.591156,   134.378067,           0.
    279,   154.078888,   140.554138,           0.
    280,   149.249496,   144.292511,           0.
    281,   180.643616,   163.133926,           0.
    282,    174.56218,   138.819168,           0.
    283,   168.887451,   138.935684,           0.
    284,   142.914429,   163.404007,           0.
    285,   182.217728,   133.671173,           0.
    286,   163.333252,   138.892639,           0.
    287,   142.889877,    157.45491,           0.
    288,   142.851944,   151.325974,           0.
    289,   162.209305,   163.479095,           0.
    290,   147.955917,   167.223724,           0.
    291,   174.135208,   163.284439,           0.
    292,   168.132141,    163.22139,           0.
    293,    153.94249,    168.23494,           0.
    294,   177.082855,   143.111069,           0.
    295,   176.750641,   148.158829,           0.
    296,    176.63298,    153.96608,           0.
    297,   145.125641,   146.681824,           0.
    298,   142.542313,   168.623108,           0.
    299,   148.789017,   149.699173,           0.
    300,    165.84581,   143.857056,           0.
    301,    156.24054,   135.728287,           0.
    302,   148.741882,   160.109436,           0.
    303,   171.829407,   144.589462,           0.
    304,   176.838196,   158.969162,           0.
    305,   164.754074,    158.31395,           0.
    306,   171.313614,   157.375412,           0.
    307,   156.760406,    163.80249,           0.
    308,   171.882874,   150.890182,           0.
    309,   167.965622,   148.195786,           0.
    310,   154.090317,   147.021805,           0.
    311,   159.719345,   143.880997,           0.
    312,   147.469925,   154.545685,           0.
    313,   152.287491,   163.895081,           0.
    314,   158.841217,   158.946976,           0.
    315,   153.961594,   154.233551,           0.
    316,   166.749619,   152.886703,           0.
    317,   161.031998,   153.780243,           0.
    318,   158.434998,   149.523773,           0.
    319,   154.118515,    160.19751,           0.
    320,   163.291229,   148.687424,           0.
    321,   158.792633,   138.686829,           0.
    322,   116.601074,   139.936096,           0.
    323,   20.1343594,    124.13868,           0.
    324,   37.7825813,   178.227631,           0.
    325,   106.825783,   129.204269,           0.
    326,   122.556053,   175.569351,           0.
    327,   122.896576,   157.557343,           0.
    328,   122.977318,   151.943207,           0.
    329,   123.064674,   146.573502,           0.
    330,   26.1430397,   178.121536,           0.
    331,   31.9677067,   178.209595,           0.
    332,   14.1134596,   124.318817,           0.
    333,   7.78937387,   124.388351,           0.
    334,   25.9151974,   124.114822,           0.
    335,   43.5951767,   178.228226,           0.
    336,   43.1987267,   124.109398,           0.
    337,    61.033123,   178.228409,           0.
    338,   72.6584702,   178.228348,           0.
    339,   84.2839203,   178.228561,           0.
    340,   90.0967865,   178.229492,           0.
    341,   95.9096603,   178.231079,           0.
    342,   101.721588,   178.233994,           0.
    343,   107.500114,    178.24971,           0.
    344,   113.266563,   178.235504,           0.
    345,   5.10496187,   145.349762,           0.
    346,   5.05482101,   151.188431,           0.
    347,   5.04731941,   157.020203,           0.
    348,   5.09384108,   162.884399,           0.
    349,   5.24901342,   168.961288,           0.
    350,   5.25935936,   175.335114,           0.
    351,   31.6784153,   124.110657,           0.
    352,   37.4387894,   124.110008,           0.
    353,   49.4077911,   178.228455,           0.
    354,   55.2204475,   178.228668,           0.
    355,   48.9585571,   124.109512,           0.
    356,   54.7183838,   124.109596,           0.
    357,   66.8457947,   178.228638,           0.
    358,   60.4782143,   124.109619,           0.
    359,   66.2380447,   124.109627,           0.
    360,   78.4711761,   178.228653,           0.
    361,   71.9978714,   124.109627,           0.
    362,   77.7576981,   124.109673,           0.
    363,   83.5280228,   124.111534,           0.
    364,   89.3528442,   124.122047,           0.
    365,   95.1204529,   124.216759,           0.
    366,   101.261803,   124.908501,           0.
    367,   106.308136,   123.433723,           0.
    368,   110.855225,   135.540741,           0.
    369,   122.797752,   163.333618,           0.
    370,    122.61142,   169.301926,           0.
    371,   117.973633,   154.750641,           0.
    372,   118.194321,   149.289185,           0.
    373,   122.734062,   141.432129,           0.
    374,   23.0067539,   129.143433,           0.
    375,   46.0786438,   129.102158,           0.
    376,   10.6250324,   130.111542,           0.
    377,   17.1789494,   129.282761,           0.
    378,    28.793314,   129.111099,           0.
    379,   40.3188019,   129.102615,           0.
    380,   34.5578918,   129.104645,           0.
    381,   51.8384705,   129.102432,           0.
    382,   57.5983009,   129.102448,           0.
    383,   63.3581314,   129.102524,           0.
    384,   69.1179581,   129.102554,           0.
    385,   74.8777466,   129.102631,           0.
    386,   80.6515045,   129.105164,           0.
    387,   92.5729065,   129.170639,           0.
    388,   86.5733795,   129.132187,           0.
    389,   20.3189163,   177.980408,           0.
    390,   87.1910782,   173.200745,           0.
    391,   98.8172455,   173.209259,           0.
    392,   110.519241,   173.229523,           0.
    393,   75.5648117,   173.199127,           0.
    394,   29.0801487,   173.012817,           0.
    395,   63.9394493,   173.199158,           0.
    396,   14.5492792,   177.980637,           0.
    397,   9.64803028,   178.462662,           0.
    398,   34.8795395,   173.163116,           0.
    399,    52.314167,   173.199051,           0.
    400,   58.1268044,   173.199615,           0.
    401,   40.6897812,   173.192352,           0.
    402,   46.5017662,   173.198074,           0.
    403,   93.0047302,   173.204544,           0.
    404,   104.704315,   173.216217,           0.
    405,   81.3778458,   173.200012,           0.
    406,   69.7521133,   173.199493,           0.
    407,   5.18336868,   139.499619,           0.
    408,   10.2136116,   148.299423,           0.
    409,   10.1267929,   159.923935,           0.
    410,   5.16488075,   133.705856,           0.
    411,   4.71585751,   128.787338,           0.
    412,   10.2440701,   165.806183,           0.
    413,   10.1178074,   154.104034,           0.
    414,   11.0256758,   172.427536,           0.
    415,   104.247604,   134.841202,           0.
    416,   110.846573,   141.013763,           0.
    417,   112.891693,   151.738434,           0.
    418,   117.679443,   160.411514,           0.
    419,   31.6763248,   134.102432,           0.
    420,   54.7183914,   134.098022,           0.
    421,   60.4782143,   134.098358,           0.
    422,   43.1987534,   134.098206,           0.
    423,   25.8930454,   134.122009,           0.
    424,   48.9585724,   134.098511,           0.
    425,   66.2380371,   134.098404,           0.
    426,   37.4383278,   134.100037,           0.
    427,   71.9978409,   134.098495,           0.
    428,   77.7618484,   134.099426,           0.
    429,   83.6685486,   134.124451,           0.
    430,   89.7643814,   134.112137,           0.
    431,   20.0730019,   134.147537,           0.
    432,   14.9331942,   133.876709,           0.
    433,   97.5177765,   128.681839,           0.
    434,    116.82576,   172.841324,           0.
    435,    17.350935,   172.586029,           0.
    436,   43.5963554,   168.169952,           0.
    437,   66.8457489,   168.172791,           0.
    438,   49.4083176,   168.172073,           0.
    439,   55.2206268,   168.172882,           0.
    440,   61.0331573,   168.173386,           0.
    441,   72.6584396,   168.172958,           0.
    442,    78.471611,   168.173447,           0.
    443,   84.2856216,    168.17511,           0.
    444,   37.7857437,    168.16217,           0.
    445,   90.1005096,   168.178879,           0.
    446,    32.004425,   168.005096,           0.
    447,   95.9159393,   168.186157,           0.
    448,   101.879578,   168.221268,           0.
    449,   107.825966,   168.337387,           0.
    450,   23.2278919,   172.684402,           0.
    451,   10.4580593,   142.428848,           0.
    452,   15.0866528,   162.876007,           0.
    453,   15.1069374,   157.038254,           0.
    454,   15.2306881,    151.27272,           0.
    455,   14.7769814,   168.071259,           0.
    456,   117.449547,   166.314041,           0.
    457,   106.882072,   139.107986,           0.
    458,   101.405586,   130.452835,           0.
    459,   96.9958267,   134.639938,           0.
    460,    106.42157,   144.054657,           0.
    461,   101.941376,   139.796249,           0.
    462,   20.1471348,    166.71077,           0.
    463,    111.67556,   163.415222,           0.
    464,   113.177956,   145.666672,           0.
    465,   112.453033,   157.299561,           0.
    466,   16.3453789,   139.310165,           0.
    467,   22.7760391,   139.198517,           0.
    468,   80.9069748,   139.331955,           0.
    469,   87.0084381,   139.093124,           0.
    470,    74.958847,   139.174301,           0.
    471,    69.137352,   139.116608,           0.
    472,   63.3623428,   139.101791,           0.
    473,   51.8385391,   139.097198,           0.
    474,   57.5991898,   139.098724,           0.
    475,   46.0787468,    139.09758,           0.
    476,   40.3168182,   139.102722,           0.
    477,   34.5411453,   139.131332,           0.
    478,    28.656292,   139.299545,           0.
    479,   112.859215,   168.827499,           0.
    480,   26.3048649,    167.69957,           0.
    481,   40.6675377,   163.299652,           0.
    482,   34.8664055,    163.22258,           0.
    483,   69.7520676,   163.149673,           0.
    484,   75.5653152,    163.15033,           0.
    485,   58.1236801,   163.257385,           0.
    486,   63.9382706,   163.210175,           0.
    487,   52.3024406,   163.328522,           0.
    488,   46.4756355,   163.382629,           0.
    489,   81.3799515,   163.152084,           0.
    490,    93.014473,   163.163788,           0.
    491,   87.1966782,    163.15683,           0.
    492,   99.0020905,   163.273193,           0.
    493,   105.080803,   163.529968,           0.
    494,   15.4469404,   145.556152,           0.
    495,   10.4516525,   136.488785,           0.
    496,   20.2509003,   154.319519,           0.
    497,    20.101141,   160.259125,           0.
    498,     107.6008,   159.380035,           0.
    499,   106.535538,   154.069366,           0.
    500,   25.4000912,   145.001556,           0.
    501,   108.351608,   148.901794,           0.
    502,   84.7997513,   145.209305,           0.
    503,   77.8447037,   144.401703,           0.
    504,   31.6714802,   144.385056,           0.
    505,   71.7556076,   144.073212,           0.
    506,   48.6445923,    144.13295,           0.
    507,   42.9779854,   144.001526,           0.
    508,   65.8744812,   144.007141,           0.
    509,    60.075428,   144.066406,           0.
    510,   54.2704582,   144.130997,           0.
    511,   37.4102974,   144.152649,           0.
    512,   92.2476044,   138.532654,           0.
    513,   29.1864586,   163.007477,           0.
    514,   37.7387276,   158.617691,           0.
    515,    43.618309,   158.552567,           0.
    516,   55.3775749,   158.576645,           0.
    517,   49.6074982,      158.638,           0.
    518,    67.008934,   158.313675,           0.
    519,   72.8825912,   158.289246,           0.
    520,    61.241291,   158.460632,           0.
    521,    78.600029,   158.467484,           0.
    522,   20.2516632,    148.51503,           0.
    523,   84.1362381,   158.309555,           0.
    524,   89.9001083,    158.03717,           0.
    525,   96.0621414,   158.255951,           0.
    526,   102.277412,   158.666412,           0.
    527,   25.8626385,   157.707077,           0.
    528,   118.193634,   178.633209,           0.
    529,   20.0440216,   143.516281,           0.
    530,   102.931763,   148.782196,           0.
    531,   29.4240055,   148.841736,           0.
    532,    80.080658,   149.835754,           0.
    533,   34.9129715,   149.605164,           0.
    534,   74.0693817,    149.00769,           0.
    535,   45.0244179,    148.83519,           0.
    536,   40.1522484,   147.978714,           0.
    537,     50.73909,   149.044876,           0.
    538,   68.1081619,   148.835373,           0.
    539,   56.4691086,   148.991135,           0.
    540,   62.2544098,   148.884338,           0.
    541,   91.1319504,   143.405151,           0.
    542,   32.1490631,   158.459991,           0.
    543,   24.3204479,   163.076797,           0.
    544,   64.5891266,   153.624954,           0.
    545,   70.4759598,   153.605301,           0.
    546,   76.2322922,   153.954315,           0.
    547,   25.2365551,   151.306458,           0.
    548,   81.0589828,   154.597687,           0.
    549,   86.1435928,   152.488968,           0.
    550,   92.9722443,   153.049881,           0.
    551,   99.4946823,   153.406021,           0.
    552,   96.5359192,   141.425232,           0.
    553,   30.4325581,   153.445297,           0.
    554,   100.803925,   144.334137,           0.
    555,    58.794075,   153.751434,           0.
    556,   90.2473068,   148.353119,           0.
    557,   96.3025436,    147.53653,           0.
    558,   53.0042419,   153.836487,           0.
    559,   47.0715218,   153.701035,           0.
    560,   40.5040436,   153.148804,           0.
    561,   35.1474724,   154.655396,           0.
    562,   118.754417,   144.579514,           0.
    563,   155.298172,   114.249275,           0.
    564,   171.695862,   114.008934,           0.
    565,   166.000671,   114.195061,           0.
    566,   160.620819,   114.369003,           0.
    567,   188.906937,   5.29235363,           0.
    568,   182.661331,   5.22095633,           0.
    569,   176.706009,   5.03448057,           0.
    570,    170.92395,   5.00107193,           0.
    571,   165.178314,    4.9938345,           0.
    572,   153.691589,   5.00187874,           0.
    573,    147.82309,   5.12520552,           0.
    574,   135.541992,   5.41781139,           0.
    575,   159.437653,   4.99468279,           0.
    576,    141.79718,   5.35774231,           0.
    577,   147.914673,   108.468002,           0.
    578,   144.490509,   102.410347,           0.
    579,   137.766602,   97.8550034,           0.
    580,   132.002289,   97.4783173,           0.
    581,   133.007629,   68.1052322,           0.
    582,   133.214188,   86.3625717,           0.
    583,    133.00209,   32.5722084,           0.
    584,   133.007111,   44.4159126,           0.
    585,   133.008331,   50.3382301,           0.
    586,   133.004883,   38.4938698,           0.
    587,   133.008926,   56.2605591,           0.
    588,   133.008698,   62.1829185,           0.
    589,   133.015137,   74.0457687,           0.
    590,   133.081467,   80.1041565,           0.
    591,   132.999878,   92.6559525,           0.
    592,   192.094269,    109.19883,           0.
    593,   191.638046,   104.198303,           0.
    594,   191.601715,   98.2828598,           0.
    595,   191.595169,   92.3185272,           0.
    596,   191.589447,   86.3618774,           0.
    597,   191.585175,   80.4058685,           0.
    598,   191.582947,   74.4497757,           0.
    599,   191.581543,   68.4936066,           0.
    600,   191.580734,   62.5375214,           0.
    601,   191.580551,   56.5815315,           0.
    602,   191.581223,   50.6253738,           0.
    603,   191.583069,   44.6690102,           0.
    604,   191.586655,   38.7126694,           0.
    605,   191.591919,   32.7564774,           0.
    606,   191.597961,   26.8003902,           0.
    607,   191.556152,   20.7614288,           0.
    608,   191.569122,   14.8108454,           0.
    609,   150.060989,   113.913765,           0.
    610,    158.32283,   110.403839,           0.
    611,   183.077744,   113.942978,           0.
    612,   168.991638,   109.054596,           0.
    613,   189.131119,   113.747101,           0.
    614,   177.463165,   114.002831,           0.
    615,   163.166061,   109.531075,           0.
    616,   173.853867,   10.0363064,           0.
    617,   162.307693,    9.9990387,           0.
    618,   156.558578,   10.0143471,           0.
    619,   144.753769,   10.3416462,           0.
    620,   150.682678,   10.1188993,           0.
    621,   168.057388,   10.0119705,           0.
    622,   179.691452,   10.2163754,           0.
    623,    132.98671,   26.6535072,           0.
    624,   138.143753,    71.086319,           0.
    625,   139.487518,    90.694458,           0.
    626,   138.560837,   83.4022293,           0.
    627,   132.874237,   14.8878994,           0.
    628,   138.125259,   35.5308723,           0.
    629,   132.934494,   20.7356434,           0.
    630,   138.139526,   65.1482086,           0.
    631,   138.139191,   53.2989655,           0.
    632,   138.132004,   41.4531212,           0.
    633,   132.479477,   9.86633682,           0.
    634,   138.139877,    59.222435,           0.
    635,   138.136566,   47.3757286,           0.
    636,   138.225967,   77.1198425,           0.
    637,   186.443253,   83.3866425,           0.
    638,   186.437637,   41.6873474,           0.
    639,   186.426025,   59.5594978,           0.
    640,   186.257431,   108.074478,           0.
    641,   186.466064,   95.3213959,           0.
    642,   186.427322,   65.5159683,           0.
    643,   186.427048,   53.6028442,           0.
    644,   186.449631,   35.7295952,           0.
    645,   186.463837,   29.7728596,           0.
    646,   186.322006,   23.6618328,           0.
    647,   186.435638,    77.429924,           0.
    648,   186.375168,   101.428993,           0.
    649,   186.457108,   89.3484421,           0.
    650,    186.43074,   71.4729843,           0.
    651,   186.431107,    47.645092,           0.
    652,   186.321747,   17.5656796,           0.
    653,   138.242126,   11.2364988,           0.
    654,   158.876526,   105.060524,           0.
    655,   166.011948,   104.350098,           0.
    656,   175.313385,   108.135284,           0.
    657,   153.677032,   109.299767,           0.
    658,   159.437027,   15.0281477,           0.
    659,   165.177963,   15.0205727,           0.
    660,   153.544724,   15.1046762,           0.
    661,   171.006775,   15.0194597,           0.
    662,   147.610382,   15.2285385,           0.
    663,   176.819565,   15.0462856,           0.
    664,    186.13855,   11.0951653,           0.
    665,   138.093903,   29.6474495,           0.
    666,   138.060242,   17.6912823,           0.
    667,   143.268417,   50.3353004,           0.
    668,   143.271362,   56.2599297,           0.
    669,   143.270645,   62.1855087,           0.
    670,   143.269455,   68.1193466,           0.
    671,   143.261993,   44.4111443,           0.
    672,    143.50351,   80.0905838,           0.
    673,   143.319458,   74.0875473,           0.
    674,   143.231476,   38.5201988,           0.
    675,    138.18718,   23.6925564,           0.
    676,   181.278793,   50.6211472,           0.
    677,   181.275146,   56.5801735,           0.
    678,   181.275253,   62.5381813,           0.
    679,     181.2789,   68.4964752,           0.
    680,   181.287155,    74.455719,           0.
    681,   181.289764,   44.6594582,           0.
    682,   181.300522,   80.4155502,           0.
    683,   181.320755,   86.3768005,           0.
    684,   181.347061,   92.3488007,           0.
    685,   181.329529,   32.7047882,           0.
    686,   181.307785,   38.6918716,           0.
    687,   181.240982,   26.7208595,           0.
    688,   180.444458,   20.2891941,           0.
    689,   181.243805,   98.3910217,           0.
    690,   180.962128,   104.537361,           0.
    691,   151.720261,   103.745476,           0.
    692,   180.614777,   109.738586,           0.
    693,   162.979767,   99.2000885,           0.
    694,   171.308456,    104.37355,           0.
    695,   192.017639,   9.81324196,           0.
    696,   156.383118,   20.0895424,           0.
    697,   174.007111,   20.0953979,           0.
    698,    168.11235,   20.1988583,           0.
    699,   150.442642,   20.0874786,           0.
    700,     162.2491,   20.0960217,           0.
    701,   142.514816,    15.009532,           0.
    702,   181.883148,   14.8425398,           0.
    703,    143.35585,   32.6972466,           0.
    704,    148.40419,   59.2235107,           0.
    705,   148.402115,   53.2952538,           0.
    706,   148.446548,   77.0087891,           0.
    707,   143.473495,   26.8315182,           0.
    708,   144.041168,   20.4361706,           0.
    709,   148.400406,    65.155777,           0.
    710,   148.412201,   71.0936127,           0.
    711,   148.359467,   41.5137177,           0.
    712,   148.390656,    47.379673,           0.
    713,   176.224319,    35.619297,           0.
    714,   176.128815,   53.5973816,           0.
    715,   176.184143,   83.4129257,           0.
    716,   176.126221,   59.5590248,           0.
    717,   176.129395,   65.5201111,           0.
    718,   176.613281,    24.503231,           0.
    719,   176.139542,    71.482933,           0.
    720,   176.302185,   29.6524391,           0.
    721,   176.201309,   89.3793716,           0.
    722,    176.15921,   77.4485016,           0.
    723,   176.173431,   41.6429024,           0.
    724,   176.005188,   95.4667053,           0.
    725,   176.144882,   47.6264153,           0.
    726,   175.827744,   101.622803,           0.
    727,   169.907394,   98.8603439,           0.
    728,   171.207657,   25.9908752,           0.
    729,    153.25679,   24.9273987,           0.
    730,   159.189743,   25.0449696,           0.
    731,   165.008881,   25.2238789,           0.
    732,   156.110916,   98.6066208,           0.
    733,   148.666641,   82.8190994,           0.
    734,   148.497864,   35.8763313,           0.
    735,   153.780746,   55.9374275,           0.
    736,   153.818954,   61.8218346,           0.
    737,   153.839035,   49.9209595,           0.
    738,   153.597229,   44.1698227,           0.
    739,   153.762344,   73.7581177,           0.
    740,   149.412537,   29.8129387,           0.
    741,   153.885605,   67.6734543,           0.
    742,    171.34938,   32.4036407,           0.
    743,   170.826172,   56.7802429,           0.
    744,   170.790588,   62.7905922,           0.
    745,   170.771118,   68.7868576,           0.
    746,   170.732086,    74.816925,           0.
    747,   170.815445,   50.8408203,           0.
    748,   170.963226,   86.5288239,           0.
    749,   170.757431,   80.7819366,           0.
    750,   170.895294,   38.3787537,           0.
    751,   170.863876,   92.4051666,           0.
    752,   170.642456,     44.67519,           0.
    753,   149.240997,   97.5925217,           0.
    754,   167.176849,   29.6877804,           0.
    755,   156.061523,   29.9323807,           0.
    756,   162.116943,   30.0419712,           0.
    757,   160.479584,   92.8485947,           0.
    758,   148.125336,   24.4190998,           0.
    759,   153.773438,   79.7440567,           0.
    760,   144.316589,   86.1841888,           0.
    761,   153.469406,   38.7477608,           0.
    762,   159.542221,    58.087326,           0.
    763,   159.570465,   52.1047859,           0.
    764,   159.140793,   46.1707458,           0.
    765,   159.564819,   64.0046921,           0.
    766,   159.499481,   70.0305862,           0.
    767,   143.509262,   96.1596756,           0.
    768,   165.243103,   54.3805199,           0.
    769,   165.218475,   60.3676643,           0.
    770,   165.849823,   34.5851631,           0.
    771,   165.177094,   66.3783035,           0.
    772,   165.077927,   72.4588776,           0.
    773,   165.078873,   78.5234756,           0.
    774,   165.607315,   84.2775803,           0.
    775,   165.969742,   89.7097626,           0.
    776,   164.977646,   48.2466011,           0.
    777,    164.08931,   41.2877693,           0.
    778,    166.04007,   94.6047897,           0.
    779,   146.472092,   91.7873077,           0.
    780,   158.977432,   35.6900635,           0.
    781,   153.146606,   91.8109818,           0.
    782,   153.542267,   85.5217514,           0.
    783,   159.405945,   76.2106552,           0.
    784,   157.854828,   41.2132301,           0.
    785,   153.283752,   34.0118942,           0.
    786,    157.62233,   88.0945435,           0.
    787,   159.532822,   82.8449402,           0.
    788,   161.842361,   87.5550842,           0.
    789,   149.228836,   87.6246643,           0.
    790,    106.53878,   109.219231,           0.
    791,    106.29528,   115.001915,           0.
    792,   122.753365,   44.4164391,           0.
    793,   122.751877,   50.3384628,           0.
    794,   122.752274,   56.2609177,           0.
    795,   122.754578,   62.1835251,           0.
    796,   122.758141,   68.1058273,           0.
    797,   122.761726,   74.0414734,           0.
    798,   122.755875,   80.0433578,           0.
    799,   122.686752,   86.0058136,           0.
    800,   117.740448,   98.0463486,           0.
    801,   122.025017,   92.3360291,           0.
    802,   123.540657,    97.478653,           0.
    803,   111.108871,   102.453979,           0.
    804,   7.87210655,   113.789307,           0.
    805,   14.1408529,    113.85479,           0.
    806,   20.1126461,   114.049736,           0.
    807,    25.911787,   114.098854,           0.
    808,   31.6783829,   114.110924,           0.
    809,   37.4392052,   114.115486,           0.
    810,     43.19907,   114.118065,           0.
    811,   48.9588165,   114.119965,           0.
    812,   54.7185936,   114.121223,           0.
    813,   60.4784164,   114.122009,           0.
    814,   66.2382507,   114.122704,           0.
    815,   71.9980621,   114.123657,           0.
    816,   77.7578583,   114.124611,           0.
    817,   83.5256958,   114.120071,           0.
    818,    89.373848,   114.068123,           0.
    819,   95.4536896,   113.890976,           0.
    820,   101.537575,   114.050941,           0.
    821,   5.26438475,   14.8537188,           0.
    822,    5.2218442,   20.8000984,           0.
    823,   5.17625761,    26.787075,           0.
    824,   5.16161728,   32.7541847,           0.
    825,    5.1576457,   38.7131348,           0.
    826,    5.1562295,   44.6697426,           0.
    827,   5.15454149,   50.6259651,           0.
    828,   5.15246153,   56.5819778,           0.
    829,   5.15031385,   62.5378838,           0.
    830,   5.14806414,   68.4938354,           0.
    831,   5.14586401,   74.4497986,           0.
    832,   5.14350891,   80.4058075,           0.
    833,   5.14065647,    86.361908,           0.
    834,   5.13707972,   92.3180923,           0.
    835,   5.19525003,   98.3286591,           0.
    836,   5.19588757,    104.26619,           0.
    837,   119.984795,   5.36656237,           0.
    838,   49.4120636,   5.04662418,           0.
    839,   43.5979843,   5.04956579,           0.
    840,   37.7837181,   5.05278587,           0.
    841,   31.9704685,   5.05556393,           0.
    842,   26.1575489,   5.05789995,           0.
    843,   20.3352032,   5.10529375,           0.
    844,   14.3054352,   5.29150534,           0.
    845,   7.93379831,   5.34811211,           0.
    846,   51.8396988,   109.114777,           0.
    847,   57.5994034,   109.116768,           0.
    848,   74.8793106,   109.122803,           0.
    849,   63.3591919,   109.118507,           0.
    850,   69.1192627,   109.119446,           0.
    851,   80.6519928,   109.115303,           0.
    852,   92.5021667,   108.699455,           0.
    853,   99.2969742,   107.748276,           0.
    854,   46.0803719,   109.110062,           0.
    855,    40.321209,   109.104675,           0.
    856,   34.5620728,    109.09745,           0.
    857,   28.8016586,   109.086365,           0.
    858,    22.974781,   109.034348,           0.
    859,   17.1199169,   108.847763,           0.
    860,   86.4917679,   109.028717,           0.
    861,   55.2243156,   5.04593277,           0.
    862,   61.0351562,   5.04494429,           0.
    863,   46.5125961,   10.1086636,           0.
    864,   40.6961555,   10.1166029,           0.
    865,   34.8787231,   10.1243887,           0.
    866,   29.0577431,   10.1326227,           0.
    867,    23.234127,   10.1762953,           0.
    868,   17.3088226,   10.3486099,           0.
    869,   113.637634,   5.33725786,           0.
    870,   107.580414,    5.1399498,           0.
    871,   101.719231,   5.07059479,           0.
    872,   95.9072037,    5.0488224,           0.
    873,   90.0961685,   5.04294777,           0.
    874,   84.2838287,    5.0420084,           0.
    875,   78.4712372,   5.04223871,           0.
    876,   72.6586151,   5.04296923,           0.
    877,   66.8465424,   5.04452372,           0.
    878,    117.64595,   71.0894089,           0.
    879,    117.63253,   83.4278412,           0.
    880,    117.63736,   65.1515808,           0.
    881,   122.757782,   32.5738754,           0.
    882,   117.626122,   53.3005905,           0.
    883,   122.756172,   38.4949455,           0.
    884,    117.62809,   47.3769188,           0.
    885,   117.630501,   59.2254639,           0.
    886,   117.636475,   77.2143097,           0.
    887,   10.3079443,    47.649353,           0.
    888,   10.3145084,   35.7340355,           0.
    889,   10.2977362,   59.5619125,           0.
    890,   10.5185843,   17.6717892,           0.
    891,   10.5291414,   23.7024326,           0.
    892,   4.81532001,   9.84568596,           0.
    893,    10.353261,   29.7546921,           0.
    894,   10.3023624,   53.6062431,           0.
    895,   10.2916155,   65.5178375,           0.
    896,   10.2857208,   71.4737701,           0.
    897,    10.279479,   77.4299774,           0.
    898,   10.2725582,   83.3865204,           0.
    899,   10.2644749,   89.3433609,           0.
    900,   10.4272957,    95.429924,           0.
    901,   10.3109684,   41.6922226,           0.
    902,   10.4530306,   101.505096,           0.
    903,   10.6480331,   107.974045,           0.
    904,   10.7245274,   11.2001219,           0.
    905,   111.941216,   95.5522003,           0.
    906,   104.455414,   102.961555,           0.
    907,   89.3701401,   103.760727,           0.
    908,   83.5598068,   104.035469,           0.
    909,   77.7711411,   104.096626,           0.
    910,    72.002861,   104.106529,           0.
    911,   60.4813004,   104.104065,           0.
    912,   66.2414474,   104.104858,           0.
    913,   54.7221909,   104.099144,           0.
    914,   48.9634781,   104.092957,           0.
    915,   43.2053223,   104.084648,           0.
    916,    37.447628,   104.074142,           0.
    917,   31.6842899,   104.069443,           0.
    918,   25.8255863,   104.060989,           0.
    919,   19.9873772,   104.023911,           0.
    920,    58.133934,   10.0996485,           0.
    921,   104.698463,   10.2019415,           0.
    922,   93.0003128,   10.0934553,           0.
    923,   81.3779449,   10.0908632,           0.
    924,   69.7535324,    10.094574,           0.
    925,   63.9431152,   10.0988274,           0.
    926,   98.8275146,   10.1275101,           0.
    927,    87.189827,   10.0917664,           0.
    928,   75.5657349,   10.0940943,           0.
    929,   20.1693192,   15.2822857,           0.
    930,   26.0626488,   15.3082218,           0.
    931,   31.9441147,   15.2661648,           0.
    932,   37.7922096,   15.2103863,           0.
    933,   43.6164169,   15.1906519,           0.
    934,   15.0373459,   14.9782963,           0.
    935,   52.3251686,   10.1055231,           0.
    936,   118.173218,   88.5310974,           0.
    937,   117.633316,   41.4550667,           0.
    938,   122.746346,   20.7392082,           0.
    939,   122.730385,   14.8730507,           0.
    940,    122.76738,   26.6608963,           0.
    941,    112.50351,   50.3388939,           0.
    942,   112.505348,   56.2666054,           0.
    943,   112.530006,   68.1262207,           0.
    944,   112.515236,   62.1955605,           0.
    945,   112.525108,   74.2343369,           0.
    946,   112.410255,    80.610939,           0.
    947,   117.639244,   35.5343819,           0.
    948,   15.4625883,   38.7145729,           0.
    949,   15.4701738,    32.751339,           0.
    950,   15.6197939,   26.8634949,           0.
    951,   16.4471092,   20.5455627,           0.
    952,   15.4580622,   44.6734276,           0.
    953,   15.4214611,    68.500473,           0.
    954,   15.4094868,   74.4571075,           0.
    955,   15.4316454,   62.5451393,           0.
    956,   15.4421835,   56.5892982,           0.
    957,   15.3972864,   80.4142075,           0.
    958,   15.4509106,   50.6321793,           0.
    959,   15.3863297,   86.4042358,           0.
    960,   15.5008059,   92.3748398,           0.
    961,   16.3309116,    98.787178,           0.
    962,   4.74320555,   109.279922,           0.
    963,   107.456467,    98.415947,           0.
    964,   116.404633,    92.539299,           0.
    965,   110.685753,    10.410141,           0.
    966,   117.284416,   11.2527943,           0.
    967,   112.078522,   88.2131195,           0.
    968,   102.952919,   97.7147598,           0.
    969,   106.930565,   93.3639069,           0.
    970,   107.782852,   15.3177357,           0.
    971,   22.7918472,   98.9818497,           0.
    972,   34.5913734,   99.0348511,           0.
    973,   28.7230854,   98.8839645,           0.
    974,   40.3407326,   99.0437241,           0.
    975,   46.0931244,   99.0564651,           0.
    976,   51.8488159,   99.0668793,           0.
    977,    86.469635,   98.8705902,           0.
    978,   69.1242371,   99.0843964,           0.
    979,   80.6669846,   99.0383682,           0.
    980,    74.890358,   99.0748215,           0.
    981,   57.6061325,   99.0743332,           0.
    982,   63.3648338,   99.0782166,           0.
    983,   55.2368851,   15.1693459,           0.
    984,   61.0428543,   15.1644297,           0.
    985,   90.0956879,   15.1487484,           0.
    986,   66.8513336,   15.1595821,           0.
    987,   72.6619415,   15.1555986,           0.
    988,   84.2847595,   15.1493616,           0.
    989,    78.473526,   15.1530218,           0.
    990,   95.9140244,   15.1721134,           0.
    991,   101.812592,   15.2327156,           0.
    992,   40.7229424,   20.2849751,           0.
    993,   34.9020233,   20.3912792,           0.
    994,   28.9788399,   20.5847969,           0.
    995,   14.9078541,     104.2276,           0.
    996,   49.4297714,   15.1800718,           0.
    997,    117.62915,    29.664278,           0.
    998,   112.510681,   44.4137192,           0.
    999,   107.408752,   65.1727982,           0.
   1000,   117.535477,   17.7263832,           0.
   1001,   112.521065,   38.4915886,           0.
   1002,   107.424034,   71.1801071,           0.
   1003,   107.390038,   59.2407799,           0.
   1004,   117.434921,   23.7178974,           0.
   1005,   107.383408,   53.3068848,           0.
   1006,   107.333878,   77.2397766,           0.
   1007,   20.5857716,    53.618576,           0.
   1008,   20.5544434,   65.5321198,           0.
   1009,   20.5697746,     59.57687,           0.
   1010,   20.5920734,   35.7559662,           0.
   1011,   20.5853596,   29.9022999,           0.
   1012,   20.2965374,   24.8387814,           0.
   1013,   20.5363045,   71.4886169,           0.
   1014,   20.5177917,   77.4459915,           0.
   1015,   20.4790573,    83.473587,           0.
   1016,   20.1515942,   94.5801086,           0.
   1017,    20.595253,   47.6588669,           0.
   1018,   20.5965137,    41.703804,           0.
   1019,   20.4348698,   89.4369507,           0.
   1020,   112.967918,   15.0636988,           0.
   1021,    111.51416,    20.550148,           0.
   1022,   99.9271851,   101.832832,           0.
   1023,   104.968361,   20.3952751,           0.
   1024,   25.5712776,   93.0910721,           0.
   1025,   31.7583351,   93.8518219,           0.
   1026,   37.4601479,   93.9545822,           0.
   1027,   43.2117577,   93.9884415,           0.
   1028,   48.9752884,   94.0155411,           0.
   1029,   54.7331924,   94.0304565,           0.
   1030,   83.5921478,   93.9546738,           0.
   1031,   60.4902687,   94.0390396,           0.
   1032,   72.0090332,   94.0498428,           0.
   1033,   77.7867355,   94.0264282,           0.
   1034,   66.2487717,   94.0437698,           0.
   1035,   92.2291946,   98.3689423,           0.
   1036,   52.3445396,   20.2529278,           0.
   1037,     58.14711,    20.243681,           0.
   1038,   63.9525185,    20.235796,           0.
   1039,   98.9795151,   20.4505939,           0.
   1040,   93.0435562,   20.2902088,           0.
   1041,   87.2005997,   20.2332649,           0.
   1042,   81.3832779,     20.22229,           0.
   1043,   69.7610168,   20.2292233,           0.
   1044,   75.5716324,   20.2251949,           0.
   1045,   37.7774925,   25.5679302,           0.
   1046,   32.0166435,   25.6660976,           0.
   1047,   46.5384216,   20.2688522,           0.
   1048,    22.970335,   20.4883595,           0.
   1049,   106.955864,   83.3572922,           0.
   1050,   112.494362,   32.6615181,           0.
   1051,   107.388649,   47.3741341,           0.
   1052,   102.283646,   62.2252922,           0.
   1053,   107.363785,   41.4459724,           0.
   1054,   102.310425,   68.1831589,           0.
   1055,    112.35376,   26.8713951,           0.
   1056,   102.284142,   74.1162338,           0.
   1057,   102.268433,   56.2840614,           0.
   1058,   25.6870804,   62.5686951,           0.
   1059,    25.707489,   56.6105156,           0.
   1060,    25.662508,   68.5255356,           0.
   1061,   25.5418262,   32.7218513,           0.
   1062,   25.6122227,    74.454216,           0.
   1063,   25.6287403,   80.4835663,           0.
   1064,   25.6724072,   38.6084747,           0.
   1065,    25.723402,   50.6413116,           0.
   1066,   25.4785557,   86.5557175,           0.
   1067,   25.7275524,   44.6133881,           0.
   1068,   25.7437649,   26.3461208,           0.
   1069,   123.151489,   9.85178089,           0.
   1070,   95.2028427,   103.005058,           0.
   1071,   97.7706909,   97.6551132,           0.
   1072,   102.138458,   26.2193623,           0.
   1073,    34.618454,   88.9081039,           0.
   1074,   40.3464394,   88.9293976,           0.
   1075,   46.1070709,   88.9475021,           0.
   1076,   51.8636818,   88.9704056,           0.
   1077,   57.6187057,   88.9847565,           0.
   1078,   63.3747406,   88.9934158,           0.
   1079,   74.9020844,   89.0044785,           0.
   1080,   69.1345673,   88.9983978,           0.
   1081,    80.712677,   88.9302216,           0.
   1082,    29.710825,   89.2082367,           0.
   1083,   49.4555473,   25.3476696,           0.
   1084,   89.4102478,   93.6109543,           0.
   1085,   55.2557449,   25.3340988,           0.
   1086,   61.0578537,   25.3227997,           0.
   1087,   95.8306274,   25.4372196,           0.
   1088,   90.0639191,   25.3261833,           0.
   1089,   66.8635559,   25.3131542,           0.
   1090,   84.2808762,   25.3020668,           0.
   1091,   78.4788666,   25.3002949,           0.
   1092,   72.6716537,   25.3063965,           0.
   1093,   34.5979691,   30.8021564,           0.
   1094,   43.5929451,   25.4600697,           0.
   1095,   101.918388,   80.1213074,           0.
   1096,   107.326797,   35.5845451,           0.
   1097,     102.2686,   50.3414574,           0.
   1098,   107.352196,   29.7860088,           0.
   1099,   97.1859283,   65.2251205,           0.
   1100,    102.21093,   44.4481735,           0.
   1101,   97.1608505,   59.2745628,           0.
   1102,   97.2005539,   71.1275024,           0.
   1103,   30.8190117,   59.6074448,           0.
   1104,   30.7898884,   65.5673904,           0.
   1105,   30.6879826,   71.4898224,           0.
   1106,   30.5614605,   35.1591721,           0.
   1107,   30.6065311,   77.3532791,           0.
   1108,    30.841013,    53.633461,           0.
   1109,   31.2093182,   83.7081146,           0.
   1110,   30.9712162,   41.2522392,           0.
   1111,    30.901329,   47.5237274,           0.
   1112,   29.6923332,     30.13908,           0.
   1113,   105.775558,   88.5178452,           0.
   1114,   101.109291,   92.0708237,           0.
   1115,   97.8584137,   30.0130482,           0.
   1116,   37.4295731,   83.8845596,           0.
   1117,   43.2059555,    83.858017,           0.
   1118,   49.0002365,   83.9538956,           0.
   1119,   54.7525864,   83.9356766,           0.
   1120,   60.5043831,   83.9338074,           0.
   1121,   66.2595749,   83.9383774,           0.
   1122,   72.0275269,   83.9463348,           0.
   1123,   77.8332825,   83.8131866,           0.
   1124,   46.4967461,   30.6086216,           0.
   1125,   52.3519745,   30.4578781,           0.
   1126,   86.6076431,   88.6526642,           0.
   1127,   58.1640167,   30.4225006,           0.
   1128,    107.66539,   24.7644386,           0.
   1129,   92.8813171,   30.3320026,           0.
   1130,   63.9692459,   30.4065075,           0.
   1131,   87.1513062,    30.357872,           0.
   1132,   81.3767166,   30.3745441,           0.
   1133,   69.7754669,   30.3951855,           0.
   1134,   75.5797348,   30.3858852,           0.
   1135,   40.4837151,    30.941021,           0.
   1136,   96.9817276,   76.9626617,           0.
   1137,   102.066566,   38.5400162,           0.
   1138,   102.181435,   32.6033249,           0.
   1139,   97.2012711,   53.3276443,           0.
   1140,   92.1208038,   68.1727753,           0.
   1141,   92.0667877,   62.2668152,           0.
   1142,   35.9187431,   62.6115417,           0.
   1143,   35.7377434,   68.6261978,           0.
   1144,   35.4343796,   74.5531921,           0.
   1145,   35.9472046,   56.6412354,           0.
   1146,    97.262619,   47.4713249,           0.
   1147,   36.8816185,   37.1713715,           0.
   1148,   36.0196609,   50.5673141,           0.
   1149,   36.2889557,   44.2955322,           0.
   1150,   101.539238,   85.9620056,           0.
   1151,   96.3643799,   35.4353867,           0.
   1152,   46.2595024,   78.9786377,           0.
   1153,   51.9140434,   78.9531403,           0.
   1154,   57.6437569,    78.889946,           0.
   1155,   63.3902397,   78.8728638,           0.
   1156,   69.1557541,   78.8763046,           0.
   1157,   74.9583893,   78.7540359,           0.
   1158,   49.3551636,   35.6798973,           0.
   1159,   55.1353035,   35.7208405,           0.
   1160,   90.1340866,   35.3802643,           0.
   1161,   61.0350227,   35.5681648,           0.
   1162,   92.3861618,   88.4090042,           0.
   1163,   84.3702087,   35.5759811,           0.
   1164,   66.8720703,   35.5071449,           0.
   1165,    83.759758,   83.4726868,           0.
   1166,   78.5145874,   35.5098686,           0.
   1167,   72.6906128,   35.4937286,           0.
   1168,   97.1629562,   41.6701584,           0.
   1169,   92.1405258,   73.9939575,           0.
   1170,    96.050766,   83.1865692,           0.
   1171,   92.1474991,   56.3381882,           0.
   1172,    40.972271,   66.0043793,           0.
   1173,    40.313694,   72.0005417,           0.
   1174,   41.2783546,   59.8554001,           0.
   1175,   86.9410095,   65.2304077,           0.
   1176,   41.1793747,   53.6989632,           0.
   1177,   41.3366508,   47.6574287,           0.
   1178,    92.329483,    50.443367,           0.
   1179,   40.2654037,   78.2128296,           0.
   1180,   97.2430954,   88.5451355,           0.
   1181,   34.9890404,   79.5423965,           0.
   1182,   41.8697739,   41.6836433,           0.
   1183,   92.3691254,   79.0244064,           0.
   1184,   49.0042152,   74.1915283,           0.
   1185,   54.6966858,    73.914444,           0.
   1186,   92.7630234,   39.6666985,           0.
   1187,   60.4979324,   73.8219757,           0.
   1188,   66.2803116,    73.803093,           0.
   1189,   72.0910034,   73.7570801,           0.
   1190,   43.6181488,   36.0051155,           0.
   1191,   51.9265213,   41.4646645,           0.
   1192,   87.4905472,   41.2195244,           0.
   1193,   58.2334442,    40.724678,           0.
   1194,    81.318367,   40.6115303,           0.
   1195,   64.0123596,   40.6200218,           0.
   1196,   69.7999039,   40.5909081,           0.
   1197,   75.5681992,   40.5778809,           0.
   1198,    89.692215,   83.3893051,           0.
   1199,   80.7197037,    78.511734,           0.
   1200,   87.0652771,   71.2014236,           0.
   1201,   92.4380264,     44.65168,           0.
   1202,   86.9925003,   59.2391129,           0.
   1203,   45.5665627,   69.8614578,           0.
   1204,   95.0247803,    93.109993,           0.
   1205,    47.293972,   63.3800697,           0.
   1206,   46.4957275,   56.6900215,           0.
   1207,   46.4810944,   50.7512245,           0.
   1208,   87.2066116,   53.1991577,           0.
   1209,   46.6548729,   44.8911247,           0.
   1210,   86.9414825,   77.6309967,           0.
   1211,   51.3770332,   68.9108047,           0.
   1212,   57.3777313,   68.6698761,           0.
   1213,   63.2356758,   68.5717468,           0.
   1214,   69.0991974,   68.4220276,           0.
   1215,   56.1727524,   45.3812294,           0.
   1216,   83.4659729,   44.9268036,           0.
   1217,   61.2469749,   45.8174934,           0.
   1218,   78.6328735,   45.5648003,           0.
   1219,   66.9910049,   45.8331223,           0.
   1220,   72.8464203,   45.9059181,           0.
   1221,   77.8332443,   73.6688919,           0.
   1222,   44.2818756,   74.6490021,           0.
   1223,   46.6848946,   39.9448891,           0.
   1224,   81.8828201,   61.9960632,           0.
   1225,   81.2932739,   68.4076691,           0.
   1226,   51.7877693,   47.8883591,           0.
   1227,   51.2013512,   59.0433884,           0.
   1228,   51.6945801,    53.955204,           0.
   1229,   81.9539032,    55.836647,           0.
   1230,   53.9759712,   63.5722733,           0.
   1231,   59.8000336,   63.2070084,           0.
   1232,   65.6378326,   62.8105965,           0.
   1233,   82.5202789,   49.8021469,           0.
   1234,   57.6554031,   51.3755226,           0.
   1235,   64.2228165,   51.3681068,           0.
   1236,   76.4632339,   51.9437904,           0.
   1237,   70.1255264,    51.425972,           0.
   1238,   74.9791641,     68.48703,           0.
   1239,   56.0421638,    58.051445,           0.
   1240,   77.0689545,   58.8238373,           0.
   1241,   82.7705994,     73.88414,           0.
   1242,   61.8387222,   57.3029251,           0.
   1243,   67.7454605,   56.9850426,           0.
   1244,   72.6991043,   56.3362579,           0.
   1245,   72.0993729,   62.2898102,           0.
   1246,   87.5751572,   47.3737793,           0.
   1247,   77.4647141,    64.000885,           0.
*Element, type=S3
  1, 235,  16, 203
  2, 260, 203, 236
  3, 218,  37, 217
  4, 200,  13,  14
  5, 202, 201,  23
  6, 202,   3,  24
  7, 203,  16,  17
  8, 225,  47, 224
  9, 237,  49,  50
 10, 204, 203,  17
 11, 261, 236, 204
 12, 207, 205, 206
 13, 207,   2,  20
 14, 208,  22, 201
 15,  31,   4,  32
 16, 209,  31,  32
 17, 221,  34, 220
 18, 210,  29,  30
 19, 211,  28,  29
 20, 213,  27, 212
 21, 214,  26, 213
 22, 215,  25, 214
 23,  42,  41,   5
 24, 229,  42,  43
 25, 252, 244, 248
 26, 244,  39,  40
 27, 242, 239, 226
 28, 208, 205,  21
 29, 233, 212, 211
 30, 249, 218, 247
 31, 259, 258, 233
 32, 274,  32,  33
 33,  52,   1,  13
 34, 200,  52,  13
 35, 240, 222,  51
 36, 222,  50,  51
 37, 298, 284, 290
 38, 241, 238, 224
 39, 224,  48, 223
 40, 226,  46, 225
 41, 227,  45, 226
 42, 228,  44, 227
 43, 229,  43, 228
 44, 240,  52, 200
 45, 253,  15, 235
 46, 201,  22,  23
 47, 291, 281, 263
 48, 202,  23,   3
 49, 215,  24,  25
 50, 204,  17,  18
 51, 236, 203, 204
 52, 206,  18,  19
 53, 205,  20,  21
 54, 208,  21,  22
 55, 280, 277, 279
 56, 206, 204,  18
 57, 207, 206,  19
 58, 207,  19,   2
 59, 207,  20, 205
 60, 303, 282, 294
 61, 217,  38, 216
 62, 210,  30, 209
 63, 209,  30,  31
 64, 220,  35, 219
 65, 211,  29, 210
 66, 219,  36, 218
 67, 212,  28, 211
 68, 272, 249, 271
 69, 212,  27,  28
 70, 234, 213, 230
 71, 213,  26,  27
 72, 231, 215, 214
 73, 214,  25,  26
 74, 215, 201, 202
 75, 215, 202,  24
 76, 216,  38,  39
 77, 238, 225, 224
 78, 254, 201, 231
 79, 217,  37,  38
 80, 251, 232, 210
 81, 218,  36,  37
 82, 274, 251, 209
 83, 219,  35,  36
 84, 250, 221, 220
 85, 220,  34,  35
 86, 274, 221, 251
 87, 221,  33,  34
 88, 237,  50, 222
 89, 275, 235, 260
 90, 223,  48,  49
 91, 262, 237, 222
 92, 281, 269, 268
 93, 224,  47,  48
 94, 242, 225, 238
 95, 225,  46,  47
 96, 239, 227, 226
 97, 226,  45,  46
 98, 243, 227, 239
 99, 227,  44,  45
100, 252, 229, 228
101, 228,  43,  44
102, 248,  41, 229
103, 229,  41,  42
104, 234, 231, 214
105, 230, 213, 212
106, 278, 234, 257
107, 231, 201, 215
108, 232, 211, 210
109, 246, 220, 219
110, 233, 230, 212
111, 233, 211, 232
112, 234, 214, 213
113, 258, 257, 230
114, 253,  14,  15
115, 235,  15,  16
116, 261, 204, 206
117, 255, 205, 208
118, 237, 223,  49
119, 262, 222, 256
120, 241, 224, 223
121, 308, 295, 296
122, 263, 243, 239
123, 242, 226, 225
124, 240,  51,  52
125, 256, 240, 200
126, 267, 223, 237
127, 288, 261, 276
128, 311, 310, 279
129, 281, 270, 245
130, 269, 252, 268
131, 243, 228, 227
132, 244, 216,  39
133, 248, 244,  40
134, 247, 217, 245
135, 245, 217, 216
136, 249, 219, 218
137, 247, 218, 217
138, 281, 245, 269
139, 304, 281, 291
140, 248,  40,  41
141, 252, 248, 229
142, 271, 247, 270
143, 249, 246, 219
144, 285, 251, 250
145, 250, 220, 246
146, 251, 210, 209
147, 251, 221, 250
148, 252, 228, 243
149, 268, 252, 243
150, 256, 200, 253
151, 253, 200,  14
152, 254, 208, 201
153, 286, 257, 283
154, 297, 288, 276
155, 277, 208, 254
156, 284, 275, 260
157, 256, 222, 240
158, 257, 234, 230
159, 258, 230, 233
160, 259, 233, 232
161, 303, 300, 283
162, 285, 259, 232
163, 273, 250, 246
164, 260, 235, 203
165, 287, 284, 260
166, 276, 206, 205
167, 276, 261, 206
168, 267, 237, 262
169, 298, 256, 275
170, 264, 239, 242
171, 264, 263, 239
172, 266, 242, 238
173, 292, 266, 289
174, 265, 238, 241
175, 293, 241, 267
176, 266, 264, 242
177, 266, 238, 265
178, 298, 290, 262
179, 267, 241, 223
180, 269, 245, 216
181, 268, 243, 263
182, 269, 216, 244
183, 269, 244, 252
184, 294, 282, 273
185, 270, 247, 245
186, 282, 259, 273
187, 271, 249, 247
188, 294, 273, 272
189, 272, 246, 249
190, 285, 273, 259
191, 273, 246, 272
192, 274, 209,  32
193, 274,  33, 221
194, 275, 256, 253
195, 275, 253, 235
196, 276, 205, 255
197, 297, 255, 280
198, 277, 255, 208
199, 301, 279, 254
200, 321, 278, 286
201, 278, 231, 234
202, 320, 316, 317
203, 279, 277, 254
204, 319, 315, 314
205, 280, 255, 277
206, 281, 268, 263
207, 291, 263, 264
208, 283, 258, 282
209, 282, 258, 259
210, 316, 306, 305
211, 283, 257, 258
212, 287, 260, 236
213, 302, 284, 287
214, 285, 232, 251
215, 285, 250, 273
216, 321, 301, 278
217, 286, 278, 257
218, 288, 287, 236
219, 315, 302, 312
220, 288, 236, 261
221, 299, 288, 297
222, 289, 266, 265
223, 302, 290, 284
224, 293, 267, 290
225, 290, 267, 262
226, 296, 295, 271
227, 292, 291, 264
228, 292, 264, 266
229, 317, 316, 305
230, 307, 265, 293
231, 293, 265, 241
232, 295, 272, 271
233, 295, 294, 272
234, 296, 271, 270
235, 316, 309, 308
236, 304, 296, 270
237, 306, 291, 292
238, 297, 276, 255
239, 299, 297, 280
240, 298, 262, 256
241, 298, 275, 284
242, 312, 288, 299
243, 310, 280, 279
244, 300, 286, 283
245, 303, 283, 282
246, 301, 254, 231
247, 301, 231, 278
248, 313, 290, 302
249, 312, 302, 287
250, 303, 294, 295
251, 308, 303, 295
252, 304, 270, 281
253, 306, 292, 305
254, 305, 292, 289
255, 314, 289, 307
256, 306, 296, 304
257, 306, 304, 291
258, 307, 289, 265
259, 313, 307, 293
260, 309, 303, 308
261, 308, 296, 306
262, 318, 317, 315
263, 309, 300, 303
264, 310, 299, 280
265, 321, 311, 279
266, 311, 286, 300
267, 320, 300, 309
268, 312, 287, 288
269, 319, 314, 307
270, 313, 293, 290
271, 319, 302, 315
272, 318, 315, 310
273, 314, 305, 289
274, 315, 312, 299
275, 315, 299, 310
276, 316, 308, 306
277, 317, 305, 314
278, 317, 314, 315
279, 320, 318, 311
280, 318, 310, 311
281, 320, 311, 300
282, 319, 307, 313
283, 319, 313, 302
284, 320, 309, 316
285, 320, 317, 318
286, 321, 286, 311
287, 321, 279, 301
288, 373,   2,  19
289, 562, 373, 329
290, 341,  58, 340
291, 334,  87,  88
292, 352, 351,  89
293, 368, 103, 104
294,  13,   1,  53
295, 326,  13,  53
296, 370,  14, 326
297, 369, 327,  16
298, 369,  16,  15
299, 328,  17, 327
300, 329,  19,  18
301,  73,   6,  74
302, 350,  74,  75
303, 435, 396, 414
304, 396, 389,  71
305, 389,  70,  71
306, 378, 334, 351
307, 432, 377, 431
308, 332,  86, 323
309, 333,  85, 332
310, 504, 500, 478
311, 335,  67, 324
312, 381, 355, 356
313, 356, 355,  92
314, 359, 358,  94
315, 403, 340, 390
316, 340,  59, 339
317, 429, 428, 386
318, 342,  57, 341
319, 404, 342, 391
320, 344,  55, 343
321, 528,  53,  54
322,  84,  83,   7
323, 376, 333, 332
324, 377, 323, 374
325, 411, 376, 410
326, 407,  80,  81
327, 450, 330, 389
328, 347,  78, 346
329, 348,  77, 347
330, 349,  76, 348
331, 350,  75, 349
332, 352,  90, 336
333, 378, 374, 334
334, 353,  66, 335
335, 475, 424, 473
336, 438, 402, 436
337, 358, 356,  93
338, 357,  63, 337
339, 421, 420, 382
340, 361, 359,  95
341, 360,  61, 338
342, 362, 361,  96
343, 405, 360, 393
344, 363, 362,  97
345, 364, 363,  98
346, 447, 403, 445
347, 367, 366, 101
348, 367, 325, 366
349, 367,   8, 102
350, 368, 104, 322
351, 322, 104, 105
352, 371, 328, 327
353, 331,  69, 330
354, 323,  86,  87
355, 324,  67,  68
356, 331,  68,  69
357, 365, 364,  99
358, 325, 102, 103
359, 343,  56, 342
360, 326,  14,  13
361, 327,  17,  16
362, 403, 391, 341
363, 372, 328, 371
364, 328,  18,  17
365, 373, 322, 105
366, 329,  18, 328
367, 330,  69,  70
368, 451, 345, 407
369, 346,  79, 345
370, 331, 324,  68
371, 411,  83, 333
372, 332,  85,  86
373, 333,  83,  84
374, 333,  84,  85
375, 334, 323,  87
376, 351,  88,  89
377, 446, 444, 398
378, 335,  66,  67
379, 336,  90,  91
380, 355,  91,  92
381, 337,  63,  64
382, 354,  64,  65
383, 338,  61,  62
384, 357, 338,  62
385, 339,  59,  60
386, 360, 339,  60
387, 404, 392, 343
388, 340,  58,  59
389, 501, 464, 417
390, 341,  57,  58
391, 479, 456, 434
392, 342,  56,  57
393, 525, 490, 524
394, 343,  55,  56
395, 528, 344, 434
396, 344,  54,  55
397, 345,  79,  80
398, 529, 522, 494
399, 413, 346, 408
400, 346,  78,  79
401, 409, 348, 347
402, 347,  77,  78
403, 462, 435, 455
404, 348,  76,  77
405, 412, 348, 409
406, 349,  75,  76
407, 397,  73, 350
408, 350,  73,  74
409, 351, 334,  88
410, 352,  89,  90
411, 379, 336, 375
412, 515, 481, 514
413, 353,  65,  66
414, 401, 324, 398
415, 354, 337,  64
416, 354,  65, 353
417, 355, 336,  91
418, 356,  92,  93
419, 358,  93,  94
420, 381, 375, 355
421, 357,  62,  63
422, 382, 381, 356
423, 359,  94,  95
424, 383, 382, 358
425, 361,  95,  96
426, 472, 425, 471
427, 360,  60,  61
428, 427, 425, 384
429, 362,  96,  97
430, 384, 383, 359
431, 363,  97,  98
432, 385, 384, 361
433, 364,  98,  99
434, 386, 385, 362
435, 365,  99, 100
436, 387, 364, 365
437, 366, 365, 100
438, 433, 365, 366
439, 366, 100, 101
440, 433, 387, 365
441, 367, 101,   8
442, 367, 102, 325
443, 368, 325, 103
444, 562, 464, 322
445, 370,  15,  14
446, 370, 369,  15
447, 434, 344, 392
448, 392, 344, 343
449, 526, 492, 525
450, 418, 327, 369
451, 562, 372, 464
452, 372, 329, 328
453, 373, 105,   2
454, 373,  19, 329
455, 423, 378, 419
456, 374, 323, 334
457, 424, 381, 420
458, 375, 336, 355
459, 411, 410,  82
460, 377, 376, 332
461, 377, 332, 323
462, 431, 374, 423
463, 380, 351, 352
464, 398, 331, 394
465, 379, 352, 336
466, 488, 436, 481
467, 380, 378, 351
468, 380, 352, 379
469, 382, 356, 358
470, 400, 354, 399
471, 383, 358, 359
472, 439, 399, 438
473, 384, 359, 361
474, 425, 421, 383
475, 385, 361, 362
476, 548, 546, 532
477, 386, 362, 363
478, 428, 427, 385
479, 388, 363, 364
480, 549, 548, 532
481, 415, 325, 368
482, 430, 429, 388
483, 388, 386, 363
484, 388, 364, 387
485, 389, 330,  70
486, 396,  71,  72
487, 390, 340, 339
488, 405, 339, 360
489, 391, 342, 341
490, 403, 341, 340
491, 456, 370, 434
492, 404, 343, 342
493, 393, 360, 338
494, 406, 338, 357
495, 394, 331, 330
496, 413, 409, 347
497, 395, 357, 337
498, 400, 337, 354
499, 397, 396,  72
500, 414, 350, 349
501, 397,  72,  73
502, 414, 397, 350
503, 476, 422, 475
504, 398, 324, 331
505, 399, 354, 353
506, 402, 353, 335
507, 508, 471, 505
508, 400, 395, 337
509, 401, 335, 324
510, 444, 436, 401
511, 402, 399, 353
512, 402, 335, 401
513, 461, 457, 460
514, 491, 490, 445
515, 448, 391, 447
516, 449, 404, 448
517, 489, 442, 484
518, 405, 390, 339
519, 406, 393, 338
520, 406, 357, 395
521, 407, 345,  80
522, 410, 407,  81
523, 408, 346, 345
524, 560, 533, 536
525, 452, 412, 409
526, 413, 347, 346
527, 410,  81,  82
528, 495, 376, 432
529, 411,  82,  83
530, 411, 333, 376
531, 455, 414, 412
532, 412, 349, 348
533, 454, 453, 413
534, 543, 513, 480
535, 414, 396, 397
536, 414, 349, 412
537, 459, 433, 458
538, 457, 368, 416
539, 416, 368, 322
540, 417, 372, 371
541, 465, 418, 463
542, 549, 523, 548
543, 418, 371, 327
544, 479, 434, 392
545, 419, 378, 380
546, 426, 380, 379
547, 420, 381, 382
548, 421, 382, 383
549, 425, 383, 384
550, 540, 539, 509
551, 422, 379, 375
552, 424, 422, 375
553, 529, 500, 522
554, 423, 374, 378
555, 424, 375, 381
556, 517, 488, 515
557, 427, 384, 385
558, 471, 427, 470
559, 426, 419, 380
560, 426, 379, 422
561, 428, 385, 386
562, 441, 406, 437
563, 429, 386, 388
564, 442, 393, 441
565, 430, 388, 387
566, 443, 405, 442
567, 459, 387, 433
568, 445, 390, 443
569, 466, 432, 431
570, 431, 377, 374
571, 495, 410, 376
572, 432, 376, 377
573, 458, 366, 325
574, 458, 433, 366
575, 434, 370, 326
576, 528, 434, 326
577, 462, 455, 452
578, 435, 389, 396
579, 436, 402, 401
580, 444, 401, 398
581, 437, 406, 395
582, 440, 395, 400
583, 487, 485, 439
584, 438, 399, 402
585, 474, 421, 472
586, 439, 400, 399
587, 440, 437, 395
588, 440, 400, 439
589, 470, 428, 468
590, 441, 393, 406
591, 484, 441, 483
592, 442, 405, 393
593, 469, 468, 429
594, 443, 390, 405
595, 446, 398, 394
596, 477, 426, 476
597, 512, 469, 430
598, 445, 403, 390
599, 480, 394, 450
600, 453, 452, 409
601, 492, 447, 490
602, 447, 391, 403
603, 493, 449, 448
604, 448, 404, 391
605, 479, 463, 456
606, 449, 392, 404
607, 450, 394, 330
608, 450, 389, 435
609, 451, 408, 345
610, 495, 451, 407
611, 453, 409, 413
612, 497, 452, 453
613, 454, 413, 408
614, 496, 453, 454
615, 494, 408, 451
616, 467, 466, 431
617, 455, 435, 414
618, 455, 412, 452
619, 456, 418, 369
620, 456, 369, 370
621, 457, 415, 368
622, 460, 457, 416
623, 458, 325, 415
624, 459, 458, 415
625, 461, 415, 457
626, 459, 430, 387
627, 464, 460, 416
628, 526, 493, 492
629, 530, 501, 499
630, 461, 459, 415
631, 543, 527, 513
632, 462, 450, 435
633, 493, 463, 449
634, 463, 418, 456
635, 464, 416, 322
636, 464, 372, 417
637, 465, 417, 371
638, 465, 371, 418
639, 495, 466, 451
640, 467, 431, 423
641, 478, 423, 419
642, 527, 497, 496
643, 468, 428, 429
644, 469, 429, 430
645, 512, 430, 459
646, 491, 443, 489
647, 505, 470, 503
648, 470, 427, 428
649, 555, 540, 544
650, 471, 425, 427
651, 509, 472, 508
652, 472, 421, 425
653, 473, 424, 420
654, 474, 473, 420
655, 474, 420, 421
656, 546, 545, 534
657, 507, 475, 506
658, 475, 422, 424
659, 482, 481, 444
660, 476, 426, 422
661, 547, 500, 531
662, 477, 419, 426
663, 478, 467, 423
664, 478, 419, 477
665, 479, 392, 449
666, 479, 449, 463
667, 480, 446, 394
668, 480, 450, 462
669, 481, 436, 444
670, 482, 444, 446
671, 513, 446, 480
672, 561, 542, 553
673, 483, 441, 437
674, 486, 437, 440
675, 503, 468, 502
676, 484, 442, 441
677, 485, 440, 439
678, 487, 439, 438
679, 486, 483, 437
680, 486, 440, 485
681, 488, 487, 438
682, 558, 537, 539
683, 488, 438, 436
684, 559, 537, 558
685, 521, 484, 519
686, 489, 443, 442
687, 490, 447, 445
688, 491, 445, 443
689, 523, 489, 521
690, 524, 491, 523
691, 550, 524, 549
692, 492, 448, 447
693, 498, 463, 493
694, 493, 448, 492
695, 494, 454, 408
696, 494, 451, 466
697, 495, 407, 410
698, 495, 432, 466
699, 522, 454, 494
700, 500, 467, 478
701, 497, 462, 452
702, 497, 453, 496
703, 499, 465, 498
704, 498, 465, 463
705, 551, 499, 526
706, 499, 417, 465
707, 504, 478, 477
708, 561, 553, 533
709, 501, 460, 464
710, 501, 417, 499
711, 502, 468, 469
712, 541, 469, 512
713, 519, 483, 518
714, 503, 470, 468
715, 511, 477, 476
716, 553, 527, 547
717, 544, 540, 538
718, 505, 471, 470
719, 506, 475, 473
720, 510, 473, 474
721, 560, 535, 559
722, 507, 476, 475
723, 520, 485, 516
724, 508, 472, 471
725, 539, 537, 510
726, 509, 474, 472
727, 510, 506, 473
728, 510, 474, 509
729, 511, 504, 477
730, 511, 476, 507
731, 552, 459, 461
732, 557, 556, 541
733, 513, 482, 446
734, 543, 480, 462
735, 514, 481, 482
736, 542, 482, 513
737, 560, 536, 535
738, 515, 488, 481
739, 516, 485, 487
740, 517, 516, 487
741, 517, 487, 488
742, 559, 535, 537
743, 518, 483, 486
744, 520, 518, 486
745, 545, 538, 534
746, 519, 484, 483
747, 520, 486, 485
748, 555, 539, 540
749, 546, 534, 532
750, 521, 489, 484
751, 522, 496, 454
752, 529, 494, 466
753, 556, 550, 549
754, 523, 491, 489
755, 554, 552, 461
756, 524, 490, 491
757, 551, 526, 525
758, 525, 492, 490
759, 526, 499, 498
760, 526, 498, 493
761, 553, 547, 531
762, 547, 527, 496
763, 528, 326,  53
764, 528,  54, 344
765, 529, 466, 467
766, 529, 467, 500
767, 554, 460, 530
768, 530, 460, 501
769, 531, 500, 504
770, 533, 531, 504
771, 532, 503, 502
772, 549, 532, 502
773, 533, 504, 511
774, 536, 511, 507
775, 534, 505, 503
776, 534, 503, 532
777, 535, 507, 506
778, 537, 535, 506
779, 536, 533, 511
780, 536, 507, 535
781, 537, 506, 510
782, 539, 510, 509
783, 538, 508, 505
784, 538, 505, 534
785, 540, 509, 508
786, 558, 539, 555
787, 540, 508, 538
788, 545, 544, 538
789, 541, 502, 469
790, 552, 541, 512
791, 542, 514, 482
792, 542, 513, 527
793, 543, 462, 497
794, 543, 497, 527
795, 544, 518, 520
796, 555, 544, 520
797, 545, 519, 518
798, 545, 518, 544
799, 546, 521, 519
800, 546, 519, 545
801, 547, 496, 522
802, 547, 522, 500
803, 548, 523, 521
804, 548, 521, 546
805, 556, 502, 541
806, 549, 524, 523
807, 557, 551, 550
808, 550, 525, 524
809, 551, 530, 499
810, 551, 525, 550
811, 552, 512, 459
812, 554, 461, 460
813, 553, 531, 533
814, 553, 542, 527
815, 557, 530, 551
816, 557, 552, 554
817, 555, 520, 516
818, 558, 555, 516
819, 556, 549, 502
820, 557, 541, 552
821, 557, 554, 530
822, 557, 550, 556
823, 558, 516, 517
824, 559, 558, 517
825, 559, 517, 515
826, 560, 559, 515
827, 560, 515, 514
828, 561, 560, 514
829, 561, 533, 560
830, 561, 514, 542
831, 562, 322, 373
832, 562, 329, 372
 833, 580,   9, 106
 834, 760, 626, 672
 835, 579, 578, 154
 836, 613, 151,  31
 837, 657, 563, 609
 838, 732, 693, 654
 839, 121,  10, 122
 840, 574, 121, 122
 841, 620, 572, 618
 842, 633, 627, 120
 843, 575, 572, 126
 844, 720, 685, 713
 845, 623, 117, 118
 846, 586, 116, 583
 847, 601, 142, 600
 848, 585, 114, 584
 849, 587, 113, 585
 850, 705, 704, 668
 851, 589, 110, 581
 852, 722, 719, 680
 853, 625, 591, 582
 854, 591, 107, 582
 855, 133, 132,  11
 856, 567, 132, 133
 857, 608, 135, 607
 858, 568, 130, 131
 859, 569, 129, 130
 860, 570, 128, 129
 861, 575, 127, 571
 862, 572, 125, 126
 863, 573, 125, 572
 864, 576, 124, 573
 865, 574, 122, 123
 866,  31, 151,   4
 867, 613,  31,  30
 868, 640, 592, 613
 869, 594, 149, 593
 870, 595, 148, 594
 871, 648, 594, 593
 872, 597, 146, 596
 873, 598, 145, 597
 874, 599, 144, 598
 875, 642, 639, 600
 876, 643, 601, 639
 877, 602, 141, 601
 878, 635, 584, 632
 879, 603, 140, 602
 880, 645, 605, 644
 881, 644, 604, 638
 882, 659, 658, 617
 883, 731, 700, 698
 884, 695, 133, 134
 885, 611,  30,  29
 886, 614,  28, 564
 887, 564,  28,  27
 888, 565, 564,  27
 889, 566,  25, 563
 890, 563,  25,  24
 891, 609, 563,  24
 892, 609,   3, 152
 893, 578, 577, 153
 894, 566, 565,  26
 895, 577, 152, 153
 896, 593, 150, 592
 897, 565,  27,  26
 898, 615, 612, 565
 899, 612, 564, 565
 900, 566,  26,  25
 901, 657, 609, 577
 902, 568, 131, 567
 903, 567, 131, 132
 904, 607, 136, 606
 905, 569, 130, 568
 906, 606, 137, 605
 907, 570, 129, 569
 908, 605, 138, 604
 909, 571, 128, 570
 910, 629, 119, 627
 911, 571, 127, 128
 912, 666, 627, 653
 913, 575, 126, 127
 914, 653, 576, 619
 915, 573, 124, 125
 916, 633, 121, 574
 917, 576, 574, 123
 918, 617, 575, 571
 919, 618, 575, 617
 920, 576, 123, 124
 921, 662, 620, 660
 922, 578, 153, 154
 923, 683, 682, 637
 924, 579, 154, 155
 925, 596, 147, 595
 926, 580, 579, 155
 927, 582, 107, 108
 928, 580, 155,   9
 929, 591, 106, 107
 930, 581, 110, 111
 931, 588, 111, 112
 932, 590, 108, 109
 933, 626, 625, 582
 934, 604, 139, 603
 935, 583, 116, 117
 936, 584, 114, 115
 937, 586, 584, 115
 938, 600, 143, 599
 939, 585, 113, 114
 940, 586, 115, 116
 941, 661, 659, 621
 942, 588, 112, 587
 943, 587, 112, 113
 944, 668, 631, 667
 945, 588, 581, 111
 946, 589, 109, 110
 947, 647, 597, 637
 948, 590, 582, 108
 949, 590, 109, 589
 950, 591, 579, 580
 951, 591, 580, 106
 952, 592, 150, 151
 953, 640, 613, 611
 954, 692, 690, 640
 955, 593, 149, 150
 956, 594, 148, 149
 957, 615, 566, 610
 958, 649, 595, 641
 959, 595, 147, 148
 960, 767, 753, 578
 961, 596, 146, 147
 962, 636, 589, 624
 963, 597, 145, 146
 964, 647, 598, 597
 965, 598, 144, 145
 966, 630, 624, 581
 967, 599, 143, 144
 968, 669, 634, 668
 969, 600, 142, 143
 970, 632, 584, 586
 971, 601, 141, 142
 972, 643, 602, 601
 973, 602, 140, 141
 974, 632, 586, 628
 975, 603, 139, 140
 976, 622, 569, 568
 977, 604, 138, 139
 978, 622, 616, 569
 979, 605, 137, 138
 980, 695, 664, 567
 981, 606, 136, 137
 982, 646, 606, 645
 983, 607, 135, 136
 984, 695, 608, 664
 985, 608, 134, 135
 986, 609,  24,   3
 987, 609, 152, 577
 988, 610, 566, 563
 989, 691, 657, 577
 990, 614,  29,  28
 991, 692, 656, 690
 992, 648, 593, 640
 993, 615, 565, 566
 994, 613, 592, 151
 995, 613,  30, 611
 996, 614, 611,  29
 997, 656, 564, 612
 998, 657, 654, 610
 999, 684, 683, 649
1000, 621, 570, 616
1001, 616, 570, 569
1002, 658, 618, 617
1003, 621, 617, 571
1004, 675, 629, 666
1005, 618, 572, 575
1006, 619, 576, 573
1007, 620, 619, 573
1008, 620, 573, 572
1009, 660, 618, 658
1010, 621, 571, 570
1011, 686, 638, 681
1012, 664, 622, 568
1013, 652, 608, 607
1014, 623, 583, 117
1015, 629, 118, 119
1016, 624, 589, 581
1017, 630, 581, 588
1018, 625, 579, 591
1019, 626, 582, 590
1020, 636, 626, 590
1021, 673, 624, 670
1022, 627, 119, 120
1023, 653, 633, 574
1024, 628, 586, 583
1025, 665, 583, 623
1026, 708, 675, 666
1027, 629, 623, 118
1028, 634, 588, 587
1029, 670, 630, 669
1030, 631, 587, 585
1031, 635, 585, 584
1032, 674, 671, 632
1033, 671, 667, 635
1034, 633, 120, 121
1035, 653, 574, 576
1036, 634, 630, 588
1037, 634, 587, 631
1038, 712, 671, 711
1039, 635, 631, 585
1040, 636, 590, 589
1041, 650, 598, 647
1042, 637, 597, 596
1043, 649, 596, 595
1044, 638, 604, 603
1045, 651, 603, 602
1046, 639, 601, 600
1047, 642, 600, 599
1048, 648, 641, 594
1049, 640, 593, 592
1050, 641, 595, 594
1051, 787, 783, 773
1052, 650, 599, 598
1053, 716, 714, 677
1054, 677, 676, 643
1055, 651, 602, 643
1056, 663, 661, 616
1057, 644, 605, 604
1058, 686, 685, 644
1059, 645, 606, 605
1060, 687, 645, 685
1061, 646, 607, 606
1062, 682, 680, 647
1063, 673, 672, 636
1064, 692, 640, 611
1065, 751, 724, 727
1066, 655, 615, 654
1067, 649, 637, 596
1068, 709, 669, 704
1069, 650, 642, 599
1070, 681, 651, 676
1071, 651, 638, 603
1072, 702, 664, 652
1073, 652, 607, 646
1074, 701, 666, 653
1075, 653, 627, 633
1076, 654, 615, 610
1077, 691, 654, 657
1078, 689, 684, 641
1079, 655, 612, 615
1080, 656, 614, 564
1081, 694, 612, 655
1082, 657, 610, 563
1083, 691, 577, 578
1084, 729, 699, 696
1085, 659, 617, 621
1086, 661, 621, 616
1087, 685, 645, 644
1088, 699, 660, 696
1089, 660, 620, 618
1090, 663, 616, 622
1091, 742, 720, 713
1092, 755, 729, 730
1093, 662, 619, 620
1094, 702, 663, 622
1095, 688, 652, 646
1096, 664, 568, 567
1097, 664, 608, 652
1098, 665, 628, 583
1099, 708, 666, 701
1100, 666, 629, 627
1101, 701, 653, 619
1102, 667, 631, 635
1103, 671, 635, 632
1104, 678, 677, 639
1105, 668, 634, 631
1106, 679, 678, 642
1107, 669, 630, 634
1108, 680, 679, 650
1109, 670, 624, 630
1110, 674, 632, 628
1111, 725, 723, 681
1112, 672, 626, 636
1113, 673, 636, 624
1114, 710, 670, 709
1115, 722, 682, 715
1116, 703, 628, 665
1117, 696, 660, 658
1118, 675, 665, 623
1119, 675, 623, 629
1120, 676, 651, 643
1121, 677, 643, 639
1122, 678, 639, 642
1123, 763, 762, 735
1124, 679, 642, 650
1125, 717, 716, 678
1126, 680, 650, 647
1127, 736, 704, 735
1128, 682, 647, 637
1129, 746, 745, 719
1130, 738, 737, 712
1131, 681, 638, 651
1132, 683, 637, 649
1133, 721, 715, 683
1134, 684, 649, 641
1135, 693, 655, 654
1136, 689, 641, 648
1137, 724, 721, 684
1138, 697, 663, 688
1139, 686, 644, 638
1140, 723, 713, 686
1141, 730, 729, 696
1142, 718, 688, 687
1143, 687, 646, 645
1144, 702, 688, 663
1145, 688, 646, 687
1146, 690, 689, 648
1147, 726, 690, 656
1148, 690, 648, 640
1149, 726, 656, 694
1150, 767, 578, 579
1151, 789, 760, 733
1152, 692, 611, 614
1153, 692, 614, 656
1154, 732, 654, 691
1155, 781, 732, 753
1156, 694, 656, 612
1157, 727, 655, 693
1158, 695, 567, 133
1159, 695, 134, 608
1160, 700, 658, 659
1161, 728, 718, 720
1162, 698, 661, 697
1163, 697, 661, 663
1164, 728, 697, 718
1165, 698, 659, 661
1166, 758, 708, 699
1167, 699, 662, 660
1168, 700, 696, 658
1169, 700, 659, 698
1170, 701, 619, 662
1171, 708, 707, 675
1172, 702, 622, 664
1173, 702, 652, 688
1174, 703, 674, 628
1175, 707, 703, 665
1176, 704, 669, 668
1177, 705, 668, 667
1178, 712, 667, 671
1179, 737, 735, 705
1180, 706, 672, 673
1181, 710, 673, 670
1182, 707, 665, 675
1183, 758, 729, 740
1184, 708, 701, 662
1185, 708, 662, 699
1186, 741, 709, 736
1187, 709, 670, 669
1188, 719, 717, 679
1189, 710, 706, 673
1190, 711, 671, 674
1191, 734, 674, 703
1192, 725, 676, 714
1193, 712, 705, 667
1194, 713, 685, 686
1195, 723, 686, 681
1196, 714, 676, 677
1197, 716, 677, 678
1198, 715, 682, 683
1199, 721, 683, 684
1200, 717, 678, 679
1201, 744, 743, 716
1202, 719, 679, 680
1203, 769, 762, 768
1204, 718, 697, 688
1205, 720, 718, 687
1206, 722, 680, 682
1207, 741, 739, 710
1208, 720, 687, 685
1209, 756, 731, 754
1210, 724, 684, 689
1211, 751, 721, 724
1212, 774, 773, 749
1213, 749, 715, 748
1214, 725, 681, 676
1215, 750, 742, 713
1216, 726, 724, 689
1217, 727, 724, 726
1218, 776, 763, 764
1219, 752, 750, 723
1220, 726, 689, 690
1221, 727, 726, 694
1222, 727, 694, 655
1223, 751, 748, 721
1224, 731, 698, 728
1225, 728, 698, 697
1226, 758, 740, 707
1227, 730, 696, 700
1228, 731, 730, 700
1229, 780, 755, 756
1230, 742, 728, 720
1231, 770, 742, 750
1232, 789, 782, 781
1233, 753, 732, 691
1234, 733, 672, 706
1235, 759, 706, 739
1236, 734, 711, 674
1237, 740, 734, 703
1238, 735, 704, 705
1239, 737, 705, 712
1240, 745, 744, 717
1241, 736, 709, 704
1242, 738, 712, 711
1243, 747, 714, 743
1244, 761, 711, 734
1245, 752, 725, 747
1246, 739, 706, 710
1247, 741, 710, 709
1248, 740, 703, 707
1249, 755, 740, 729
1250, 765, 736, 762
1251, 766, 741, 765
1252, 754, 728, 742
1253, 750, 713, 723
1254, 743, 714, 716
1255, 744, 716, 717
1256, 745, 717, 719
1257, 769, 765, 762
1258, 746, 719, 722
1259, 771, 766, 765
1260, 749, 722, 715
1261, 773, 772, 746
1262, 764, 763, 737
1263, 747, 725, 714
1264, 748, 715, 721
1265, 778, 775, 751
1266, 783, 772, 773
1267, 749, 746, 722
1268, 752, 723, 725
1269, 784, 777, 764
1270, 778, 727, 693
1271, 778, 757, 775
1272, 777, 776, 764
1273, 777, 752, 776
1274, 753, 691, 578
1275, 779, 767, 625
1276, 756, 755, 730
1277, 754, 731, 728
1278, 785, 740, 755
1279, 756, 730, 731
1280, 770, 754, 742
1281, 780, 770, 777
1282, 757, 693, 732
1283, 786, 781, 782
1284, 758, 707, 708
1285, 758, 699, 729
1286, 759, 733, 706
1287, 783, 739, 766
1288, 760, 625, 626
1289, 760, 672, 733
1290, 761, 738, 711
1291, 785, 761, 734
1292, 762, 736, 735
1293, 763, 735, 737
1294, 764, 737, 738
1295, 768, 762, 763
1296, 784, 738, 761
1297, 776, 768, 763
1298, 771, 765, 769
1299, 765, 741, 736
1300, 772, 766, 771
1301, 766, 739, 741
1302, 767, 579, 625
1303, 779, 625, 760
1304, 768, 747, 743
1305, 769, 768, 743
1306, 769, 743, 744
1307, 771, 769, 744
1308, 770, 756, 754
1309, 777, 750, 752
1310, 771, 744, 745
1311, 772, 771, 745
1312, 772, 745, 746
1313, 773, 746, 749
1314, 774, 749, 748
1315, 787, 773, 774
1316, 775, 774, 748
1317, 788, 787, 774
1318, 775, 748, 751
1319, 787, 786, 782
1320, 776, 752, 747
1321, 776, 747, 768
1322, 784, 780, 777
1323, 777, 770, 750
1324, 778, 751, 727
1325, 778, 693, 757
1326, 789, 781, 779
1327, 779, 753, 767
1328, 785, 780, 761
1329, 780, 756, 770
1330, 781, 757, 732
1331, 781, 753, 779
1332, 782, 733, 759
1333, 787, 782, 759
1334, 783, 759, 739
1335, 783, 766, 772
1336, 784, 764, 738
1337, 784, 761, 780
1338, 785, 734, 740
1339, 785, 755, 780
1340, 788, 757, 786
1341, 786, 757, 781
1342, 787, 759, 783
1343, 788, 774, 775
1344, 788, 775, 757
1345, 788, 786, 787
1346, 789, 779, 760
1347, 789, 733, 782
1348, 1004, 1000,  938
1349,  938,  119,  118
1350,  880,  796,  878
1351, 1069,  121,  120
1352,  791,  790,  159
1353,  791,    8,  101
1354, 1021, 1000, 1004
1355, 1069,  966,  837
1356,  883,  115,  792
1357,  792,  115,  114
1358,  861,  187,  188
1359,  793,  792,  114
1360,  794,  793,  113
1361,  796,  111,  110
1362,  795,  794,  112
1363,  796,  795,  111
1364,  798,  797,  109
1365, 1198, 1162, 1126
1366,  799,  798,  108
1367,  936,  879,  799
1368,  802,  800,  801
1369,  802,    9,  156
1370,  803,  158,  790
1371,   84,    7,  160
1372,  804,   84,  160
1373,  836,  162,  835
1374,  805,   86,   85
1375,  806,   87,   86
1376,  807,   88,   87
1377,  808,   89,   88
1378,  809,   90,   89
1379,  810,   91,   90
1380,  811,   92,   91
1381,  812,   93,   92
1382,  813,   94,   93
1383,  814,   95,   94
1384,  815,   96,   95
1385,  816,   97,   96
1386,  818,   98,  817
1387,  819,   99,  818
1388,  820,  100,  819
1389,  179,  178,   12
1390,  845,  178,  179
1391,  933,  932,  864
1392,  822,  176,  821
1393,  823,  175,  822
1394,  824,  174,  823
1395,  825,  173,  824
1396,  826,  172,  825
1397,  854,  811,  810
1398, 1002,  999,  943
1399,  955,  953,  895
1400,  895,  829,  889
1401,  915,  914,  854
1402, 1009,  956, 1007
1403,  832,  166,  831
1404,  975,  914,  915
1405,  953,  896,  895
1406,  973,  972,  917
1407,  962,  160,  161
1408,  199,   10,  121
1409,  837,  199,  121
1410,  869,  198,  837
1411,  870,  197,  869
1412,  870,  196,  197
1413,  871,  195,  196
1414,  965,  870,  869
1415,  872,  194,  195
1416,  873,  193,  194
1417,  874,  192,  193
1418,  875,  192,  874
1419,  862,  861,  188
1420,  861,  838,  187
1421,  862,  188,  189
1422,  839,  186,  838
1423,  839,  185,  186
1424,  840,  184,  185
1425,  842,  183,  841
1426,  843,  182,  842
1427,  844,  181,  843
1428,  904,  892,  845
1429,  790,  158,  159
1430,  894,  889,  828
1431,  791,  159,    8
1432,  820,  101,  100
1433,  793,  114,  113
1434,  863,  839,  838
1435,  794,  113,  112
1436,  904,  890,  821
1437,  795,  112,  111
1438,  950,  949,  893
1439,  797,  110,  109
1440,  886,  797,  798
1441,  797,  796,  110
1442,  977,  907,  908
1443,  798,  109,  108
1444,  886,  798,  879
1445,  799,  108,  107
1446,  936,  799,  801
1447,  801,  107,  106
1448,  800,  156,  157
1449,  803,  157,  158
1450,  803,  800,  157
1451,  801,  799,  107
1452,  802,  801,  106
1453,  802,  106,    9
1454,  802,  156,  800
1455,  909,  908,  851
1456,  905,  800,  803
1457,  805,   85,  804
1458,  804,   85,   84
1459,  835,  163,  834
1460,  806,   86,  805
1461,  834,  164,  833
1462,  807,   87,  806
1463,  833,  165,  832
1464,  808,   88,  807
1465,  831,  167,  830
1466,  809,   89,  808
1467,  830,  168,  829
1468,  810,   90,  809
1469,  828,  169,  170
1470,  811,   91,  810
1471,  827,  170,  171
1472,  812,   92,  811
1473,  827,  171,  826
1474,  813,   93,  812
1475,  850,  815,  814
1476,  814,   94,  813
1477,  847,  813,  812
1478,  815,   95,  814
1479,  913,  847,  846
1480,  816,   96,  815
1481,  851,  816,  848
1482,  817,   97,  816
1483,  851,  817,  816
1484,  817,   98,   97
1485,  860,  852,  818
1486,  818,   99,   98
1487,  853,  819,  852
1488,  819,  100,   99
1489,  820,  790,  791
1490,  820,  791,  101
1491,  821,  176,  177
1492,  892,  178,  845
1493, 1011, 1010,  949
1494,  822,  175,  176
1495,  893,  823,  891
1496,  823,  174,  175
1497,  949,  888,  893
1498,  824,  173,  174
1499,  901,  825,  888
1500,  825,  172,  173
1501,  885,  795,  880
1502,  826,  171,  172
1503,  854,  846,  811
1504,  828,  170,  827
1505,  894,  827,  887
1506,  829,  169,  828
1507,  855,  854,  810
1508,  829,  168,  169
1509,  856,  855,  809
1510,  830,  167,  168
1511,  857,  856,  808
1512,  831,  166,  167
1513,  858,  857,  807
1514,  832,  165,  166
1515,  859,  858,  806
1516,  833,  164,  165
1517,  962,  903,  804
1518,  834,  163,  164
1519,  900,  834,  899
1520,  835,  162,  163
1521,  962,  836,  903
1522,  836,  161,  162
1523,  837,  198,  199
1524,  939,  119,  938
1525,  838,  186,  187
1526,  935,  838,  861
1527,  864,  839,  863
1528,  840,  185,  839
1529,  864,  840,  839
1530,  841,  184,  840
1531,  865,  841,  840
1532,  841,  183,  184
1533,  867,  842,  866
1534,  842,  182,  183
1535,  868,  843,  867
1536,  843,  181,  182
1537,  904,  845,  844
1538,  844,  180,  181
1539,  845,  179,  180
1540,  845,  180,  844
1541,  847,  812,  846
1542,  846,  812,  811
1543,  910,  909,  848
1544,  849,  813,  847
1545,  908,  907,  860
1546,  848,  816,  815
1547,  849,  814,  813
1548,  913,  911,  847
1549,  850,  848,  815
1550,  850,  814,  849
1551,  946,  945,  886
1552,  860,  817,  851
1553,  853,  820,  819
1554,  852,  819,  818
1555,  906,  790,  853
1556,  853,  790,  820
1557,  855,  810,  809
1558,  896,  830,  895
1559,  856,  809,  808
1560,  897,  831,  896
1561,  857,  808,  807
1562,  898,  832,  897
1563,  858,  807,  806
1564,  899,  833,  898
1565,  859,  806,  805
1566, 1063, 1014, 1062
1567,  903,  859,  805
1568,  902,  836,  835
1569,  860,  818,  817
1570,  945,  943,  878
1571,  877,  189,  190
1572,  920,  861,  862
1573,  876,  191,  875
1574,  928,  924,  876
1575,  884,  793,  882
1576,  932,  931,  865
1577,  951,  950,  891
1578,  865,  840,  864
1579,  931,  930,  866
1580,  866,  841,  865
1581,  951,  890,  934
1582,  866,  842,  841
1583,  929,  868,  867
1584,  867,  843,  842
1585,  934,  904,  868
1586,  868,  844,  843
1587,  869,  197,  198
1588,  940,  117,  881
1589,  881,  117,  116
1590,  871,  196,  870
1591,  947,  883,  937
1592,  872,  195,  871
1593,  937,  792,  884
1594,  873,  194,  872
1595,  926,  922,  872
1596,  874,  193,  873
1597,  990,  922,  926
1598,  875,  191,  192
1599,  927,  923,  874
1600,  876,  190,  191
1601,  941,  884,  882
1602,  877,  190,  876
1603,  928,  876,  875
1604,  877,  862,  189
1605, 1007,  956,  958
1606,  878,  796,  797
1607,  879,  798,  799
1608,  967,  936,  964
1609,  885,  882,  794
1610,  880,  795,  796
1611,  883,  881,  116
1612, 1039,  991, 1023
1613,  882,  793,  794
1614,  885,  794,  795
1615,  883,  116,  115
1616,  884,  792,  793
1617,  984,  983,  920
1618,  990,  985,  922
1619,  944,  880,  943
1620,  942,  941,  882
1621,  907,  852,  860
1622,  886,  878,  797
1623,  887,  827,  826
1624,  901,  826,  825
1625,  888,  825,  824
1626,  893,  824,  823
1627,  914,  913,  846
1628,  889,  829,  828
1629,  930,  929,  867
1630,  890,  822,  821
1631,  891,  823,  822
1632,  891,  822,  890
1633,  892,  821,  177
1634,  892,  177,  178
1635,  949,  948,  888
1636,  893,  888,  824
1637,  894,  828,  827
1638,  958,  887,  952
1639,  916,  915,  855
1640,  895,  830,  829
1641,  917,  916,  856
1642,  896,  831,  830
1643,  918,  917,  857
1644,  897,  832,  831
1645,  919,  918,  858
1646,  898,  833,  832
1647, 1058, 1008, 1009
1648,  899,  834,  833
1649,  960,  899,  959
1650,  900,  835,  834
1651,  952,  901,  948
1652,  901,  887,  826
1653,  995,  903,  902
1654,  902,  835,  900
1655,  903,  805,  804
1656,  903,  836,  902
1657,  904,  821,  892
1658,  904,  844,  868
1659,  963,  803,  906
1660, 1022,  968,  906
1661,  906,  803,  790
1662, 1070, 1022,  853
1663,  908,  860,  851
1664,  909,  851,  848
1665,  910,  848,  850
1666, 1006, 1002,  945
1667,  912,  850,  849
1668, 1054, 1052,  999
1669,  976,  913,  914
1670,  978,  910,  912
1671,  911,  849,  847
1672, 1028,  976,  975
1673,  912,  910,  850
1674,  912,  849,  911
1675,  914,  846,  854
1676,  974,  915,  916
1677,  915,  854,  855
1678, 1014,  954, 1013
1679,  916,  855,  856
1680,  954,  896,  953
1681,  917,  856,  857
1682,  957,  897,  954
1683,  918,  857,  858
1684,  959,  898,  957
1685,  919,  858,  859
1686, 1015,  957, 1014
1687,  995,  919,  859
1688,  961,  902,  900
1689,  983,  935,  920
1690,  925,  862,  877
1691,  926,  871,  921
1692,  921,  871,  870
1693,  927,  873,  922
1694,  922,  873,  872
1695,  928,  875,  923
1696,  923,  875,  874
1697,  987,  986,  924
1698,  924,  877,  876
1699,  925,  920,  862
1700,  925,  877,  924
1701,  926,  872,  871
1702,  991,  921,  970
1703,  927,  874,  873
1704, 1129, 1087, 1115
1705, 1042,  989,  988
1706, 1178, 1139, 1171
1707,  930,  867,  866
1708,  931,  866,  865
1709,  932,  865,  864
1710,  994,  931,  993
1711,  933,  864,  863
1712,  993,  932,  992
1713,  996,  863,  935
1714,  992,  932,  933
1715, 1067, 1018, 1064
1716, 1018, 1017,  952
1717,  934,  890,  904
1718,  934,  868,  929
1719,  935,  863,  838
1720,  935,  861,  920
1721,  964,  801,  800
1722,  964,  936,  801
1723,  937,  883,  792
1724,  998,  884,  941
1725,  940,  938,  118
1726, 1021, 1020, 1000
1727, 1069,  939,  966
1728,  939,  120,  119
1729,  940,  118,  117
1730,  997,  881,  947
1731,  986,  925,  924
1732,  942,  882,  885
1733,  944,  885,  880
1734, 1003,  944,  999
1735,  943,  880,  878
1736,  945,  878,  886
1737, 1145, 1142, 1103
1738,  944,  942,  885
1739,  946,  886,  879
1740, 1030,  977,  979
1741,  967,  879,  936
1742,  969,  963,  968
1743, 1020,  966, 1000
1744,  947,  881,  883
1745,  948,  901,  888
1746, 1083, 1047, 1036
1747,  950,  893,  891
1748, 1110, 1067, 1064
1749,  951,  891,  890
1750, 1048,  929,  930
1751,  951,  934,  929
1752, 1048, 1012,  951
1753, 1005,  942, 1003
1754,  952,  887,  901
1755,  955,  895,  889
1756,  956,  889,  894
1757, 1019,  959, 1015
1758,  954,  897,  896
1759,  958,  894,  887
1760,  956,  955,  889
1761,  958,  956,  894
1762, 1107, 1062, 1105
1763, 1144, 1105, 1143
1764,  957,  898,  897
1765, 1018,  952,  948
1766, 1079, 1033, 1032
1767,  971,  919,  961
1768,  959,  899,  898
1769, 1016,  961,  960
1770,  960,  900,  899
1771,  995,  961,  919
1772,  961,  900,  960
1773,  962,  804,  160
1774,  962,  161,  836
1775,  963,  905,  803
1776, 1022,  906,  853
1777,  964,  800,  905
1778,  967,  964,  905
1779,  965,  921,  870
1780,  966,  965,  869
1781,  966,  869,  837
1782, 1000,  939,  938
1783,  969,  905,  963
1784,  967,  946,  879
1785,  968,  963,  906
1786, 1071, 1070, 1035
1787, 1049, 1006,  946
1788,  969,  967,  905
1789, 1001,  937,  998
1790,  970,  921,  965
1791,  973,  918,  971
1792,  971,  918,  919
1793,  974,  916,  972
1794,  972,  916,  917
1795,  973,  917,  918
1796, 1019, 1016,  960
1797, 1013,  953, 1008
1798,  975,  915,  974
1799, 1008,  953,  955
1800,  976,  914,  975
1801, 1029,  981,  976
1802,  981,  913,  976
1803,  979,  908,  909
1804,  980,  910,  978
1805, 1056, 1054, 1002
1806,  982,  912,  911
1807,  979,  977,  908
1808,  980,  979,  909
1809,  980,  909,  910
1810, 1080, 1034, 1078
1811,  981,  911,  913
1812, 1027,  975,  974
1813,  982,  978,  912
1814,  982,  911,  981
1815, 1036,  996,  983
1816,  984,  920,  925
1817,  986,  984,  925
1818, 1038, 1037,  984
1819,  988,  927,  985
1820,  985,  927,  922
1821,  987,  924,  928
1822, 1088, 1041, 1040
1823,  989,  928,  923
1824, 1089, 1086, 1038
1825,  988,  923,  927
1826, 1040,  985,  990
1827,  989,  987,  928
1828,  989,  923,  988
1829,  991,  990,  926
1830, 1087, 1039, 1072
1831,  991,  926,  921
1832, 1098, 1055, 1050
1833, 1011,  949,  950
1834, 1047,  933,  996
1835, 1112, 1093, 1106
1836,  993,  931,  932
1837, 1068,  994, 1046
1838,  994,  930,  931
1839,  995,  859,  903
1840,  995,  902,  961
1841,  996,  933,  863
1842,  996,  935,  983
1843,  997,  940,  881
1844, 1050,  947, 1001
1845,  998,  937,  884
1846, 1051,  941, 1005
1847,  999,  944,  943
1848, 1002,  943,  945
1849, 1000,  966,  939
1850, 1004,  938,  940
1851, 1023,  970, 1021
1852, 1001,  947,  937
1853, 1006,  945,  946
1854, 1204, 1035, 1084
1855, 1085, 1083, 1036
1856, 1003,  942,  944
1857, 1004,  940,  997
1858, 1055, 1004,  997
1859, 1057, 1003, 1052
1860, 1005,  941,  942
1861, 1049,  946,  967
1862, 1114, 1113,  969
1863, 1031,  982,  981
1864, 1017,  958,  952
1865, 1026,  974,  972
1866, 1009, 1008,  955
1867, 1009,  955,  956
1868, 1143, 1104, 1142
1869, 1018,  948, 1010
1870, 1010,  948,  949
1871, 1012, 1011,  950
1872, 1046,  993, 1045
1873, 1012,  950,  951
1874, 1048,  951,  929
1875, 1066, 1015, 1063
1876, 1013,  954,  953
1877, 1173, 1144, 1143
1878, 1014,  957,  954
1879, 1024,  971, 1016
1880, 1015,  959,  957
1881, 1016,  971,  961
1882, 1019,  960,  959
1883, 1093, 1046, 1045
1884, 1017, 1007,  958
1885, 1068, 1061, 1011
1886, 1045,  993,  992
1887, 1109, 1066, 1063
1888, 1024, 1016, 1019
1889, 1020,  970,  965
1890, 1020,  965,  966
1891, 1050,  997,  947
1892, 1021,  970, 1020
1893, 1070,  853,  852
1894, 1035,  907,  977
1895, 1128, 1098, 1072
1896, 1023,  991,  970
1897, 1025,  973, 1024
1898, 1024,  973,  971
1899, 1026,  972, 1025
1900, 1025,  972,  973
1901, 1062, 1013, 1060
1902, 1027,  974, 1026
1903, 1060, 1008, 1058
1904, 1028,  975, 1027
1905, 1074, 1027, 1026
1906, 1029,  976, 1028
1907, 1075, 1028, 1027
1908, 1031,  981, 1029
1909, 1033,  979,  980
1910, 1032,  980,  978
1911, 1034,  982, 1031
1912, 1076, 1029, 1028
1913, 1122, 1080, 1121
1914, 1034, 1032,  978
1915, 1033, 1030,  979
1916, 1033,  980, 1032
1917, 1034,  978,  982
1918, 1077, 1031, 1029
1919, 1084,  977, 1030
1920, 1071, 1022, 1070
1921, 1037,  983,  984
1922, 1037, 1036,  983
1923, 1038,  984,  986
1924, 1108, 1103, 1059
1925, 1043,  986,  987
1926, 1131, 1090, 1088
1927, 1040,  990, 1039
1928, 1039,  990,  991
1929, 1053,  998, 1051
1930, 1041,  985, 1040
1931, 1042,  988, 1041
1932, 1041,  988,  985
1933, 1101, 1052, 1099
1934, 1044,  989, 1042
1935, 1043, 1038,  986
1936, 1044, 1043,  987
1937, 1044,  987,  989
1938, 1186, 1151, 1168
1939, 1064, 1018, 1010
1940, 1094,  992, 1047
1941, 1112, 1068, 1046
1942, 1046,  994,  993
1943, 1047,  992,  933
1944, 1047,  996, 1036
1945, 1048,  930,  994
1946, 1068, 1048,  994
1947, 1113,  967,  969
1948, 1114,  968, 1071
1949, 1055,  997, 1050
1950, 1096, 1001, 1053
1951, 1051,  998,  941
1952, 1097, 1005, 1057
1953, 1052, 1003,  999
1954, 1054,  999, 1002
1955, 1138, 1072, 1098
1956, 1053, 1001,  998
1957, 1056, 1002, 1006
1958, 1156, 1121, 1155
1959, 1128, 1021, 1055
1960, 1055, 1021, 1004
1961, 1095, 1006, 1049
1962, 1081, 1033, 1079
1963, 1141, 1099, 1140
1964, 1057, 1005, 1003
1965, 1059, 1009, 1007
1966, 1059, 1058, 1009
1967, 1065, 1007, 1017
1968, 1125, 1124, 1083
1969, 1154, 1120, 1119
1970, 1060, 1013, 1008
1971, 1064, 1010, 1061
1972, 1061, 1010, 1011
1973, 1082, 1073, 1025
1974, 1062, 1014, 1013
1975, 1082, 1024, 1066
1976, 1063, 1015, 1014
1977, 1067, 1065, 1017
1978, 1067, 1017, 1018
1979, 1124, 1094, 1083
1980, 1065, 1059, 1007
1981, 1066, 1024, 1019
1982, 1066, 1019, 1015
1983, 1112, 1106, 1061
1984, 1111, 1067, 1110
1985, 1068, 1011, 1012
1986, 1068, 1012, 1048
1987, 1069,  837,  121
1988, 1069,  120,  939
1989, 1070,  852,  907
1990, 1070,  907, 1035
1991, 1071,  968, 1022
1992, 1084, 1035,  977
1993, 1072, 1039, 1023
1994, 1138, 1098, 1096
1995, 1074, 1026, 1073
1996, 1073, 1026, 1025
1997, 1105, 1060, 1104
1998, 1075, 1027, 1074
1999, 1104, 1058, 1103
2000, 1076, 1028, 1075
2001, 1119, 1077, 1076
2002, 1077, 1029, 1076
2003, 1118, 1076, 1075
2004, 1078, 1031, 1077
2005, 1102, 1054, 1056
2006, 1078, 1034, 1031
2007, 1102, 1099, 1054
2008, 1080, 1079, 1032
2009, 1080, 1032, 1034
2010, 1121, 1078, 1120
2011, 1198, 1170, 1162
2012, 1081, 1030, 1033
2013, 1082, 1025, 1024
2014, 1109, 1063, 1107
2015, 1085, 1036, 1037
2016, 1086, 1037, 1038
2017, 1126, 1030, 1081
2018, 1204, 1180, 1114
2019, 1086, 1085, 1037
2020, 1159, 1158, 1125
2021, 1089, 1038, 1043
2022, 1130, 1127, 1086
2023, 1088, 1040, 1087
2024, 1087, 1040, 1039
2025, 1100, 1051, 1097
2026, 1090, 1041, 1088
2027, 1092, 1043, 1044
2028, 1166, 1132, 1163
2029, 1091, 1042, 1090
2030, 1090, 1042, 1041
2031, 1201, 1192, 1186
2032, 1091, 1044, 1042
2033, 1092, 1089, 1043
2034, 1092, 1044, 1091
2035, 1147, 1106, 1093
2036, 1135, 1045, 1094
2037, 1094, 1045,  992
2038, 1094, 1047, 1083
2039, 1095, 1056, 1006
2040, 1150, 1049, 1113
2041, 1096, 1050, 1001
2042, 1137, 1053, 1100
2043, 1097, 1051, 1005
2044, 1139, 1057, 1101
2045, 1128, 1072, 1023
2046, 1098, 1050, 1096
2047, 1179, 1152, 1117
2048, 1099, 1052, 1054
2049, 1151, 1115, 1138
2050, 1100, 1053, 1051
2051, 1134, 1091, 1132
2052, 1101, 1057, 1052
2053, 1136, 1056, 1095
2054, 1123, 1079, 1122
2055, 1103, 1058, 1059
2056, 1108, 1059, 1065
2057, 1203, 1173, 1172
2058, 1104, 1060, 1058
2059, 1116, 1073, 1109
2060, 1105, 1062, 1060
2061, 1110, 1064, 1106
2062, 1106, 1064, 1061
2063, 1181, 1109, 1107
2064, 1107, 1063, 1062
2065, 1111, 1065, 1067
2066, 1177, 1176, 1148
2067, 1109, 1073, 1082
2068, 1109, 1082, 1066
2069, 1147, 1093, 1135
2070, 1190, 1124, 1158
2071, 1149, 1148, 1111
2072, 1111, 1108, 1065
2073, 1112, 1061, 1068
2074, 1112, 1046, 1093
2075, 1113, 1049,  967
2076, 1114,  969,  968
2077, 1204, 1084, 1162
2078, 1150, 1113, 1114
2079, 1115, 1087, 1072
2080, 1151, 1138, 1137
2081, 1117, 1074, 1116
2082, 1116, 1074, 1073
2083, 1118, 1075, 1117
2084, 1117, 1075, 1074
2085, 1142, 1104, 1103
2086, 1119, 1076, 1118
2087, 1172, 1143, 1142
2088, 1120, 1077, 1119
2089, 1222, 1184, 1152
2090, 1120, 1078, 1077
2091, 1169, 1102, 1136
2092, 1121, 1080, 1078
2093, 1157, 1122, 1156
2094, 1122, 1079, 1080
2095, 1241, 1199, 1221
2096, 1123, 1081, 1079
2097, 1125, 1083, 1085
2098, 1127, 1085, 1086
2099, 1127, 1125, 1085
2100, 1158, 1124, 1125
2101, 1126, 1084, 1030
2102, 1165, 1081, 1123
2103, 1130, 1086, 1089
2104, 1176, 1174, 1145
2105, 1128, 1023, 1021
2106, 1128, 1055, 1098
2107, 1131, 1088, 1129
2108, 1129, 1088, 1087
2109, 1133, 1089, 1092
2110, 1164, 1161, 1130
2111, 1146, 1097, 1139
2112, 1132, 1090, 1131
2113, 1188, 1155, 1187
2114, 1132, 1091, 1090
2115, 1133, 1130, 1089
2116, 1134, 1133, 1092
2117, 1134, 1092, 1091
2118, 1243, 1242, 1235
2119, 1135, 1093, 1045
2120, 1135, 1094, 1124
2121, 1136, 1102, 1056
2122, 1170, 1095, 1150
2123, 1137, 1096, 1053
2124, 1168, 1100, 1146
2125, 1138, 1115, 1072
2126, 1138, 1096, 1137
2127, 1139, 1097, 1057
2128, 1171, 1101, 1141
2129, 1174, 1172, 1142
2130, 1140, 1099, 1102
2131, 1208, 1171, 1202
2132, 1141, 1101, 1099
2133, 1153, 1119, 1118
2134, 1145, 1103, 1108
2135, 1181, 1179, 1116
2136, 1143, 1105, 1104
2137, 1181, 1144, 1179
2138, 1144, 1107, 1105
2139, 1148, 1108, 1111
2140, 1207, 1206, 1176
2141, 1160, 1129, 1151
2142, 1146, 1100, 1097
2143, 1190, 1147, 1135
2144, 1147, 1110, 1106
2145, 1148, 1145, 1108
2146, 1149, 1111, 1110
2147, 1149, 1110, 1147
2148, 1190, 1182, 1147
2149, 1180, 1162, 1170
2150, 1150, 1095, 1049
2151, 1151, 1129, 1115
2152, 1168, 1151, 1137
2153, 1153, 1118, 1152
2154, 1152, 1118, 1117
2155, 1185, 1154, 1153
2156, 1154, 1119, 1153
2157, 1205, 1203, 1172
2158, 1155, 1120, 1154
2159, 1241, 1221, 1225
2160, 1155, 1121, 1120
2161, 1189, 1156, 1188
2162, 1156, 1122, 1121
2163, 1210, 1200, 1169
2164, 1157, 1123, 1122
2165, 1159, 1125, 1127
2166, 1161, 1127, 1130
2167, 1161, 1159, 1127
2168, 1195, 1193, 1161
2169, 1163, 1131, 1160
2170, 1160, 1131, 1129
2171, 1164, 1130, 1133
2172, 1242, 1239, 1234
2173, 1162, 1084, 1126
2174, 1198, 1183, 1170
2175, 1163, 1132, 1131
2176, 1229, 1202, 1224
2177, 1167, 1133, 1134
2178, 1196, 1195, 1164
2179, 1165, 1126, 1081
2180, 1199, 1123, 1157
2181, 1166, 1134, 1132
2182, 1194, 1163, 1192
2183, 1167, 1164, 1133
2184, 1167, 1134, 1166
2185, 1168, 1137, 1100
2186, 1201, 1146, 1178
2187, 1169, 1140, 1102
2188, 1183, 1169, 1136
2189, 1170, 1136, 1095
2190, 1180, 1170, 1150
2191, 1171, 1139, 1101
2192, 1202, 1141, 1175
2193, 1174, 1142, 1145
2194, 1211, 1203, 1205
2195, 1222, 1179, 1173
2196, 1173, 1143, 1172
2197, 1176, 1145, 1148
2198, 1206, 1205, 1174
2199, 1211, 1184, 1203
2200, 1175, 1141, 1140
2201, 1177, 1148, 1149
2202, 1223, 1182, 1190
2203, 1182, 1177, 1149
2204, 1191, 1158, 1159
2205, 1192, 1160, 1186
2206, 1178, 1146, 1139
2207, 1179, 1117, 1116
2208, 1179, 1144, 1173
2209, 1180, 1150, 1114
2210, 1204, 1114, 1071
2211, 1181, 1116, 1109
2212, 1181, 1107, 1144
2213, 1182, 1149, 1147
2214, 1223, 1191, 1209
2215, 1210, 1165, 1199
2216, 1183, 1136, 1170
2217, 1185, 1153, 1184
2218, 1184, 1153, 1152
2219, 1212, 1185, 1211
2220, 1187, 1154, 1185
2221, 1186, 1160, 1151
2222, 1201, 1168, 1146
2223, 1213, 1187, 1212
2224, 1187, 1155, 1154
2225, 1214, 1188, 1213
2226, 1188, 1156, 1155
2227, 1241, 1225, 1200
2228, 1189, 1157, 1156
2229, 1190, 1135, 1124
2230, 1223, 1209, 1182
2231, 1193, 1159, 1161
2232, 1193, 1191, 1159
2233, 1246, 1216, 1192
2234, 1192, 1163, 1160
2235, 1195, 1161, 1164
2236, 1230, 1211, 1205
2237, 1197, 1166, 1194
2238, 1194, 1166, 1163
2239, 1196, 1164, 1167
2240, 1242, 1234, 1235
2241, 1197, 1196, 1167
2242, 1247, 1245, 1240
2243, 1197, 1167, 1166
2244, 1218, 1194, 1216
2245, 1198, 1126, 1165
2246, 1210, 1198, 1165
2247, 1199, 1165, 1123
2248, 1221, 1157, 1189
2249, 1200, 1175, 1140
2250, 1200, 1140, 1169
2251, 1201, 1186, 1168
2252, 1246, 1208, 1233
2253, 1202, 1171, 1141
2254, 1247, 1225, 1238
2255, 1222, 1203, 1184
2256, 1205, 1172, 1174
2257, 1204, 1071, 1035
2258, 1204, 1162, 1180
2259, 1206, 1174, 1176
2260, 1234, 1215, 1217
2261, 1207, 1176, 1177
2262, 1234, 1228, 1226
2263, 1209, 1207, 1177
2264, 1215, 1191, 1193
2265, 1233, 1208, 1229
2266, 1208, 1178, 1171
2267, 1209, 1177, 1182
2268, 1226, 1191, 1215
2269, 1210, 1169, 1183
2270, 1210, 1183, 1198
2271, 1211, 1185, 1184
2272, 1227, 1205, 1206
2273, 1217, 1215, 1193
2274, 1212, 1187, 1185
2275, 1219, 1217, 1195
2276, 1213, 1188, 1187
2277, 1243, 1232, 1242
2278, 1214, 1189, 1188
2279, 1228, 1207, 1226
2280, 1217, 1193, 1195
2281, 1216, 1194, 1192
2282, 1246, 1192, 1201
2283, 1219, 1195, 1196
2284, 1231, 1212, 1230
2285, 1220, 1197, 1218
2286, 1218, 1197, 1194
2287, 1220, 1219, 1196
2288, 1232, 1213, 1231
2289, 1220, 1196, 1197
2290, 1236, 1218, 1233
2291, 1221, 1199, 1157
2292, 1238, 1189, 1214
2293, 1222, 1173, 1203
2294, 1222, 1152, 1179
2295, 1223, 1190, 1158
2296, 1223, 1158, 1191
2297, 1224, 1202, 1175
2298, 1225, 1224, 1175
2299, 1225, 1175, 1200
2300, 1238, 1225, 1221
2301, 1226, 1207, 1209
2302, 1226, 1209, 1191
2303, 1230, 1205, 1227
2304, 1228, 1227, 1206
2305, 1228, 1206, 1207
2306, 1234, 1226, 1215
2307, 1236, 1233, 1229
2308, 1229, 1208, 1202
2309, 1239, 1231, 1230
2310, 1230, 1212, 1211
2311, 1235, 1234, 1217
2312, 1231, 1213, 1212
2313, 1244, 1236, 1240
2314, 1232, 1214, 1213
2315, 1233, 1218, 1216
2316, 1246, 1233, 1216
2317, 1239, 1228, 1234
2318, 1235, 1217, 1219
2319, 1237, 1219, 1220
2320, 1243, 1235, 1237
2321, 1236, 1220, 1218
2322, 1240, 1236, 1229
2323, 1237, 1235, 1219
2324, 1237, 1220, 1236
2325, 1238, 1221, 1189
2326, 1245, 1214, 1232
2327, 1239, 1230, 1227
2328, 1239, 1227, 1228
2329, 1240, 1229, 1224
2330, 1247, 1240, 1224
2331, 1241, 1200, 1210
2332, 1241, 1210, 1199
2333, 1242, 1232, 1231
2334, 1242, 1231, 1239
2335, 1244, 1243, 1237
2336, 1245, 1243, 1244
2337, 1244, 1237, 1236
2338, 1245, 1244, 1240
2339, 1245, 1238, 1214
2340, 1245, 1232, 1243
2341, 1246, 1201, 1178
2342, 1246, 1178, 1208
2343, 1247, 1224, 1225
2344, 1247, 1238, 1245
*Orientation, name=Ori-1
1., 0., 0., 0., 1., 0.
3, 0.
** Region: (CompositeLayup-1-1: Generated From Layup)
*Elset, elset=CompositeLayup-1-1, generate
    1,  2344,     1
** Section: CompositeLayup-1-1
*Shell Section, elset=CompositeLayup-1-1, composite, orientation=Ori-1, layup=CompositeLayup-1
0.25, 1, ABQ_PLY_FABRIC, 45., Ply-1
0.25, 1, ABQ_PLY_FABRIC, -45., Ply-2
0.25, 1, ABQ_PLY_FABRIC, -45., Ply-3
0.25, 1, ABQ_PLY_FABRIC, 45., Ply-4
*End Part
**  
**
** ASSEMBLY
**
*Assembly, name=Assembly
**  
*Instance, name=Plate-1, part=PLATE
*End Instance
**  
*Nset, nset=Set-1, instance=Plate-1
   6,   7,  12,  74,  75,  76,  77,  78,  79,  80,  81,  82,  83, 160, 161, 162
 163, 164, 165, 166, 167, 168, 169, 170, 171, 172, 173, 174, 175, 176, 177, 178
*Elset, elset=Set-1, instance=Plate-1
  301,  302,  322,  326,  397,  400,  402,  404,  406,  527,  529, 1371, 1389, 1407, 1469, 1471
 1491, 1494, 1496, 1498, 1500, 1502, 1508, 1510, 1512, 1514, 1516, 1518, 1520, 1522, 1634
*Nset, nset=Set-2, instance=Plate-1
   4,   5,  11,  32,  33,  34,  35,  36,  37,  38,  39,  40,  41, 133, 134, 135
 136, 137, 138, 139, 140, 141, 142, 143, 144, 145, 146, 147, 148, 149, 150, 151
*Elset, elset=Set-2, instance=Plate-1
  15,  23,  26,  32,  76,  79,  81,  83,  85,  87, 140, 855, 866, 884, 952, 955
 956, 959, 961, 963, 965, 967, 969, 971, 973, 975, 977, 979, 981, 983, 985
*End Assembly
*Amplitude, name=Ramp, time=TOTAL TIME
             0.,              0.,            0.01,              1.
** 
** MATERIALS
** 
*Material, name=ABQ_PLY_FABRIC
*Density
 1.594e-09,
*Depvar, delete=16
     16,
*User Material, constants=40
27500., 27500.,   0.11,  2900., 27500., 27500.,   0.11,     0.
   604.,   291.,   604.,   291.,    75.,     0.,     0.,     0.
 20.438, 4.6257, 20.438, 4.6257, 0.3221,     1.,     0.,     0.
    75., 0.0008,  0.552,     0.,     0.,     0.,     0.,     0.
     0.,     1.,  1e+09,  1e+09, -1e+09,     0.,     0.,     0.
** ----------------------------------------------------------------
** 
** STEP: Step-1
** 
*Step, name=Step-1, nlgeom=NO
*Dynamic, Explicit
, 0.01
*Bulk Viscosity
0.06, 1.2
** 
** BOUNDARY CONDITIONS
** 
** Name: BC-1 Type: Symmetry/Antisymmetry/Encastre
*Boundary
Set-1, ENCASTRE
** Name: BC-2 Type: Displacement/Rotation
*Boundary, amplitude=Ramp
Set-2, 1, 1, 2.68421
** 
** OUTPUT REQUESTS
** 
*Restart, write, number interval=1, time marks=NO
** 
** FIELD OUTPUT: F-Output-1
** 
*Output, field, number interval=1
*Element Output, position=NODES, directions=YES
LE, PEEQ, SDV
** 
** HISTORY OUTPUT: H-Output-1
** 
*Output, history, variable=PRESELECT
*End Step
