*Heading
** Job name: Plate_nonlinear_13 Model name: Model-1
** Generated by: Abaqus/CAE 2024.HF3
*Preprint, echo=NO, model=NO, history=NO, contact=NO
**
** PARTS
**
*Part, name=PLATE
*Node
      1,   49.4958458,   118.874634,           0.
      2,   49.4958458,   46.4386215,           0.
      3,   60.2720757,   35.6623878,           0.
      4,   164.986145,   35.6623878,           0.
      5,   164.986145,   118.874634,           0.
      6,           0.,   118.874634,           0.
      7,           0.,   35.6623878,           0.
      8,   38.7196121,   35.6623878,           0.
      9,   49.4958458,    24.886158,           0.
     10,   49.4958458,           0.,           0.
     11,   164.986145,           0.,           0.
     12,           0.,           0.,           0.
     13,   49.4958458,   114.613693,           0.
     14,   49.4958458,   110.352745,           0.
     15,   49.4958458,   106.091805,           0.
     16,   49.4958458,   101.830864,           0.
     17,   49.4958458,   97.5699234,           0.
     18,   49.4958458,   93.3089828,           0.
     19,   49.4958458,   89.0480423,           0.
     20,   49.4958458,   84.7870941,           0.
     21,   49.4958458,   80.5261536,           0.
     22,   49.4958458,    76.265213,           0.
     23,   49.4958458,   72.0042725,           0.
     24,   49.4958458,   67.7433319,           0.
     25,   49.4958458,   63.4823875,           0.
     26,   49.4958458,    59.221447,           0.
     27,   49.4958458,   54.9605026,           0.
     28,   49.4958458,   50.6995621,           0.
     29,   53.6197281,   45.6183281,           0.
     30,   57.1157913,   43.2823372,           0.
     31,   59.4517822,    39.786274,           0.
     32,   64.6351624,   35.6623878,           0.
     33,   68.9982452,   35.6623878,           0.
     34,   73.3613358,   35.6623878,           0.
     35,   77.7244186,   35.6623878,           0.
     36,   82.0875092,   35.6623878,           0.
     37,    86.450592,   35.6623878,           0.
     38,   90.8136826,   35.6623878,           0.
     39,   95.1767654,   35.6623878,           0.
     40,    99.539856,   35.6623878,           0.
     41,   103.902939,   35.6623878,           0.
     42,   108.266029,   35.6623878,           0.
     43,   112.629112,   35.6623878,           0.
     44,   116.992195,   35.6623878,           0.
     45,   121.355286,   35.6623878,           0.
     46,   125.718369,   35.6623878,           0.
     47,   130.081451,   35.6623878,           0.
     48,    134.44455,   35.6623878,           0.
     49,   138.807632,   35.6623878,           0.
     50,   143.170715,   35.6623878,           0.
     51,   147.533798,   35.6623878,           0.
     52,   151.896896,   35.6623878,           0.
     53,   156.259979,   35.6623878,           0.
     54,   160.623062,   35.6623878,           0.
     55,   164.986145,   40.0419807,           0.
     56,   164.986145,   44.4215736,           0.
     57,   164.986145,   48.8011627,           0.
     58,   164.986145,   53.1807556,           0.
     59,   164.986145,   57.5603485,           0.
     60,   164.986145,   61.9399414,           0.
     61,   164.986145,   66.3195343,           0.
     62,   164.986145,   70.6991196,           0.
     63,   164.986145,   75.0787125,           0.
     64,   164.986145,   79.4583054,           0.
     65,   164.986145,   83.8378983,           0.
     66,   164.986145,   88.2174911,           0.
     67,   164.986145,    92.597084,           0.
     68,   164.986145,   96.9766693,           0.
     69,   164.986145,   101.356262,           0.
     70,   164.986145,   105.735855,           0.
     71,   164.986145,   110.115448,           0.
     72,   164.986145,   114.495041,           0.
     73,    160.54422,   118.874634,           0.
     74,    156.10228,   118.874634,           0.
     75,   151.660339,   118.874634,           0.
     76,   147.218414,   118.874634,           0.
     77,   142.776474,   118.874634,           0.
     78,   138.334534,   118.874634,           0.
     79,   133.892609,   118.874634,           0.
     80,   129.450668,   118.874634,           0.
     81,   125.008736,   118.874634,           0.
     82,   120.566803,   118.874634,           0.
     83,   116.124863,   118.874634,           0.
     84,    111.68293,   118.874634,           0.
     85,   107.240997,   118.874634,           0.
     86,   102.799065,   118.874634,           0.
     87,   98.3571243,   118.874634,           0.
     88,   93.9151917,   118.874634,           0.
     89,    89.473259,   118.874634,           0.
     90,   85.0313263,   118.874634,           0.
     91,    80.589386,   118.874634,           0.
     92,   76.1474533,   118.874634,           0.
     93,   71.7055206,   118.874634,           0.
     94,   67.2635803,   118.874634,           0.
     95,   62.8216476,   118.874634,           0.
     96,    58.379715,   118.874634,           0.
     97,   53.9377785,   118.874634,           0.
     98,   44.9962234,   118.874634,           0.
     99,   40.4966011,   118.874634,           0.
    100,   35.9969788,   118.874634,           0.
    101,   31.4973564,   118.874634,           0.
    102,   26.9977341,   118.874634,           0.
    103,   22.4981117,   118.874634,           0.
    104,   17.9984894,   118.874634,           0.
    105,    13.498867,   118.874634,           0.
    106,   8.99924469,   118.874634,           0.
    107,   4.49962234,   118.874634,           0.
    108,           0.,   114.495041,           0.
    109,           0.,   110.115448,           0.
    110,           0.,   105.735855,           0.
    111,           0.,   101.356262,           0.
    112,           0.,   96.9766693,           0.
    113,           0.,    92.597084,           0.
    114,           0.,   88.2174911,           0.
    115,           0.,   83.8378983,           0.
    116,           0.,   79.4583054,           0.
    117,           0.,   75.0787125,           0.
    118,           0.,   70.6991196,           0.
    119,           0.,   66.3195343,           0.
    120,           0.,   61.9399414,           0.
    121,           0.,   57.5603485,           0.
    122,           0.,   53.1807556,           0.
    123,           0.,   48.8011627,           0.
    124,           0.,   44.4215736,           0.
    125,           0.,   40.0419807,           0.
    126,   4.30217934,   35.6623878,           0.
    127,   8.60435867,   35.6623878,           0.
    128,    12.906538,   35.6623878,           0.
    129,   17.2087173,   35.6623878,           0.
    130,   21.5108967,   35.6623878,           0.
    131,    25.813076,   35.6623878,           0.
    132,   30.1152554,   35.6623878,           0.
    133,   34.4174347,   35.6623878,           0.
    134,   39.5399055,    39.786274,           0.
    135,   41.8759003,   43.2823372,           0.
    136,   45.3719597,   45.6183281,           0.
    137,   49.4958458,   20.7384663,           0.
    138,   49.4958458,   16.5907726,           0.
    139,   49.4958458,    12.443079,           0.
    140,   49.4958458,   8.29538631,           0.
    141,   49.4958458,   4.14769316,           0.
    142,   53.9377785,           0.,           0.
    143,    58.379715,           0.,           0.
    144,   62.8216476,           0.,           0.
    145,   67.2635803,           0.,           0.
    146,   71.7055206,           0.,           0.
    147,   76.1474533,           0.,           0.
    148,    80.589386,           0.,           0.
    149,   85.0313263,           0.,           0.
    150,    89.473259,           0.,           0.
    151,   93.9151917,           0.,           0.
    152,   98.3571243,           0.,           0.
    153,   102.799065,           0.,           0.
    154,   107.240997,           0.,           0.
    155,    111.68293,           0.,           0.
    156,   116.124863,           0.,           0.
    157,   120.566803,           0.,           0.
    158,   125.008736,           0.,           0.
    159,   129.450668,           0.,           0.
    160,   133.892609,           0.,           0.
    161,   138.334534,           0.,           0.
    162,   142.776474,           0.,           0.
    163,   147.218414,           0.,           0.
    164,   151.660339,           0.,           0.
    165,    156.10228,           0.,           0.
    166,    160.54422,           0.,           0.
    167,   164.986145,   4.45779848,           0.
    168,   164.986145,   8.91559696,           0.
    169,   164.986145,   13.3733959,           0.
    170,   164.986145,   17.8311939,           0.
    171,   164.986145,   22.2889938,           0.
    172,   164.986145,   26.7467918,           0.
    173,   164.986145,   31.2045898,           0.
    174,   59.4517822,   31.5385036,           0.
    175,   57.1157913,   28.0424442,           0.
    176,   53.6197281,   25.7064495,           0.
    177,   45.3719597,   25.7064495,           0.
    178,   41.8759003,   28.0424442,           0.
    179,   39.5399055,   31.5385036,           0.
    180,           0.,   31.2045898,           0.
    181,           0.,   26.7467918,           0.
    182,           0.,   22.2889938,           0.
    183,           0.,   17.8311939,           0.
    184,           0.,   13.3733959,           0.
    185,           0.,   8.91559696,           0.
    186,           0.,   4.45779848,           0.
    187,   4.49962234,           0.,           0.
    188,   8.99924469,           0.,           0.
    189,    13.498867,           0.,           0.
    190,   17.9984894,           0.,           0.
    191,   22.4981117,           0.,           0.
    192,   26.9977341,           0.,           0.
    193,   31.4973564,           0.,           0.
    194,   35.9969788,           0.,           0.
    195,   40.4966011,           0.,           0.
    196,   44.9962234,           0.,           0.
    197,   110.447586,   39.4428444,           0.
    198,   53.4880333,   113.124977,           0.
    199,   53.1944046,   82.6588364,           0.
    200,   53.1934433,   78.3967285,           0.
    201,   53.1930275,   74.1348495,           0.
    202,   53.1923256,   69.8736572,           0.
    203,    53.190712,   65.6122971,           0.
    204,   53.1881599,   61.3511047,           0.
    205,   57.0886116,   47.0600586,           0.
    206,   53.1367188,    57.127285,           0.
    207,   53.1617661,   52.9576683,           0.
    208,   53.2972412,    48.955883,           0.
    209,   60.9006653,   44.2768517,           0.
    210,   123.537315,   39.4424019,           0.
    211,   119.174034,   39.4426422,           0.
    212,   114.810738,   39.4429207,           0.
    213,   106.084442,   39.4427834,           0.
    214,   101.721191,   39.4420738,           0.
    215,   97.3579407,   39.4407768,           0.
    216,   92.9948502,    39.439167,           0.
    217,   88.6317596,   39.4373627,           0.
    218,   84.2685699,   39.4353447,           0.
    219,   79.9053268,   39.4329414,           0.
    220,   75.5478821,   39.4369583,           0.
    221,   71.2653656,   39.5299416,           0.
    222,   67.0521011,    39.661232,           0.
    223,   161.191193,   81.6484451,           0.
    224,    161.19191,   77.2686005,           0.
    225,   161.192688,   72.8888092,           0.
    226,    161.19342,   68.5092163,           0.
    227,   161.193878,   64.1294098,           0.
    228,   161.193527,   59.7484474,           0.
    229,   161.189026,   55.3608551,           0.
    230,   161.121735,   50.8717117,           0.
    231,   160.988937,   46.2509613,           0.
    232,   160.986771,   41.4833641,           0.
    233,   87.2532196,   115.033218,           0.
    234,   91.6946411,   115.032158,           0.
    235,   96.1361389,   115.031342,           0.
    236,   100.578033,   115.030594,           0.
    237,   105.019997,   115.030235,           0.
    238,   109.461945,   115.030151,           0.
    239,   113.903908,   115.030205,           0.
    240,   118.345871,   115.030273,           0.
    241,   122.787834,   115.030449,           0.
    242,   127.229797,   115.030922,           0.
    243,   131.671799,   115.031487,           0.
    244,   136.113815,   115.032181,           0.
    245,   140.555771,   115.033119,           0.
    246,   145.006195,   115.029686,           0.
    247,   149.565048,   114.964256,           0.
    248,   154.259491,   114.835312,           0.
    249,   159.095657,   114.843269,           0.
    250,   62.9328461,   39.7936783,           0.
    251,   56.8960876,   76.2668381,           0.
    252,   56.8916855,   67.7414474,           0.
    253,   53.1983948,   91.1824951,           0.
    254,     53.19701,   86.9211044,           0.
    255,   56.8453102,   59.2462196,           0.
    256,   56.8644447,   55.0975113,           0.
    257,   56.8814583,   63.4852524,           0.
    258,   56.8993607,   80.5301895,           0.
    259,   56.8954086,   72.0036392,           0.
    260,   127.900345,   39.4423904,           0.
    261,   136.626129,   39.4422417,           0.
    262,   103.902168,   43.2235222,           0.
    263,   90.8117294,   43.2126045,           0.
    264,   77.7336273,   43.2067337,           0.
    265,   116.992966,   43.2246132,           0.
    266,   82.0866165,   43.2032585,           0.
    267,   69.2814331,   43.4016037,           0.
    268,   112.629379,   43.2251778,           0.
    269,   132.263214,   39.4424019,           0.
    270,   86.4484634,   43.2074318,           0.
    271,   108.265823,   43.2249985,           0.
    272,   95.1746979,   43.2169991,           0.
    273,   99.5381241,   43.2209053,           0.
    274,   73.4606094,   43.2626038,           0.
    275,   140.989258,   39.4423866,           0.
    276,   145.358887,    39.499939,           0.
    277,   154.020447,   39.4632187,           0.
    278,   157.707703,   39.1533051,           0.
    279,   121.356613,   43.2243309,           0.
    280,   161.190109,   86.0279846,           0.
    281,   157.258102,   48.5966454,           0.
    282,   157.401306,   66.3186493,           0.
    283,   157.399628,   70.6982651,           0.
    284,   161.188538,   94.7867279,           0.
    285,   161.188965,   90.4073486,           0.
    286,   157.397629,   75.0782318,           0.
    287,   157.359497,   53.1126366,           0.
    288,   161.190811,   99.1633606,           0.
    289,    161.21022,   107.840424,           0.
    290,   161.471725,   111.548332,           0.
    291,   157.394012,   57.5443878,           0.
    292,   157.400742,   61.9358559,           0.
    293,   161.194107,   103.521538,           0.
    294,   157.395294,   79.4582291,           0.
    295,   82.8113174,   115.036057,           0.
    296,   89.4739075,   111.194565,           0.
    297,   102.798767,   111.188194,           0.
    298,   151.966599,   111.060196,           0.
    299,   142.789444,   111.190193,           0.
    300,   138.338028,     111.1931,           0.
    301,   133.893951,   111.191978,           0.
    302,   65.0205994,   115.059471,           0.
    303,   73.9299316,   115.039001,           0.
    304,   78.3705368,   115.038467,           0.
    305,   98.3565063,   111.189812,           0.
    306,   120.567078,   111.188248,           0.
    307,   93.9150848,   111.192139,           0.
    308,   107.240868,   111.187897,           0.
    309,    111.68293,   111.187805,           0.
    310,   116.125023,    111.18821,           0.
    311,   125.009171,    111.18927,           0.
    312,   129.451431,   111.190727,           0.
    313,   147.359146,   111.156258,           0.
    314,   56.9327774,   51.0483627,           0.
    315,   60.6958427,   48.9310684,           0.
    316,   156.670486,   43.6188431,           0.
    317,    60.608242,   52.9997749,           0.
    318,   157.030197,   110.488373,           0.
    319,   65.2205963,   43.5770302,           0.
    320,   56.9078445,   89.0551987,           0.
    321,    53.196125,   99.6948547,           0.
    322,   53.2016869,    95.440918,           0.
    323,   53.2354889,   103.983582,           0.
    324,   60.6051407,   69.8676224,           0.
    325,   60.6065826,    74.135582,           0.
    326,   60.6106644,   78.4007416,           0.
    327,   60.6048889,   57.0241013,           0.
    328,    60.617588,   65.5900345,           0.
    329,   60.7235756,   61.2253075,           0.
    330,   56.9040451,   84.7934036,           0.
    331,   130.082199,   43.2234802,           0.
    332,   149.710495,   39.5574493,           0.
    333,   138.807938,   43.2234077,           0.
    334,   134.444855,   43.2236481,           0.
    335,   106.082916,   47.0077896,           0.
    336,   143.160934,   43.3589134,           0.
    337,   110.447411,   47.0094261,           0.
    338,   119.176125,   47.0084686,           0.
    339,   114.811989,   47.0095558,           0.
    340,   101.717728,   47.0041924,           0.
    341,   84.2624664,   46.9718399,           0.
    342,   88.6256638,   46.9815865,           0.
    343,   92.9890671,   46.9905167,           0.
    344,   97.3528366,   46.9982529,           0.
    345,   79.9093628,   46.9663239,           0.
    346,   71.4090347,   47.0590935,           0.
    347,   75.6162109,   46.9880981,           0.
    348,   125.719627,   43.2240829,           0.
    349,   157.390549,   88.2172775,           0.
    350,    157.23996,    101.32341,           0.
    351,    157.38559,    92.592598,           0.
    352,    157.34549,   96.9434967,           0.
    353,    157.20787,   105.725456,           0.
    354,   153.620804,   55.3466415,           0.
    355,   153.609634,   64.1265945,           0.
    356,   153.611481,   59.7408218,           0.
    357,   153.607056,   68.5067444,           0.
    358,   153.641296,   50.8637581,           0.
    359,   153.603607,   72.8868103,           0.
    360,   153.599442,   77.2667694,           0.
    361,   157.392578,   83.8377533,           0.
    362,   85.0317688,    111.20047,           0.
    363,   60.5823174,   115.080841,           0.
    364,   69.4789658,   115.045128,           0.
    365,   56.8252068,   115.386757,           0.
    366,   76.1525803,    111.20974,           0.
    367,   113.904152,   107.348015,           0.
    368,   109.461838,   107.348137,           0.
    369,   105.019333,   107.348877,           0.
    370,   127.231186,   107.351486,           0.
    371,   118.346489,   107.349045,           0.
    372,   100.576508,   107.350655,           0.
    373,   122.788864,    107.35038,           0.
    374,    131.67395,   107.354355,           0.
    375,   96.1351929,   107.353363,           0.
    376,   136.117508,   107.357506,           0.
    377,   145.148788,   107.374176,           0.
    378,   140.586868,   107.362152,           0.
    379,   91.6933365,   107.358498,           0.
    380,   149.771179,   107.407234,           0.
    381,   80.5917206,   111.206558,           0.
    382,   64.6913528,    50.920681,           0.
    383,   57.7647514,   111.001839,           0.
    384,   67.2985687,   47.1348457,           0.
    385,   60.6242561,   86.9264069,           0.
    386,   56.8989754,   97.5563812,           0.
    387,   64.8359222,   58.7514801,           0.
    388,   64.3283081,   76.2695923,           0.
    389,   64.3271027,   71.9986801,           0.
    390,   56.9110298,   101.820152,           0.
    391,   53.4072952,    108.43502,           0.
    392,   64.3677902,   63.4592972,           0.
    393,   56.9132729,   93.3105392,           0.
    394,   64.3272476,   67.7385178,           0.
    395,   60.6176491,   82.6646423,           0.
    396,   127.901711,   47.0068436,           0.
    397,   73.5142136,   50.7402649,           0.
    398,   132.263824,   47.0066109,           0.
    399,   95.1646652,   50.7733765,           0.
    400,   86.4355011,   50.7453461,           0.
    401,   90.7994232,   50.7603493,           0.
    402,   136.626755,   47.0064316,           0.
    403,   140.958466,   47.1270828,           0.
    404,    116.99585,   50.7956924,           0.
    405,   108.263954,   50.7951279,           0.
    406,    112.63031,   50.7965546,           0.
    407,   151.935028,   43.5244446,           0.
    408,   103.896973,   50.7910423,           0.
    409,   99.5299377,   50.7837029,           0.
    410,   147.541214,   43.5666809,           0.
    411,   77.7625656,    50.726326,           0.
    412,   82.0825119,    50.731617,           0.
    413,   123.539375,   47.0080185,           0.
    414,   153.589157,   86.0262833,           0.
    415,   153.574478,    90.404007,           0.
    416,   149.804245,   75.0737228,           0.
    417,   149.810287,   70.6939087,           0.
    418,    149.81546,   66.3142471,           0.
    419,   149.770813,   57.4804306,           0.
    420,   152.685135,   103.622231,           0.
    421,   153.356186,   99.0268097,           0.
    422,    153.50032,   94.7505417,           0.
    423,   149.810974,    61.921299,           0.
    424,   149.862671,   52.9288063,           0.
    425,   153.594391,   81.6462555,           0.
    426,   153.732193,   107.660698,           0.
    427,   71.7032394,   111.216408,           0.
    428,   87.2499619,    107.36747,           0.
    429,   62.5911942,   111.119316,           0.
    430,   125.011421,   103.515366,           0.
    431,   142.973282,   103.480659,           0.
    432,   111.683052,   103.511292,           0.
    433,   107.239998,   103.512108,           0.
    434,   120.568687,   103.513847,           0.
    435,   102.796432,   103.514221,           0.
    436,   138.393936,   103.506699,           0.
    437,     116.1259,   103.512756,           0.
    438,   129.454666,   103.518936,           0.
    439,   98.3548203,   103.517464,           0.
    440,   133.909515,   103.518372,           0.
    441,   147.633804,   103.629997,           0.
    442,   93.9119263,   103.524162,           0.
    443,   78.3716049,   107.386024,           0.
    444,   82.8095856,   107.378029,           0.
    445,    67.128891,   111.081718,           0.
    446,   69.2625656,     50.82024,           0.
    447,   64.3470001,   84.7962341,           0.
    448,    60.661026,   95.4358978,           0.
    449,   60.7076874,   99.7177429,           0.
    450,   68.0547638,   74.1343842,           0.
    451,   67.6389236,    61.793396,           0.
    452,   68.0384216,   69.8555603,           0.
    453,   67.9520798,   65.5256042,           0.
    454,   57.0601349,   106.153374,           0.
    455,   60.6398849,   91.1813354,           0.
    456,   63.6011658,   54.8606224,           0.
    457,   64.3377533,   80.5347366,           0.
    458,    125.72187,   50.7930107,           0.
    459,    130.08342,   50.7921944,           0.
    460,   134.435837,    50.829628,           0.
    461,   92.9713745,   54.5450439,           0.
    462,   88.6039352,   54.5247307,           0.
    463,   138.755112,   50.9398003,           0.
    464,   110.447044,    54.585041,           0.
    465,   114.814896,   54.5856171,           0.
    466,   97.3383484,   54.5612221,           0.
    467,    84.240303,   54.5018425,           0.
    468,   106.077065,   54.5812759,           0.
    469,   145.217194,   47.3291626,           0.
    470,   101.706985,   54.5732613,           0.
    471,   75.6315536,   54.4968605,           0.
    472,   121.359573,    50.794796,           0.
    473,   79.9084778,   54.4867821,           0.
    474,   149.824692,   48.0024185,           0.
    475,   153.865921,   46.9212227,           0.
    476,   149.787399,   83.8315964,           0.
    477,   146.018356,    68.499939,           0.
    478,   149.723053,    92.539566,           0.
    479,   146.009918,   72.8788528,           0.
    480,   146.023804,   64.1186066,           0.
    481,   149.764755,   88.1928177,           0.
    482,   146.014297,   59.7597733,           0.
    483,   149.624344,   96.8011169,           0.
    484,   145.569977,    55.018589,           0.
    485,   149.766327,   100.478691,           0.
    486,   149.796463,   79.4526749,           0.
    487,    73.944725,   107.404594,           0.
    488,    89.466156,   103.536316,           0.
    489,   80.5858231,   103.565147,           0.
    490,    109.46109,   99.6782074,           0.
    491,   127.235687,   99.6856537,           0.
    492,   122.791992,    99.682518,           0.
    493,   113.904892,   99.6788864,           0.
    494,   145.596115,   99.2632141,           0.
    495,   118.348503,   99.6808319,           0.
    496,   105.016533,   99.6806412,           0.
    497,   140.738495,   99.5480881,           0.
    498,    131.69574,   99.6677628,           0.
    499,   100.574303,   99.6843185,           0.
    500,   136.243408,   99.5186768,           0.
    501,   96.1301193,   99.6920547,           0.
    502,   69.4937515,   107.312103,           0.
    503,   85.0238419,   103.551437,           0.
    504,    64.676712,   106.714455,           0.
    505,   60.5385704,   107.791855,           0.
    506,   67.1963806,   54.7019653,           0.
    507,   60.7488747,   104.020844,           0.
    508,   71.4205551,   54.5868225,           0.
    509,   68.0757446,   82.6650772,           0.
    510,   64.4627991,   93.2995987,           0.
    511,   64.6522598,   97.6061249,           0.
    512,   71.7781296,    71.972496,           0.
    513,   71.6277695,   62.6347008,           0.
    514,   71.7467346,   67.5201263,           0.
    515,   64.3792953,   89.0484772,           0.
    516,   68.0647049,   78.4029999,           0.
    517,   123.542671,   54.5823822,           0.
    518,   127.903847,   54.5808411,           0.
    519,   132.167221,   54.5508804,           0.
    520,   136.370682,   54.7168121,           0.
    521,   112.631447,   58.3776512,           0.
    522,   95.1410828,   58.3355331,           0.
    523,   90.7700882,   58.3111649,           0.
    524,   86.3992081,   58.2816811,           0.
    525,   108.259155,   58.3745689,           0.
    526,   143.016785,   51.0374832,           0.
    527,   99.5122528,    58.353756,           0.
    528,   103.885201,   58.3665924,           0.
    529,   81.9828262,   58.3765182,           0.
    530,   119.179855,   54.5846939,           0.
    531,   145.988449,   81.6348953,           0.
    532,   142.161209,    66.311142,           0.
    533,   142.206055,   70.6837158,           0.
    534,   77.6805801,   58.3213005,           0.
    535,     142.1633,   61.9452209,           0.
    536,   145.998566,   94.6074905,           0.
    537,   142.537262,   58.1550789,           0.
    538,   146.055573,    90.330513,           0.
    539,   146.020248,    85.995018,           0.
    540,   145.999786,   77.2570801,           0.
    541,   76.1689453,   103.623802,           0.
    542,   91.6812897,   99.7066879,           0.
    543,   82.8138885,   99.7588577,           0.
    544,   111.683006,    95.848381,           0.
    545,   125.016922,   95.8555527,           0.
    546,    120.57235,   95.8523178,           0.
    547,   116.127823,   95.8502502,           0.
    548,   129.478226,   95.8332977,           0.
    549,   107.237167,   95.8502502,           0.
    550,   102.793945,   95.8538971,           0.
    551,   138.617523,   95.1684265,           0.
    552,   133.887451,   95.7504654,           0.
    553,   98.3484039,   95.8621368,           0.
    554,   67.9259262,   103.897148,           0.
    555,   71.7548981,   103.685753,           0.
    556,   87.2386932,   99.7281342,           0.
    557,   69.3746185,   58.4717789,           0.
    558,   64.6274261,   101.974792,           0.
    559,    73.551239,   58.3291016,           0.
    560,    68.211174,    91.156662,           0.
    561,   71.8105698,   80.5326996,           0.
    562,   68.3871231,   95.3467407,           0.
    563,   75.5308075,   69.7349472,           0.
    564,   75.5236893,    65.275322,           0.
    565,   68.1152573,   86.9132767,           0.
    566,   71.7967606,   76.2640457,           0.
    567,   121.363724,   58.3751831,           0.
    568,   125.726021,   58.3750687,           0.
    569,   130.149353,   58.2709198,           0.
    570,   134.005127,   57.7404938,           0.
    571,   92.9347839,    62.104763,           0.
    572,   146.698257,   50.8632927,           0.
    573,   140.721603,   54.8363571,           0.
    574,   110.443153,   62.1709709,           0.
    575,   88.5401917,   62.0736771,           0.
    576,   97.3103714,   62.1311493,           0.
    577,    84.186348,   62.1480751,           0.
    578,   101.687515,   62.1505318,           0.
    579,   106.065468,   62.1635437,           0.
    580,   142.189514,    79.436615,           0.
    581,   138.372742,   68.4184341,           0.
    582,   116.999176,   58.3775711,           0.
    583,   138.155167,   64.0181885,           0.
    584,   138.173096,   59.0608025,           0.
    585,   142.232971,   83.8044052,           0.
    586,   142.331345,   88.1616058,           0.
    587,   79.5223236,    62.673233,           0.
    588,   142.202484,   75.0599213,           0.
    589,   78.3599625,   99.7771149,           0.
    590,    142.69519,   96.2116394,           0.
    591,   93.8963318,   95.8784256,           0.
    592,   113.906059,   92.0222168,           0.
    593,    118.35202,   92.0247116,           0.
    594,   122.798004,   92.0286636,           0.
    595,   127.231644,   92.0410538,           0.
    596,   109.458786,   92.0233002,           0.
    597,   131.647095,   92.0770874,           0.
    598,   105.014336,    92.026329,           0.
    599,   100.567345,   92.0343552,           0.
    600,   135.430084,   92.3231125,           0.
    601,   85.0142822,   95.9736328,           0.
    602,   69.0258408,   99.9055786,           0.
    603,   73.8621216,   99.9224091,           0.
    604,    89.448967,   95.9092255,           0.
    605,   142.394699,   92.4768066,           0.
    606,   71.9071121,   89.0181961,           0.
    607,   75.5502472,    78.393692,           0.
    608,   72.0016327,   93.1913605,           0.
    609,   75.5811157,   61.4467316,           0.
    610,   79.3357544,   67.4859467,           0.
    611,   71.8453598,   84.7782364,           0.
    612,    75.551651,   74.0968094,           0.
    613,   119.186745,   62.1770821,           0.
    614,   123.564888,   62.2065811,           0.
    615,   128.193237,   62.3295708,           0.
    616,   133.459488,   62.0945816,           0.
    617,   90.6717606,   65.8763733,           0.
    618,   95.0873566,    65.906311,           0.
    619,   135.030365,   66.3470306,           0.
    620,   138.370895,    77.203125,           0.
    621,   86.3082275,   65.8409958,           0.
    622,    99.479187,    65.932251,           0.
    623,   108.248413,   65.9643784,           0.
    624,   138.401978,   81.5676727,           0.
    625,   114.816566,   62.1748238,           0.
    626,   103.864357,   65.9514923,           0.
    627,   138.425323,   85.9603882,           0.
    628,   138.362808,   72.7470551,           0.
    629,   82.5862503,   65.5746765,           0.
    630,   80.6422501,   96.0546646,           0.
    631,   96.1120071,   92.0513992,           0.
    632,   116.130707,   88.1999969,           0.
    633,   120.578377,   88.2040558,           0.
    634,   111.681847,   88.1999893,           0.
    635,   125.020531,    88.269249,           0.
    636,   129.453796,   88.4145203,           0.
    637,   134.195663,   88.2818909,           0.
    638,   107.236099,   88.2019119,           0.
    639,   102.787605,   88.2089844,           0.
    640,   75.9120865,   95.6664658,           0.
    641,   87.1756439,   92.1993332,           0.
    642,   91.6525421,   92.0930939,           0.
    643,    75.688179,   86.8223953,           0.
    644,    75.739296,   91.0504379,           0.
    645,    79.261734,   76.1136169,           0.
    646,   75.5700455,   82.6017227,           0.
    647,   79.2615814,   71.8519974,           0.
    648,   130.733719,    67.000206,           0.
    649,   125.813232,    66.181076,           0.
    650,   121.399673,   66.0233536,           0.
    651,   117.010033,   65.9840927,           0.
    652,   134.527191,   74.7096252,           0.
    653,   134.445038,   79.1522675,           0.
    654,   88.3631058,   69.6997147,           0.
    655,   134.463272,   83.5675659,           0.
    656,   92.8414612,   69.6873779,           0.
    657,   134.627075,   70.2239227,           0.
    658,   97.2572784,   69.7080002,           0.
    659,   101.658798,   69.7095184,           0.
    660,    112.62925,   65.9730301,           0.
    661,   83.4715652,    69.719986,           0.
    662,   106.017487,    69.675766,           0.
    663,   138.565765,   90.3953705,           0.
    664,    82.762352,   92.4118042,           0.
    665,   98.3303452,    88.222847,           0.
    666,   118.357536,   84.3822403,           0.
    667,   113.906776,   84.3805618,           0.
    668,   122.853523,   84.5093613,           0.
    669,   127.313026,   84.7695465,           0.
    670,   109.491257,    84.374527,           0.
    671,   105.104729,   84.3772583,           0.
    672,   89.3149719,     88.31073,           0.
    673,   93.8616333,   88.2377853,           0.
    674,   71.8377609,   96.8065109,           0.
    675,    79.348114,   84.4910736,           0.
    676,   80.0078201,   88.8529892,           0.
    677,    82.327652,   73.8235779,           0.
    678,   79.3530197,   80.3078613,           0.
    679,    130.03952,   81.1638412,           0.
    680,    123.55854,   69.8306656,           0.
    681,   119.117859,   69.7287979,           0.
    682,   130.704056,    72.016571,           0.
    683,   114.690552,   69.6866684,           0.
    684,   130.512665,   76.4603348,           0.
    685,   110.313171,   69.6461258,           0.
    686,   90.4783936,   73.4519653,           0.
    687,   103.678596,   73.3405991,           0.
    688,   99.2848892,   73.3820038,           0.
    689,    94.838623,   73.3799286,           0.
    690,   127.427269,    69.773674,           0.
    691,   84.7807541,   88.6470032,           0.
    692,    100.67527,   84.4080048,           0.
    693,   116.203705,   80.6156082,           0.
    694,   120.729454,   80.7749786,           0.
    695,   125.188484,   81.0602646,           0.
    696,    79.012764,   92.8072739,           0.
    697,   111.851463,     80.60746,           0.
    698,   107.523735,   80.6158981,           0.
    699,   91.6812439,   84.4318619,           0.
    700,   96.2264938,   84.4261627,           0.
    701,   131.093048,   85.2394714,           0.
    702,   126.231796,   73.8063354,           0.
    703,    82.976059,   82.2024384,           0.
    704,   127.026878,   77.9509506,           0.
    705,   83.4835434,   77.6884003,           0.
    706,   121.220749,   73.4780197,           0.
    707,   116.662834,   73.3368149,           0.
    708,   86.0387115,   73.6027832,           0.
    709,   112.296951,    73.278923,           0.
    710,   107.978783,   73.2859192,           0.
    711,   101.183411,   76.9931488,           0.
    712,   96.7509384,   76.9981918,           0.
    713,   92.3812256,   77.0600128,           0.
    714,   86.8002625,   84.3683014,           0.
    715,   103.119034,   80.6659851,           0.
    716,   118.684692,   77.0624619,           0.
    717,   123.180344,   77.3554993,           0.
    718,   114.274857,   76.9578705,           0.
    719,   109.923798,   76.9457092,           0.
    720,   98.6925888,   80.6790848,           0.
    721,   94.2739029,   80.7182007,           0.
    722,   89.9113083,     80.71978,           0.
    723,   88.0860672,   77.1716995,           0.
    724,   105.567894,   76.9745407,           0.
    725,   86.2514496,   80.4301224,           0.
    726,   82.7826004,   85.7123642,           0.
    727,   63.7614059,   46.9680939,           0.
    728,   38.2373085,   43.2662354,           0.
    729,   41.0877838,   47.0720139,           0.
    730,   45.5331268,   49.0322609,           0.
    731,    45.800396,    78.395607,           0.
    732,   45.4981537,   113.046783,           0.
    733,   45.5701981,   108.410431,           0.
    734,   45.7318192,   103.994316,           0.
    735,   45.7746887,    99.704689,           0.
    736,    45.788372,   95.4389267,           0.
    737,   45.7949791,   91.1777878,           0.
    738,   45.7978706,   86.9171753,           0.
    739,   45.7989922,   82.6564178,           0.
    740,   45.8004189,    74.134697,           0.
    741,   45.8007698,   69.8736954,           0.
    742,   45.8019867,   65.6124802,           0.
    743,   45.8041267,   61.3513107,           0.
    744,   45.8138733,   57.1573029,           0.
    745,   45.7237511,   53.0776138,           0.
    746,    36.206131,   39.4721451,           0.
    747,   19.3555431,   39.3905182,           0.
    748,   23.6625118,   39.3833389,           0.
    749,   27.9398861,   39.3576279,           0.
    750,   32.1601791,   39.3910599,           0.
    751,    3.7876246,   68.5092621,           0.
    752,   3.78738523,   72.8888931,           0.
    753,   3.78729272,   77.2684937,           0.
    754,   3.78759193,   81.6480865,           0.
    755,   3.78830004,   86.0274506,           0.
    756,   3.79037571,   90.4065247,           0.
    757,   3.79438233,   94.7856827,           0.
    758,   3.79964447,   99.1652145,           0.
    759,   3.84396219,   103.563553,           0.
    760,   3.98829126,   108.113533,           0.
    761,   4.03062963,   112.901703,           0.
    762,   3.85447407,   46.5341949,           0.
    763,   3.82340598,   50.9317284,           0.
    764,   3.79645491,   55.3528023,           0.
    765,   3.78814626,     59.74683,           0.
    766,   3.78666878,   64.1290436,           0.
    767,   20.2327328,   114.971382,           0.
    768,   24.7478046,   114.993004,           0.
    769,   29.2550602,   115.000381,           0.
    770,   33.8113251,   114.975708,           0.
    771,   38.3064079,   115.004868,           0.
    772,   34.2079315,    43.142025,           0.
    773,   42.1001549,   76.2648697,           0.
    774,   42.1033592,   67.7419815,           0.
    775,   42.0968513,   84.7859421,           0.
    776,   42.0815125,   93.3035049,           0.
    777,   42.0050507,   101.875038,           0.
    778,   42.0960922,   59.3134918,           0.
    779,   42.0430679,   55.2648315,           0.
    780,    42.101532,   63.5011711,           0.
    781,   42.1004944,   72.0036316,           0.
    782,   42.0977516,   80.5253906,           0.
    783,   42.0904465,   89.0448303,           0.
    784,   42.0511169,   97.5768204,           0.
    785,   41.8341522,   106.193199,           0.
    786,   5.85593891,   39.5380363,           0.
    787,   21.5165634,   43.1090279,           0.
    788,   10.5469046,   39.5335922,           0.
    789,   15.0165405,   39.4291763,           0.
    790,   25.8183384,   43.0795937,           0.
    791,   30.0514889,   43.0977669,           0.
    792,   3.54279256,   42.8569603,           0.
    793,   7.57202673,   83.8370743,           0.
    794,   7.64672947,   101.389053,           0.
    795,   7.60430813,    96.983078,           0.
    796,   7.58544683,   92.5950165,           0.
    797,   7.57013988,   70.6989517,           0.
    798,   7.57024527,   79.4580612,           0.
    799,   7.57572317,   88.2150955,           0.
    800,   7.57356167,   57.5473251,           0.
    801,   7.77327061,   48.5937805,           0.
    802,   7.56935596,   75.0785828,           0.
    803,   7.78109455,   105.849899,           0.
    804,    7.5686202,   66.3190079,           0.
    805,   7.75203514,    53.067379,           0.
    806,   7.56829882,    61.936573,           0.
    807,   15.6975298,   114.942001,           0.
    808,   27.0157909,   111.137619,           0.
    809,   36.2362099,   111.098328,           0.
    810,    11.212101,   114.927246,           0.
    811,   7.42755365,   115.256989,           0.
    812,   22.5086098,   111.100914,           0.
    813,   31.6350021,   111.044258,           0.
    814,   41.8308754,   51.3207169,           0.
    815,   41.1321335,   110.976189,           0.
    816,   8.44562435,   110.814461,           0.
    817,   38.4384727,   49.9226837,           0.
    818,   36.4403839,   46.8781967,           0.
    819,   7.94511509,   43.8351326,           0.
    820,   32.2171059,   46.9174614,           0.
    821,   38.3943367,   69.8685303,           0.
    822,   38.3936005,   74.1328583,           0.
    823,   38.3916359,   78.3941116,           0.
    824,   38.3829079,   86.9112854,           0.
    825,   38.3872566,   82.6533356,           0.
    826,   38.3776741,   65.5991364,           0.
    827,   38.3687592,   91.1652298,           0.
    828,   38.3961945,   57.1720123,           0.
    829,    38.275856,    61.270298,           0.
    830,   38.2273331,   104.034386,           0.
    831,   38.3438034,   95.4241104,           0.
    832,   38.3147202,   99.7110748,           0.
    833,   12.8196878,   43.2261658,           0.
    834,   27.9698296,   46.8289795,           0.
    835,   23.6849918,   46.8428726,           0.
    836,   17.1876545,   43.1382751,           0.
    837,   11.3197231,    107.59729,           0.
    838,   11.3462791,   72.8884811,           0.
    839,   11.3463106,    77.267952,           0.
    840,   11.3480711,   81.6462555,           0.
    841,    11.353159,    86.022644,           0.
    842,     11.34412,   68.5084076,           0.
    843,   11.3380985,   59.7639465,           0.
    844,   11.3411398,   64.1303406,           0.
    845,    11.482933,   55.4275208,           0.
    846,   12.1709347,   50.7213593,           0.
    847,   11.3646822,   90.3982544,           0.
    848,   11.4764862,   103.679344,           0.
    849,   11.4194593,   99.2180328,           0.
    850,   11.3867426,   94.7861023,           0.
    851,   17.9378185,   110.963219,           0.
    852,   29.3989277,   107.267235,           0.
    853,   24.8826427,   107.158134,           0.
    854,    34.258049,   106.700096,           0.
    855,   13.3484631,   110.961723,           0.
    856,   42.0859032,   115.355423,           0.
    857,   15.4476776,   106.485039,           0.
    858,   34.6943359,   51.0381508,           0.
    859,   34.6383629,   93.2688675,           0.
    860,   34.6535454,   89.0254364,           0.
    861,   34.5112305,   97.6065826,           0.
    862,   34.2547722,   58.7869987,           0.
    863,   34.6793976,   76.2622604,           0.
    864,   34.6741333,   80.5212479,           0.
    865,   34.6784935,   71.9960785,           0.
    866,   34.6650658,   84.7754517,           0.
    867,    34.658123,   63.4714737,           0.
    868,   34.4730568,   101.979439,           0.
    869,   34.6820984,   67.7417908,           0.
    870,   25.8737507,   50.5459404,           0.
    871,   19.3224716,   46.8805199,           0.
    872,   14.9492264,   46.8663406,           0.
    873,   38.3375778,   107.800438,           0.
    874,   11.1316471,   46.6485558,           0.
    875,   15.1355181,   88.2012939,           0.
    876,   15.1586781,   92.5728073,           0.
    877,   15.1234446,    83.829689,           0.
    878,   15.1156731,   75.0772705,           0.
    879,    15.117156,   79.4547272,           0.
    880,   15.1013803,   61.9616318,           0.
    881,   15.1723928,   97.0608902,           0.
    882,   15.1127625,   70.6972885,           0.
    883,   15.1079655,   66.3212051,           0.
    884,   14.9801865,   53.8756485,           0.
    885,   15.1534748,   101.576637,           0.
    886,   15.1497049,   57.6178513,           0.
    887,   20.3166103,    106.97802,           0.
    888,   27.4333553,    103.52018,           0.
    889,   31.1556988,   103.899673,           0.
    890,   30.1185017,    50.669342,           0.
    891,   32.0581284,   54.6644249,           0.
    892,   30.8319588,   91.3029327,           0.
    893,   30.7492008,    95.557724,           0.
    894,    30.815218,   87.0926971,           0.
    895,   30.8413048,   78.5342331,           0.
    896,   30.7957058,   82.8608398,           0.
    897,   30.8244724,   74.2806473,           0.
    898,   30.2646561,   100.023209,           0.
    899,   31.4354076,   61.7754211,           0.
    900,   30.8349876,   69.9933319,           0.
    901,   30.9798717,   65.5990829,           0.
    902,   35.5603714,   55.0030937,           0.
    903,   21.5053005,   50.6625824,           0.
    904,   18.9761944,   90.2712326,           0.
    905,   19.0548019,   94.8270416,           0.
    906,   18.9694099,   85.8926086,           0.
    907,   18.9623184,   81.5290527,           0.
    908,   18.9583721,   77.1645584,           0.
    909,   18.9506359,   63.9540367,           0.
    910,   18.9631386,   72.7845001,           0.
    911,   18.9823074,   68.3585968,           0.
    912,   18.9615803,   99.4859467,           0.
    913,   18.9214554,   59.5124283,           0.
    914,   19.1262646,   54.8402824,           0.
    915,   22.7918549,   102.588188,           0.
    916,   18.5342388,   103.422768,           0.
    917,   27.9454212,   54.3817177,           0.
    918,   29.7982311,   58.3789597,           0.
    919,   26.9930439,   93.8881454,           0.
    920,     26.87327,   89.6105957,           0.
    921,   26.8445778,   85.3250961,           0.
    922,   26.8420982,    81.020401,           0.
    923,   26.8457069,   76.7057114,           0.
    924,   26.8562565,   72.3616333,           0.
    925,   27.2330437,   62.6910248,           0.
    926,   26.9439163,   67.8399353,           0.
    927,   23.7509937,   54.3060417,           0.
    928,   17.0090637,   50.6411209,           0.
    929,   23.0024872,   92.2937393,           0.
    930,   22.9181213,   87.8217239,           0.
    931,   23.4762611,   97.2402725,           0.
    932,   22.8958321,   83.4638672,           0.
    933,   22.8901386,   79.1214828,           0.
    934,   22.8989124,   74.7591553,           0.
    935,   22.9781704,   65.7430878,           0.
    936,   22.9371166,   70.3078156,           0.
    937,   22.6897564,     61.21772,           0.
    938,   22.0463028,   57.5713959,           0.
    939,   25.5772915,   58.0911446,           0.
    940,    27.531786,   97.3813858,           0.
    941,    38.493885,   53.2869148,           0.
    942,   26.2995815,   100.150642,           0.
    943,   53.2060509,   22.5263882,           0.
    944,   53.3868904,   5.68693161,           0.
    945,   53.3488045,    10.196743,           0.
    946,   53.3370247,   14.5817289,           0.
    947,   53.2421341,   18.7310143,           0.
    948,   56.9400215,   24.3486385,           0.
    949,   60.8531799,   27.0797768,           0.
    950,   62.8999634,   31.6385803,           0.
    951,   149.758972,   31.8621101,           0.
    952,   136.626083,   31.8791218,           0.
    953,   101.721397,   31.8790436,           0.
    954,   123.536827,   31.8792152,           0.
    955,   119.173744,   31.8788109,           0.
    956,   110.447571,   31.8789349,           0.
    957,    106.08448,   31.8784962,           0.
    958,    92.995224,   31.8792343,           0.
    959,   88.6321335,   31.8789101,           0.
    960,   84.2690125,   31.8788471,           0.
    961,   75.5496292,   31.8803444,           0.
    962,   71.2552032,   31.8773575,           0.
    963,   97.3583069,   31.8784561,           0.
    964,   154.337616,   31.7200584,           0.
    965,    145.35936,   31.8754578,           0.
    966,   140.990341,   31.8777485,           0.
    967,   127.899918,   31.8788128,           0.
    968,   114.810654,   31.8785496,           0.
    969,      132.263,   31.8784904,           0.
    970,   79.9068375,   31.8796043,           0.
    971,   67.0504608,   31.7967777,           0.
    972,   144.998077,    3.8394711,           0.
    973,   69.4833298,   3.82840204,           0.
    974,   136.113556,   3.84207678,           0.
    975,   153.857452,   3.82862186,           0.
    976,   149.450806,   3.83460379,           0.
    977,   140.555542,   3.84121943,           0.
    978,   131.671631,   3.84177542,           0.
    979,   118.345833,   3.84201932,           0.
    980,   105.020027,   3.84201956,           0.
    981,   91.6942215,   3.84190464,           0.
    982,   82.8100052,   3.84012437,           0.
    983,   73.9252853,   3.83211708,           0.
    984,   64.9575882,    3.8333447,           0.
    985,   60.4834366,   3.79555511,           0.
    986,   127.229706,   3.84162831,           0.
    987,   122.787766,   3.84136105,           0.
    988,     113.9039,   3.84168839,           0.
    989,   109.461967,   3.84137583,           0.
    990,   100.578094,   3.84168434,           0.
    991,   96.1361618,   3.84144688,           0.
    992,   87.2521515,   3.84085155,           0.
    993,   78.3674316,   3.83588958,           0.
    994,   161.430679,   28.3301029,           0.
    995,   161.140335,   20.0850983,           0.
    996,   161.091339,   15.5103903,           0.
    997,   160.968628,   10.8091393,           0.
    998,   160.948975,   5.94368744,           0.
    999,   65.2360687,   27.7841034,           0.
   1000,   57.7208748,   17.1525574,           0.
   1001,   57.3756142,   12.3697872,           0.
   1002,   159.108383,   31.6501751,           0.
   1003,   147.612701,   28.0633163,           0.
   1004,   152.114868,   27.9290943,           0.
   1005,    134.44455,   28.0911102,           0.
   1006,   103.902939,   28.0909653,           0.
   1007,   90.8136597,   28.0912857,           0.
   1008,   138.807724,   28.0902958,           0.
   1009,   77.7311325,   28.0951004,           0.
   1010,   116.992195,   28.0909805,           0.
   1011,   82.0880661,   28.0925388,           0.
   1012,   125.718369,   28.0912113,           0.
   1013,   69.2999191,   27.9114704,           0.
   1014,   112.629112,   28.0905342,           0.
   1015,    73.470314,   28.0088806,           0.
   1016,   95.1767578,   28.0906353,           0.
   1017,   121.355286,   28.0903759,           0.
   1018,   108.266029,   28.0901337,           0.
   1019,   99.5398483,   28.0899239,           0.
   1020,   86.4506454,   28.0905914,           0.
   1021,   130.081451,   28.0900497,           0.
   1022,   143.184753,   28.0840797,           0.
   1023,   56.7607193,   3.44190145,           0.
   1024,   142.778076,   7.67906761,           0.
   1025,   157.609207,   3.56058478,           0.
   1026,   107.240997,   7.67914295,           0.
   1027,   67.1481552,   7.56200838,           0.
   1028,   125.008736,   7.67892599,           0.
   1029,   116.124863,    7.6791687,           0.
   1030,   98.3571243,   7.67931938,           0.
   1031,   71.6805725,   7.63581133,           0.
   1032,   62.6053772,   7.41825867,           0.
   1033,   151.780045,   7.84029579,           0.
   1034,    111.68293,    7.6783309,           0.
   1035,   133.892563,   7.67928982,           0.
   1036,   147.295395,    7.8448143,           0.
   1037,    138.33461,   7.67848921,           0.
   1038,   129.450668,   7.67837286,           0.
   1039,   120.566803,   7.67808294,           0.
   1040,   102.799065,   7.67836046,           0.
   1041,   93.9151535,   7.67865849,           0.
   1042,   89.4728775,   7.67808914,           0.
   1043,   85.0298843,   7.67590857,           0.
   1044,   80.5862656,   7.67007923,           0.
   1045,    76.139061,   7.65753412,           0.
   1046,   161.150513,    24.521822,           0.
   1047,   157.211914,   17.7808132,           0.
   1048,   157.204346,   13.1315823,           0.
   1049,   57.8061905,   7.63966417,           0.
   1050,   63.7722092,   24.1617069,           0.
   1051,   156.592712,   8.06081963,           0.
   1052,   157.065353,   27.2722168,           0.
   1053,   61.4937019,   14.0651855,           0.
   1054,   56.3099632,   20.8893318,           0.
   1055,   136.831909,   24.1340542,           0.
   1056,   110.606979,   24.1214581,           0.
   1057,   123.728867,   24.1196499,           0.
   1058,   119.400833,    24.076643,           0.
   1059,   84.3709641,   24.1177959,           0.
   1060,   93.1195297,   24.1170082,           0.
   1061,   106.261696,    24.091753,           0.
   1062,    101.88102,   24.0992565,           0.
   1063,   88.7838745,   24.0556698,           0.
   1064,   115.032898,   24.0671158,           0.
   1065,   97.5382843,   24.0552216,           0.
   1066,   128.136368,   24.0892677,           0.
   1067,   132.566086,   24.0438766,           0.
   1068,   145.657684,   24.1424274,           0.
   1069,   141.308884,   24.0725842,           0.
   1070,   80.0130615,   24.0907402,           0.
   1071,    150.07132,   24.1688747,           0.
   1072,   75.7219543,   23.9612637,           0.
   1073,   71.4707794,   23.8788052,           0.
   1074,   140.423859,   11.6128979,           0.
   1075,   87.1868362,   11.6123762,           0.
   1076,   109.358299,   11.6251774,           0.
   1077,   100.495094,   11.6177711,           0.
   1078,   131.546738,   11.6145992,           0.
   1079,   96.0470734,   11.6321554,           0.
   1080,    113.79007,   11.6294117,           0.
   1081,   118.227493,   11.6274424,           0.
   1082,   135.927246,   11.6580963,           0.
   1083,   127.089584,   11.6325579,           0.
   1084,   122.624809,   11.6601734,           0.
   1085,   104.896912,    11.655426,           0.
   1086,   91.6050339,   11.6425076,           0.
   1087,   144.869614,   11.8756561,           0.
   1088,   82.7341614,   11.6315536,           0.
   1089,    149.71991,   12.4606924,           0.
   1090,   78.3009567,    11.607995,           0.
   1091,   73.8739624,   11.5446959,           0.
   1092,   69.2260818,   11.4500465,           0.
   1093,   64.5736237,   11.1015978,           0.
   1094,    157.23851,   22.3795204,           0.
   1095,   153.500641,   15.2952776,           0.
   1096,   60.3818817,   21.6672115,           0.
   1097,   60.7709007,    10.518899,           0.
   1098,   67.3223343,   23.9739094,           0.
   1099,   148.223053,   20.2454987,           0.
   1100,   139.590195,   19.9006157,           0.
   1101,   104.396049,   19.8990822,           0.
   1102,   135.193039,   19.8878193,           0.
   1103,   113.196686,   19.8899822,           0.
   1104,   117.621605,   19.8639793,           0.
   1105,   126.402824,   19.8815956,           0.
   1106,   108.793892,   19.8947487,           0.
   1107,   122.001724,   19.8809834,           0.
   1108,   100.006355,   19.8893433,           0.
   1109,   95.6095047,   19.8874588,           0.
   1110,   130.815399,    19.867487,           0.
   1111,     143.9552,    20.020092,           0.
   1112,   91.2163086,   19.8787079,           0.
   1113,   86.8110428,   19.8852253,           0.
   1114,   82.4018097,   19.8985424,           0.
   1115,   78.0439453,   19.8006859,           0.
   1116,   73.6871872,    19.726469,           0.
   1117,   153.876907,    24.394207,           0.
   1118,   153.759521,   11.3577337,           0.
   1119,   152.902176,   20.1613731,           0.
   1120,   142.214844,   15.8697672,           0.
   1121,   146.529251,   16.2228565,           0.
   1122,   137.800842,   15.7705469,           0.
   1123,   102.466797,   15.7449074,           0.
   1124,   128.985977,   15.7320614,           0.
   1125,   115.745087,   15.7183008,           0.
   1126,   120.137688,   15.7421541,           0.
   1127,   124.540436,    15.754921,           0.
   1128,   111.300354,   15.7444725,           0.
   1129,    93.640274,   15.7312737,           0.
   1130,   98.0441818,   15.7504854,           0.
   1131,   133.378204,   15.7551012,           0.
   1132,   106.868721,   15.7606363,           0.
   1133,   89.2171249,    15.733716,           0.
   1134,   75.9879608,   15.6254425,           0.
   1135,   84.7916031,   15.7408705,           0.
   1136,   80.3767395,    15.717515,           0.
   1137,   71.3819504,   15.6154499,           0.
   1138,   66.1404037,   15.7244539,           0.
   1139,    64.833313,   20.5098743,           0.
   1140,    69.139328,   19.9048271,           0.
   1141,   62.1140366,   17.8238564,           0.
   1142,   150.175003,     16.87714,           0.
   1143,   45.6303635,   10.2491093,           0.
   1144,   45.5217209,   5.70041895,           0.
   1145,   37.9261055,   27.3153515,           0.
   1146,   36.0785904,   31.7023106,           0.
   1147,   23.6549835,   31.9265366,           0.
   1148,   41.4679146,   23.7352448,           0.
   1149,   45.8370667,   14.5147076,           0.
   1150,   45.9583168,   18.5247173,           0.
   1151,   45.7752991,   22.3094864,           0.
   1152,   5.87040615,   31.6982651,           0.
   1153,   10.5530434,   31.7494354,           0.
   1154,   15.0171452,    31.887413,           0.
   1155,   19.3504601,   31.9139881,           0.
   1156,   27.8930016,   31.9432507,           0.
   1157,   32.0183258,   31.8692589,           0.
   1158,   3.83737922,   15.6336374,           0.
   1159,   3.88479853,   20.1342793,           0.
   1160,   3.87543392,    24.575964,           0.
   1161,   38.3415947,    3.8666954,           0.
   1162,   33.8115616,   3.88312101,           0.
   1163,    29.259943,   3.87844944,           0.
   1164,   24.7506561,   3.88109779,           0.
   1165,   20.2492428,   3.88363576,           0.
   1166,   15.6348734,   3.95402932,           0.
   1167,   10.8738804,   4.09705305,           0.
   1168,   5.97252703,   4.09728146,           0.
   1169,   41.9662132,   12.4569521,           0.
   1170,   42.3242378,   16.5909786,           0.
   1171,   12.7413673,   27.8415394,           0.
   1172,   29.8204708,   28.1234741,           0.
   1173,   25.7196732,   28.1576672,           0.
   1174,   21.4851551,    28.136652,           0.
   1175,   17.1112556,   27.9161091,           0.
   1176,   3.83341765,   11.2296934,           0.
   1177,   7.58819437,   22.4599533,           0.
   1178,   3.56561446,   7.45223284,           0.
   1179,   7.72917461,   17.9351139,           0.
   1180,   27.0055237,   7.74392414,           0.
   1181,     31.65979,   7.80955601,           0.
   1182,   42.1204338,   3.49224854,           0.
   1183,   22.5026169,   7.75241661,           0.
   1184,   17.8715172,   7.80915499,           0.
   1185,   36.2962189,    7.7165103,           0.
   1186,   13.1828451,   7.92438173,           0.
   1187,   41.1790733,   7.76665068,           0.
   1188,   33.7666054,   28.0031662,           0.
   1189,   42.8873558,   20.0920296,           0.
   1190,   38.9200706,   19.3011074,           0.
   1191,   35.0552826,   24.6844463,           0.
   1192,   8.06239796,   8.52367401,           0.
   1193,   38.4387589,   10.8769894,           0.
   1194,   38.5792961,   14.6033964,           0.
   1195,   14.7827654,   23.4941959,           0.
   1196,   19.2997875,   24.0895805,           0.
   1197,   23.4718494,   24.1616268,           0.
   1198,    27.618391,   24.1644402,           0.
   1199,    7.8785677,   27.2964706,           0.
   1200,    7.8329916,   13.3878622,           0.
   1201,   11.3169746,   20.5098782,           0.
   1202,   20.1437969,   11.8174582,           0.
   1203,   15.3959732,   11.7920246,           0.
   1204,   24.8207474,   11.7715616,           0.
   1205,    29.472393,   11.8705196,           0.
   1206,   34.5187454,   12.1955757,           0.
   1207,    3.5248816,   28.3044167,           0.
   1208,   17.5110741,   20.6244774,           0.
   1209,   21.0027733,   20.1687164,           0.
   1210,   25.2824383,   20.0572758,           0.
   1211,   10.8615742,   24.3204079,           0.
   1212,    12.270916,   15.7820768,           0.
   1213,   11.3490248,   11.4820042,           0.
   1214,   17.6713181,   16.4641724,           0.
   1215,   22.7047234,   16.0262794,           0.
   1216,    27.261837,    15.984231,           0.
   1217,   31.7714767,   16.1972294,           0.
   1218,   29.6587658,    20.218874,           0.
   1219,   35.6178589,   16.5751686,           0.
   1220,   14.7106094,   19.3749599,           0.
   1221,   34.3296356,   20.6431446,           0.
   1222,   37.5398026,   23.1358585,           0.
   1223,   31.7081928,   24.3062572,           0.
*Element, type=S3
   1, 390, 321, 386
   2, 365,  97, 198
   3, 344, 272, 273
   4, 198,  13,  14
   5, 250,   3,  32
   6, 321,  16,  17
   7, 322,  18, 253
   8, 253,  18,  19
   9, 254,  20, 199
  10, 199,  20,  21
  11, 295,  90,  91
  12, 200, 199,  21
  13, 201, 200,  22
  14, 202, 201,  23
  15, 203, 202,  24
  16, 220,  35, 219
  17, 206,  26,  27
  18, 256, 206, 207
  19, 204, 203,  25
  20, 314, 208, 205
  21, 208,   2,  29
  22, 250,  32, 222
  23,  54,   4,  55
  24, 232,  55,  56
  25, 475, 407, 316
  26, 419, 354, 356
  27, 282, 227, 226
  28, 283, 282, 226
  29, 279, 265, 211
  30, 275,  49,  50
  31, 336, 275, 276
  32, 260,  46,  47
  33, 241,  82, 240
  34, 211,  45, 210
  35, 369, 368, 308
  36, 213,  42, 197
  37, 214,  41, 213
  38, 215,  40, 214
  39, 259, 201, 202
  40, 215,  39,  40
  41, 217,  38, 216
  42, 218,  37, 217
  43, 219,  36, 218
  44, 209, 205,  30
  45, 222,  32,  33
  46,  73,  72,   5
  47, 249,  73,  74
  48, 353, 293, 289
  49, 352, 351, 284
  50, 376, 301, 374
  51, 590, 494, 497
  52, 288,  68,  69
  53, 378, 377, 299
  54, 280,  65,  66
  55, 224,  64, 223
  56, 225,  63, 224
  57, 226,  62, 225
  58, 227,  61, 226
  59, 228,  60, 227
  60, 229,  59, 228
  61, 230,  58, 229
  62, 231,  57, 230
  63, 232,  56, 231
  64,  97,   1,  13
  65, 198,  97,  13
  66, 363, 302,  95
  67, 363,  95,  96
  68, 386, 321, 322
  69, 364,  94, 302
  70, 254, 253,  19
  71, 304,  92, 303
  72, 427, 303, 364
  73, 234,  89, 233
  74, 235,  88, 234
  75, 339, 265, 338
  76, 236,  87, 235
  77, 237,  86, 236
  78, 238,  85, 237
  79, 239,  84, 238
  80, 240,  83, 239
  81, 242,  81, 241
  82, 243,  80, 242
  83, 244,  79, 243
  84, 245,  78, 244
  85, 246,  77, 245
  86, 247,  76, 246
  87, 248,  75, 247
  88, 249,  74, 248
  89, 197,  42,  43
  90, 212,  43,  44
  91, 391,  15, 323
  92, 323,  16, 321
  93, 200,  21,  22
  94, 258, 200, 251
  95, 201,  22,  23
  96, 329, 255, 327
  97, 202,  23,  24
  98, 272, 263, 216
  99, 203,  24,  25
 100, 328, 252, 257
 101, 204,  25,  26
 102, 263, 217, 216
 103, 208, 207,  28
 104, 205,  29,  30
 105, 209,  30,  31
 106, 727, 382, 315
 107, 206, 204,  26
 108, 207, 206,  27
 109, 207,  27,  28
 110, 256, 255, 206
 111, 208,  28,   2
 112, 208,  29, 205
 113, 221,  34, 220
 114, 327, 255, 256
 115, 210,  45,  46
 116, 294, 286, 224
 117, 212,  44, 211
 118, 211,  44,  45
 119, 307, 235, 234
 120, 212, 197,  43
 121, 268, 197, 212
 122, 213,  41,  42
 123, 273, 215, 214
 124, 214,  40,  41
 125, 273, 214, 262
 126, 216,  39, 215
 127, 257, 203, 204
 128, 216,  38,  39
 129, 257, 204, 255
 130, 217,  37,  38
 131, 266, 264, 219
 132, 218,  36,  37
 133, 274, 220, 264
 134, 219,  35,  36
 135, 315, 314, 205
 136, 220,  34,  35
 137, 267, 222, 221
 138, 221,  33,  34
 139, 319, 222, 267
 140, 222,  33, 221
 141, 223,  64,  65
 142, 371, 310, 367
 143, 359, 283, 286
 144, 224,  63,  64
 145, 423, 355, 418
 146, 225,  62,  63
 147, 275, 261,  49
 148, 226,  61,  62
 149, 276, 275,  50
 150, 227,  60,  61
 151, 332,  52, 277
 152, 228,  59,  60
 153, 291, 287, 229
 154, 229,  58,  59
 155, 278, 277,  53
 156, 230,  57,  58
 157, 572, 526, 469
 158, 231,  56,  57
 159, 278,  54, 232
 160, 232,  54,  55
 161, 233,  89,  90
 162, 394, 324, 328
 163, 307, 234, 296
 164, 234,  88,  89
 165, 268, 212, 265
 166, 235,  87,  88
 167, 348, 210, 260
 168, 236,  86,  87
 169, 308, 237, 297
 170, 237,  85,  86
 171, 309, 238, 308
 172, 238,  84,  85
 173, 309, 239, 238
 174, 239,  83,  84
 175, 371, 306, 310
 176, 240,  82,  83
 177, 459, 458, 396
 178, 241,  81,  82
 179, 311, 242, 241
 180, 242,  80,  81
 181, 351, 285, 284
 182, 243,  79,  80
 183, 288, 284,  68
 184, 244,  78,  79
 185, 353, 350, 293
 186, 245,  77,  78
 187, 378, 300, 376
 188, 246,  76,  77
 189, 290, 289,  71
 190, 247,  75,  76
 191, 298, 248, 247
 192, 248,  74,  75
 193, 290,  72, 249
 194, 249,  72,  73
 195, 250, 209,  31
 196, 250,  31,   3
 197, 251, 200, 201
 198, 392, 328, 329
 199, 252, 202, 203
 200, 270, 217, 263
 201, 364, 303,  93
 202, 254,  19,  20
 203, 330, 199, 258
 204, 487, 366, 427
 205, 255, 204, 206
 206, 317, 256, 314
 207, 314, 256, 207
 208, 727, 209, 319
 209, 264, 220, 219
 210, 257, 252, 203
 211, 541, 443, 487
 212, 258, 199, 200
 213, 259, 251, 201
 214, 259, 202, 252
 215, 260, 210,  46
 216, 269,  47,  48
 217, 261,  48,  49
 218, 292, 227, 282
 219, 262, 214, 213
 220, 271, 213, 197
 221, 272, 216, 215
 222, 326, 251, 325
 223, 266, 219, 218
 224, 270, 266, 218
 225, 265, 212, 211
 226, 279, 211, 210
 227, 506, 456, 382
 228, 341, 266, 270
 229, 319, 250, 222
 230, 274, 267, 221
 231, 337, 335, 271
 232, 271, 197, 268
 233, 269, 260,  47
 234, 269,  48, 261
 235, 270, 218, 217
 236, 556, 503, 543
 237, 408, 335, 405
 238, 271, 262, 213
 239, 273, 272, 215
 240, 344, 273, 340
 241, 305, 297, 236
 242, 340, 262, 335
 243, 274, 221, 220
 244, 453, 394, 392
 245, 276,  50,  51
 246, 354, 287, 291
 247, 332,  51,  52
 248, 281, 231, 230
 249, 277,  52,  53
 250, 316, 232, 231
 251, 278,  53,  54
 252, 316, 278, 232
 253, 334, 269, 261
 254, 624, 620, 580
 255, 280, 223,  65
 256, 285,  66,  67
 257, 287, 230, 229
 258, 291, 229, 228
 259, 283, 226, 225
 260, 286, 225, 224
 261, 286, 283, 225
 262, 357, 355, 282
 263, 284,  67,  68
 264, 313, 246, 299
 265, 285, 280,  66
 266, 285,  67, 284
 267, 294, 224, 223
 268, 359, 357, 283
 269, 336, 333, 275
 270, 287, 281, 230
 271, 293,  69,  70
 272, 353, 289, 318
 273, 289,  70,  71
 274, 318, 249, 248
 275, 290,  71,  72
 276, 318, 290, 249
 277, 292, 228, 227
 278, 292, 291, 228
 279, 402, 398, 334
 280, 403, 402, 333
 281, 293, 288,  69
 282, 293,  70, 289
 283, 361, 223, 280
 284, 301, 300, 244
 285, 295, 233,  90
 286, 304,  91,  92
 287, 296, 234, 233
 288, 362, 233, 295
 289, 297, 237, 236
 290, 305, 236, 235
 291, 313, 247, 246
 292, 299, 246, 245
 293, 300, 245, 244
 294, 300, 299, 245
 295, 301, 244, 243
 296, 312, 243, 242
 297, 311, 241, 306
 298, 415, 414, 349
 299, 302,  94,  95
 300, 429, 363, 383
 301, 303,  92,  93
 302, 602, 511, 562
 303, 320, 253, 254
 304, 304, 295,  91
 305, 307, 305, 235
 306, 375, 372, 305
 307, 306, 241, 240
 308, 310, 240, 239
 309, 343, 342, 263
 310, 379, 375, 307
 311, 368, 367, 309
 312, 308, 238, 237
 313, 406, 339, 404
 314, 310, 239, 309
 315, 373, 306, 371
 316, 310, 306, 240
 317, 519, 518, 459
 318, 312, 242, 311
 319, 374, 312, 370
 320, 312, 301, 243
 321, 380, 313, 377
 322, 313, 298, 247
 323, 314, 207, 208
 324, 315, 205, 209
 325, 346, 267, 274
 326, 317, 314, 315
 327, 316, 277, 278
 328, 316, 231, 281
 329, 329, 257, 255
 330, 327, 256, 317
 331, 318, 289, 290
 332, 318, 248, 298
 333, 319, 209, 250
 334, 384, 267, 346
 335, 330, 320, 254
 336, 395, 385, 330
 337, 322,  17,  18
 338, 322, 321,  17
 339, 393, 253, 320
 340, 393, 386, 322
 341, 454, 323, 390
 342, 323,  15,  16
 343, 325, 259, 324
 344, 324, 259, 252
 345, 389, 325, 324
 346, 325, 251, 259
 347, 589, 489, 541
 348, 326, 258, 251
 349, 727, 384, 382
 350, 329, 328, 257
 351, 345, 266, 341
 352, 328, 324, 252
 353, 347, 346, 274
 354, 347, 264, 345
 355, 330, 254, 199
 356, 395, 258, 326
 357, 396, 348, 331
 358, 331, 260, 269
 359, 332, 276,  51
 360, 407, 277, 316
 361, 333, 261, 275
 362, 418, 357, 417
 363, 334, 331, 269
 364, 334, 261, 333
 365, 335, 262, 271
 366, 337, 271, 268
 367, 410, 276, 332
 368, 358, 287, 354
 369, 339, 268, 265
 370, 433, 432, 368
 371, 338, 265, 279
 372, 413, 279, 348
 373, 406, 405, 337
 374, 339, 337, 268
 375, 372, 369, 297
 376, 340, 273, 262
 377, 342, 270, 263
 378, 342, 341, 270
 379, 343, 263, 272
 380, 630, 543, 589
 381, 344, 343, 272
 382, 401, 343, 399
 383, 409, 340, 408
 384, 442, 439, 375
 385, 456, 387, 327
 386, 345, 264, 266
 387, 397, 346, 347
 388, 347, 274, 264
 389, 389, 388, 325
 390, 508, 397, 471
 391, 348, 279, 210
 392, 348, 260, 331
 393, 414, 361, 349
 394, 349, 280, 285
 395, 352, 288, 350
 396, 350, 288, 293
 397, 351, 349, 285
 398, 352, 284, 288
 399, 426, 420, 353
 400, 377, 313, 299
 401, 426, 318, 298
 402, 431, 377, 378
 403, 356, 291, 292
 404, 355, 292, 282
 405, 398, 396, 331
 406, 357, 282, 283
 407, 356, 354, 291
 408, 356, 292, 355
 409, 360, 286, 294
 410, 417, 359, 416
 411, 475, 474, 407
 412, 358, 281, 287
 413, 360, 359, 286
 414, 416, 359, 360
 415, 425, 294, 361
 416, 438, 370, 430
 417, 361, 294, 223
 418, 361, 280, 349
 419, 362, 296, 233
 420, 381, 295, 304
 421, 365, 363,  96
 422, 383, 363, 365
 423, 364,  93,  94
 424, 445, 302, 429
 425, 365,  96,  97
 426, 383, 365, 198
 427, 366, 304, 303
 428, 603, 555, 602
 429, 367, 310, 309
 430, 368, 309, 308
 431, 369, 308, 297
 432, 596, 592, 544
 433, 372, 297, 305
 434, 468, 405, 464
 435, 370, 312, 311
 436, 373, 311, 306
 437, 437, 367, 432
 438, 437, 371, 367
 439, 375, 305, 307
 440, 468, 408, 405
 441, 681, 650, 680
 442, 373, 370, 311
 443, 436, 431, 378
 444, 374, 301, 312
 445, 379, 307, 296
 446, 439, 435, 372
 447, 441, 420, 380
 448, 376, 300, 301
 449, 441, 380, 377
 450, 378, 299, 300
 451, 481, 415, 478
 452, 483, 422, 421
 453, 428, 296, 362
 454, 401, 400, 342
 455, 426, 380, 420
 456, 380, 298, 313
 457, 381, 362, 295
 458, 381, 304, 366
 459, 456, 317, 382
 460, 382, 317, 315
 461, 391, 383, 198
 462, 502, 487, 427
 463, 384, 319, 267
 464, 446, 346, 397
 465, 385, 320, 330
 466, 457, 447, 395
 467, 455, 448, 393
 468, 505, 383, 454
 469, 392, 329, 387
 470, 387, 329, 327
 471, 388, 326, 325
 472, 452, 389, 394
 473, 394, 328, 392
 474, 453, 452, 394
 475, 454, 391, 323
 476, 390, 323, 321
 477, 391, 198,  14
 478, 391,  14,  15
 479, 506, 387, 456
 480, 412, 411, 345
 481, 393, 322, 253
 482, 455, 320, 385
 483, 412, 341, 400
 484, 394, 389, 324
 485, 395, 330, 258
 486, 457, 326, 388
 487, 458, 413, 396
 488, 398, 331, 334
 489, 411, 347, 345
 490, 412, 345, 341
 491, 402, 334, 333
 492, 518, 517, 458
 493, 399, 343, 344
 494, 409, 344, 340
 495, 400, 341, 342
 496, 401, 342, 343
 497, 501, 499, 439
 498, 462, 401, 461
 499, 403, 333, 336
 500, 480, 418, 477
 501, 469, 336, 410
 502, 424, 358, 354
 503, 404, 339, 338
 504, 472, 338, 413
 505, 405, 335, 337
 506, 406, 337, 339
 507, 437, 434, 371
 508, 465, 464, 406
 509, 407, 332, 277
 510, 475, 316, 281
 511, 435, 433, 369
 512, 408, 340, 335
 513, 466, 461, 399
 514, 409, 399, 344
 515, 410, 336, 276
 516, 410, 332, 407
 517, 471, 397, 411
 518, 411, 397, 347
 519, 514, 453, 513
 520, 473, 412, 467
 521, 413, 338, 279
 522, 413, 348, 396
 523, 476, 425, 414
 524, 415, 349, 351
 525, 422, 351, 352
 526, 483, 478, 422
 527, 486, 360, 425
 528, 440, 374, 438
 529, 460, 459, 398
 530, 417, 357, 359
 531, 463, 460, 402
 532, 418, 355, 357
 533, 484, 424, 419
 534, 423, 419, 356
 535, 421, 350, 420
 536, 420, 350, 353
 537, 494, 483, 485
 538, 421, 352, 350
 539, 422, 415, 351
 540, 422, 352, 421
 541, 423, 356, 355
 542, 477, 418, 417
 543, 572, 484, 526
 544, 424, 354, 419
 545, 425, 360, 294
 546, 425, 361, 414
 547, 426, 353, 318
 548, 426, 298, 380
 549, 427, 366, 303
 550, 445, 364, 302
 551, 428, 379, 296
 552, 444, 362, 381
 553, 429, 302, 363
 554, 507, 504, 505
 555, 430, 370, 373
 556, 434, 373, 371
 557, 436, 378, 376
 558, 440, 376, 374
 559, 432, 367, 368
 560, 433, 368, 369
 561, 435, 369, 372
 562, 496, 490, 433
 563, 492, 491, 430
 564, 434, 430, 373
 565, 439, 372, 375
 566, 470, 408, 468
 567, 438, 374, 370
 568, 500, 440, 498
 569, 493, 432, 490
 570, 493, 437, 432
 571, 548, 491, 545
 572, 605, 590, 551
 573, 442, 375, 379
 574, 499, 496, 435
 575, 498, 438, 491
 576, 440, 436, 376
 577, 485, 420, 441
 578, 441, 377, 431
 579, 488, 379, 428
 580, 664, 601, 630
 581, 443, 381, 366
 582, 675, 643, 646
 583, 444, 428, 362
 584, 444, 381, 443
 585, 449, 386, 448
 586, 445, 427, 364
 587, 446, 382, 384
 588, 446, 384, 346
 589, 447, 385, 395
 590, 516, 509, 457
 591, 448, 386, 393
 592, 515, 510, 455
 593, 558, 554, 504
 594, 449, 390, 386
 595, 450, 388, 389
 596, 514, 452, 453
 597, 453, 392, 451
 598, 451, 392, 387
 599, 523, 461, 522
 600, 452, 450, 389
 601, 642, 604, 641
 602, 467, 400, 462
 603, 507, 505, 454
 604, 454, 383, 391
 605, 455, 393, 320
 606, 515, 385, 447
 607, 456, 327, 317
 608, 506, 382, 446
 609, 457, 395, 326
 610, 516, 388, 450
 611, 517, 472, 458
 612, 459, 396, 398
 613, 460, 398, 402
 614, 520, 519, 460
 615, 463, 402, 403
 616, 569, 568, 518
 617, 461, 401, 399
 618, 466, 399, 409
 619, 557, 513, 451
 620, 462, 400, 401
 621, 526, 403, 469
 622, 482, 423, 480
 623, 464, 405, 406
 624, 465, 406, 404
 625, 530, 404, 472
 626, 495, 437, 493
 627, 470, 409, 408
 628, 576, 571, 522
 629, 473, 471, 411
 630, 467, 412, 400
 631, 525, 464, 521
 632, 528, 468, 525
 633, 469, 403, 336
 634, 474, 469, 410
 635, 528, 470, 468
 636, 470, 466, 409
 637, 508, 506, 446
 638, 473, 411, 412
 639, 472, 404, 338
 640, 472, 413, 458
 641, 575, 523, 571
 642, 534, 471, 473
 643, 474, 410, 407
 644, 474, 358, 424
 645, 475, 281, 358
 646, 475, 358, 474
 647, 531, 486, 476
 648, 481, 414, 415
 649, 479, 417, 416
 650, 479, 477, 417
 651, 478, 415, 422
 652, 536, 483, 494
 653, 540, 416, 486
 654, 491, 438, 430
 655, 532, 480, 477
 656, 480, 423, 418
 657, 551, 497, 500
 658, 481, 476, 414
 659, 573, 520, 463
 660, 482, 419, 423
 661, 485, 483, 421
 662, 494, 441, 431
 663, 573, 484, 537
 664, 484, 419, 482
 665, 485, 421, 420
 666, 494, 485, 441
 667, 486, 416, 360
 668, 486, 425, 476
 669, 487, 443, 366
 670, 502, 427, 445
 671, 488, 442, 379
 672, 503, 428, 444
 673, 489, 444, 443
 674, 676, 644, 643
 675, 490, 432, 433
 676, 496, 433, 435
 677, 492, 430, 434
 678, 568, 567, 517
 679, 495, 434, 437
 680, 594, 546, 593
 681, 546, 545, 492
 682, 547, 493, 544
 683, 497, 431, 436
 684, 497, 494, 431
 685, 547, 495, 493
 686, 495, 492, 434
 687, 499, 435, 439
 688, 528, 527, 470
 689, 500, 436, 440
 690, 498, 440, 438
 691, 585, 580, 531
 692, 633, 593, 632
 693, 501, 439, 442
 694, 553, 550, 499
 695, 552, 551, 500
 696, 500, 497, 436
 697, 542, 442, 488
 698, 725, 714, 703
 699, 504, 502, 445
 700, 511, 448, 510
 701, 503, 488, 428
 702, 503, 444, 489
 703, 504, 445, 429
 704, 505, 504, 429
 705, 505, 429, 383
 706, 507, 454, 390
 707, 508, 446, 397
 708, 557, 387, 506
 709, 507, 390, 449
 710, 602, 558, 511
 711, 559, 471, 534
 712, 559, 508, 471
 713, 509, 447, 457
 714, 566, 561, 516
 715, 510, 448, 455
 716, 565, 560, 515
 717, 562, 510, 560
 718, 511, 449, 448
 719, 512, 450, 452
 720, 564, 514, 513
 721, 513, 453, 451
 722, 529, 467, 524
 723, 524, 462, 523
 724, 514, 512, 452
 725, 515, 455, 385
 726, 565, 447, 509
 727, 516, 457, 388
 728, 566, 450, 512
 729, 567, 530, 517
 730, 518, 458, 459
 731, 519, 459, 460
 732, 570, 569, 519
 733, 520, 460, 463
 734, 581, 532, 533
 735, 584, 573, 537
 736, 535, 480, 532
 737, 521, 464, 465
 738, 582, 465, 530
 739, 522, 461, 466
 740, 527, 466, 470
 741, 564, 563, 514
 742, 523, 462, 461
 743, 621, 575, 617
 744, 524, 467, 462
 745, 549, 544, 490
 746, 525, 468, 464
 747, 526, 463, 403
 748, 572, 469, 474
 749, 550, 549, 496
 750, 527, 522, 466
 751, 579, 525, 574
 752, 579, 528, 525
 753, 577, 524, 575
 754, 529, 473, 467
 755, 530, 465, 404
 756, 530, 472, 517
 757, 580, 540, 531
 758, 539, 476, 481
 759, 533, 477, 479
 760, 533, 532, 477
 761, 588, 479, 540
 762, 595, 545, 594
 763, 559, 557, 508
 764, 534, 473, 529
 765, 584, 570, 520
 766, 535, 482, 480
 767, 538, 478, 536
 768, 536, 478, 483
 769, 537, 484, 482
 770, 537, 482, 535
 771, 539, 481, 538
 772, 538, 481, 478
 773, 552, 498, 548
 774, 539, 531, 476
 775, 540, 479, 416
 776, 540, 486, 531
 777, 541, 489, 443
 778, 555, 487, 502
 779, 542, 501, 442
 780, 556, 488, 503
 781, 543, 503, 489
 782, 674, 640, 603
 783, 544, 493, 490
 784, 549, 490, 496
 785, 545, 491, 492
 786, 546, 492, 495
 787, 547, 546, 495
 788, 651, 625, 613
 789, 650, 614, 649
 790, 593, 547, 592
 791, 586, 585, 539
 792, 548, 498, 491
 793, 550, 496, 499
 794, 578, 576, 527
 795, 553, 499, 501
 796, 639, 638, 598
 797, 605, 536, 590
 798, 552, 500, 498
 799, 635, 594, 633
 800, 597, 548, 595
 801, 591, 501, 542
 802, 618, 617, 571
 803, 554, 502, 504
 804, 558, 504, 507
 805, 555, 541, 487
 806, 555, 502, 554
 807, 604, 556, 601
 808, 556, 542, 488
 809, 557, 451, 387
 810, 557, 506, 508
 811, 558, 507, 449
 812, 558, 449, 511
 813, 609, 564, 513
 814, 559, 513, 557
 815, 560, 510, 515
 816, 725, 722, 714
 817, 561, 509, 516
 818, 612, 607, 566
 819, 608, 560, 606
 820, 562, 511, 510
 821, 563, 512, 514
 822, 656, 654, 617
 823, 609, 513, 559
 824, 587, 534, 529
 825, 565, 515, 447
 826, 611, 509, 561
 827, 566, 516, 450
 828, 612, 512, 563
 829, 613, 582, 567
 830, 568, 517, 518
 831, 569, 518, 519
 832, 616, 615, 569
 833, 570, 519, 520
 834, 619, 616, 583
 835, 584, 520, 573
 836, 583, 535, 532
 837, 571, 523, 522
 838, 576, 522, 527
 839, 572, 474, 424
 840, 572, 424, 484
 841, 573, 463, 526
 842, 573, 526, 484
 843, 574, 525, 521
 844, 625, 521, 582
 845, 610, 564, 587
 846, 575, 524, 523
 847, 578, 527, 528
 848, 599, 598, 550
 849, 629, 587, 577
 850, 577, 529, 524
 851, 579, 578, 528
 852, 598, 596, 549
 853, 634, 632, 592
 854, 662, 659, 626
 855, 620, 588, 580
 856, 585, 531, 539
 857, 615, 614, 568
 858, 628, 533, 588
 859, 582, 521, 465
 860, 582, 530, 567
 861, 616, 584, 583
 862, 583, 532, 581
 863, 584, 537, 535
 864, 584, 535, 583
 865, 586, 539, 538
 866, 717, 706, 702
 867, 605, 538, 536
 868, 600, 551, 552
 869, 609, 587, 564
 870, 587, 529, 577
 871, 588, 533, 479
 872, 588, 540, 580
 873, 589, 543, 489
 874, 674, 562, 608
 875, 590, 536, 494
 876, 590, 497, 551
 877, 591, 553, 501
 878, 604, 542, 556
 879, 592, 547, 544
 880, 596, 544, 549
 881, 614, 613, 567
 882, 593, 546, 547
 883, 653, 652, 620
 884, 594, 545, 546
 885, 627, 624, 585
 886, 595, 548, 545
 887, 598, 549, 550
 888, 638, 634, 596
 889, 701, 679, 655
 890, 597, 552, 548
 891, 599, 550, 553
 892, 626, 579, 623
 893, 631, 553, 591
 894, 622, 618, 576
 895, 663, 605, 551
 896, 600, 552, 597
 897, 601, 556, 543
 898, 696, 640, 644
 899, 602, 555, 554
 900, 602, 554, 558
 901, 603, 589, 541
 902, 603, 541, 555
 903, 647, 645, 612
 904, 604, 591, 542
 905, 663, 551, 600
 906, 605, 586, 538
 907, 606, 560, 565
 908, 611, 606, 565
 909, 607, 561, 566
 910, 708, 661, 654
 911, 674, 608, 640
 912, 608, 562, 560
 913, 609, 559, 534
 914, 609, 534, 587
 915, 610, 563, 564
 916, 654, 621, 617
 917, 611, 565, 509
 918, 646, 561, 607
 919, 612, 566, 512
 920, 647, 563, 610
 921, 625, 582, 613
 922, 614, 567, 568
 923, 615, 568, 569
 924, 702, 682, 684
 925, 616, 569, 570
 926, 648, 616, 619
 927, 616, 570, 584
 928, 619, 583, 581
 929, 617, 575, 571
 930, 618, 571, 576
 931, 622, 576, 578
 932, 673, 642, 672
 933, 657, 581, 628
 934, 657, 648, 619
 935, 652, 628, 620
 936, 624, 580, 585
 937, 661, 629, 621
 938, 621, 577, 575
 939, 626, 578, 579
 940, 658, 656, 618
 941, 623, 579, 574
 942, 660, 574, 625
 943, 627, 585, 586
 944, 636, 595, 635
 945, 625, 574, 521
 946, 651, 613, 650
 947, 720, 712, 711
 948, 626, 622, 578
 949, 663, 627, 586
 950, 637, 600, 597
 951, 628, 581, 533
 952, 628, 588, 620
 953, 629, 610, 587
 954, 629, 577, 621
 955, 630, 601, 543
 956, 640, 630, 589
 957, 631, 599, 553
 958, 642, 591, 604
 959, 632, 593, 592
 960, 634, 592, 596
 961, 649, 615, 648
 962, 633, 594, 593
 963, 638, 596, 598
 964, 717, 716, 706
 965, 655, 627, 637
 966, 635, 595, 594
 967, 717, 702, 704
 968, 636, 597, 595
 969, 663, 637, 627
 970, 637, 597, 636
 971, 639, 598, 599
 972, 670, 667, 634
 973, 665, 599, 631
 974, 659, 658, 622
 975, 640, 589, 603
 976, 644, 606, 643
 977, 641, 604, 601
 978, 691, 664, 676
 979, 722, 721, 699
 980, 642, 631, 591
 981, 643, 606, 611
 982, 646, 643, 611
 983, 644, 640, 608
 984, 644, 608, 606
 985, 645, 607, 612
 986, 677, 647, 661
 987, 646, 611, 561
 988, 678, 607, 645
 989, 647, 612, 563
 990, 661, 610, 629
 991, 648, 615, 616
 992, 702, 690, 682
 993, 668, 633, 666
 994, 649, 614, 615
 995, 694, 666, 693
 996, 650, 613, 614
 997, 667, 666, 632
 998, 660, 625, 651
 999, 653, 620, 624
1000, 695, 669, 668
1001, 655, 653, 624
1002, 669, 635, 668
1003, 656, 617, 618
1004, 725, 723, 722
1005, 655, 624, 627
1006, 701, 637, 636
1007, 658, 618, 622
1008, 720, 711, 715
1009, 657, 619, 581
1010, 657, 628, 652
1011, 659, 622, 626
1012, 688, 659, 687
1013, 662, 626, 623
1014, 715, 698, 671
1015, 683, 651, 681
1016, 660, 623, 574
1017, 661, 647, 610
1018, 661, 621, 654
1019, 685, 623, 660
1020, 671, 670, 638
1021, 663, 600, 637
1022, 663, 586, 605
1023, 664, 641, 601
1024, 696, 676, 664
1025, 665, 639, 599
1026, 673, 631, 642
1027, 666, 633, 632
1028, 667, 632, 634
1029, 670, 634, 638
1030, 685, 660, 683
1031, 682, 648, 657
1032, 668, 635, 633
1033, 701, 669, 679
1034, 669, 636, 635
1035, 671, 638, 639
1036, 718, 707, 716
1037, 692, 639, 665
1038, 710, 685, 709
1039, 672, 642, 641
1040, 691, 641, 664
1041, 689, 658, 688
1042, 673, 665, 631
1043, 674, 603, 602
1044, 674, 602, 562
1045, 726, 676, 675
1046, 678, 675, 646
1047, 696, 664, 630
1048, 676, 643, 675
1049, 677, 645, 647
1050, 723, 713, 722
1051, 678, 646, 607
1052, 705, 645, 677
1053, 684, 653, 679
1054, 679, 653, 655
1055, 680, 650, 649
1056, 690, 648, 682
1057, 718, 709, 707
1058, 681, 651, 650
1059, 682, 657, 652
1060, 684, 682, 652
1061, 697, 693, 667
1062, 683, 660, 651
1063, 684, 652, 653
1064, 695, 679, 669
1065, 719, 710, 709
1066, 685, 662, 623
1067, 686, 654, 656
1068, 689, 656, 658
1069, 687, 659, 662
1070, 710, 662, 685
1071, 700, 673, 699
1072, 688, 658, 659
1073, 721, 712, 720
1074, 689, 686, 656
1075, 690, 680, 649
1076, 690, 649, 648
1077, 703, 675, 678
1078, 691, 672, 641
1079, 692, 671, 639
1080, 700, 665, 673
1081, 693, 666, 667
1082, 697, 667, 670
1083, 716, 707, 706
1084, 694, 668, 666
1085, 704, 679, 695
1086, 695, 668, 694
1087, 696, 630, 640
1088, 696, 644, 676
1089, 698, 697, 670
1090, 719, 709, 718
1091, 698, 670, 671
1092, 724, 715, 711
1093, 699, 673, 672
1094, 714, 672, 691
1095, 721, 713, 712
1096, 700, 692, 665
1097, 701, 655, 637
1098, 701, 636, 669
1099, 702, 680, 690
1100, 704, 702, 684
1101, 726, 703, 714
1102, 705, 703, 678
1103, 704, 684, 679
1104, 717, 704, 695
1105, 705, 678, 645
1106, 708, 705, 677
1107, 706, 681, 680
1108, 706, 680, 702
1109, 707, 683, 681
1110, 707, 681, 706
1111, 708, 677, 661
1112, 708, 654, 686
1113, 709, 685, 683
1114, 709, 683, 707
1115, 724, 710, 719
1116, 710, 687, 662
1117, 711, 688, 687
1118, 724, 711, 687
1119, 712, 689, 688
1120, 712, 688, 711
1121, 713, 686, 689
1122, 713, 689, 712
1123, 714, 699, 672
1124, 726, 714, 691
1125, 715, 671, 692
1126, 720, 715, 692
1127, 716, 694, 693
1128, 718, 716, 693
1129, 717, 695, 694
1130, 717, 694, 716
1131, 718, 693, 697
1132, 719, 718, 697
1133, 719, 697, 698
1134, 724, 719, 698
1135, 720, 692, 700
1136, 721, 720, 700
1137, 721, 700, 699
1138, 722, 699, 714
1139, 723, 705, 708
1140, 722, 713, 721
1141, 723, 708, 686
1142, 723, 686, 713
1143, 724, 698, 715
1144, 724, 687, 710
1145, 725, 703, 705
1146, 725, 705, 723
1147, 726, 691, 676
1148, 726, 675, 703
1149, 727, 315, 209
1150, 727, 319, 384
1151, 730,   2,  28
1152, 923, 895, 922
1153, 835, 790, 834
1154, 763, 123, 762
1155, 786, 125, 126
1156,  13,   1,  98
1157, 732,  13,  98
1158, 771, 100, 770
1159, 733,  15,  14
1160, 734,  16,  15
1161, 735,  17,  16
1162, 905, 876, 904
1163, 737,  18, 736
1164, 738,  19, 737
1165, 908, 907, 879
1166, 740,  22, 731
1167, 741,  23, 740
1168, 742,  24, 741
1169, 743,  25, 742
1170, 729, 728, 135
1171, 744,  27,  26
1172, 107,   6, 108
1173, 761, 108, 109
1174, 794, 759, 758
1175, 795, 794, 758
1176, 796, 795, 757
1177, 807, 104, 105
1178, 849, 848, 794
1179, 881, 850, 876
1180, 813, 769, 808
1181, 856,  98,  99
1182, 126, 125,   7
1183, 819, 786, 788
1184, 792, 125, 786
1185, 787, 747, 748
1186, 805, 763, 801
1187, 806, 766, 765
1188, 781, 740, 773
1189, 842, 838, 797
1190, 752, 118, 751
1191, 753, 117, 752
1192, 839, 802, 838
1193, 799, 755, 793
1194, 755, 115, 754
1195, 757, 113, 756
1196, 758, 112, 757
1197, 759, 111, 758
1198, 760, 110, 759
1199, 761, 109, 760
1200, 788, 786, 127
1201, 789, 129, 747
1202, 747, 129, 130
1203, 748, 747, 130
1204, 750, 132, 133
1205, 750, 133, 746
1206, 749, 748, 131
1207, 746,   8, 134
1208, 730, 729, 136
1209, 728, 134, 135
1210, 729, 135, 136
1211, 744,  26, 743
1212, 829, 780, 826
1213, 730, 136,   2
1214, 745,  28,  27
1215, 731,  22,  21
1216, 739,  21,  20
1217, 733,  14, 732
1218, 732,  14,  13
1219, 770, 101, 769
1220, 734,  15, 733
1221, 769, 102, 768
1222, 735,  16, 734
1223, 768, 103, 767
1224, 736,  17, 735
1225, 756, 114, 755
1226, 736,  18,  17
1227, 754, 116, 753
1228, 737,  19,  18
1229, 739,  20, 738
1230, 738,  20,  19
1231, 823, 822, 773
1232, 739, 731,  21
1233, 765, 120, 121
1234, 740,  23,  22
1235, 765, 121, 764
1236, 741,  24,  23
1237, 764, 122, 763
1238, 742,  25,  24
1239, 778, 744, 743
1240, 743,  26,  25
1241, 779, 744, 778
1242, 745,  27, 744
1243, 814, 730, 745
1244, 745, 730,  28
1245, 746, 133,   8
1246, 746, 134, 728
1247, 833, 819, 788
1248, 748, 130, 131
1249, 749, 131, 132
1250, 790, 787, 748
1251, 750, 749, 132
1252, 791, 750, 772
1253, 772, 746, 728
1254, 772, 750, 746
1255, 751, 118, 119
1256, 766, 119, 120
1257, 802, 752, 797
1258, 752, 117, 118
1259, 907, 906, 877
1260, 753, 116, 117
1261, 827, 824, 783
1262, 754, 115, 116
1263, 847, 799, 841
1264, 755, 114, 115
1265, 873, 830, 785
1266, 756, 113, 114
1267, 855, 816, 837
1268, 757, 112, 113
1269, 810, 807, 105
1270, 758, 111, 112
1271, 803, 759, 794
1272, 759, 110, 111
1273, 816, 760, 803
1274, 760, 109, 110
1275, 811, 107, 761
1276, 761, 107, 108
1277, 762, 123, 124
1278, 819, 792, 786
1279, 817, 729, 814
1280, 763, 122, 123
1281, 780, 742, 774
1282, 764, 121, 122
1283, 780, 778, 743
1284, 766, 120, 765
1285, 806, 765, 800
1286, 766, 751, 119
1287, 785, 734, 733
1288, 767, 103, 104
1289, 785, 777, 734
1290, 768, 102, 103
1291, 808, 769, 768
1292, 769, 101, 102
1293, 856, 815, 732
1294, 770, 100, 101
1295, 856, 771, 815
1296, 771,  99, 100
1297, 791, 749, 750
1298, 818, 729, 817
1299, 773, 740, 731
1300, 782, 731, 739
1301, 774, 742, 741
1302, 781, 774, 741
1303, 775, 739, 738
1304, 783, 738, 737
1305, 776, 737, 736
1306, 784, 736, 735
1307, 777, 735, 734
1308, 813, 809, 770
1309, 890, 820, 858
1310, 780, 743, 742
1311, 941, 814, 779
1312, 779, 745, 744
1313, 806, 804, 766
1314, 826, 774, 821
1315, 781, 741, 740
1316, 822, 821, 781
1317, 782, 773, 731
1318, 782, 739, 775
1319, 783, 775, 738
1320, 783, 737, 776
1321, 784, 776, 736
1322, 784, 735, 777
1323, 815, 785, 733
1324, 809, 771, 770
1325, 786, 126, 127
1326, 788, 127, 128
1327, 928, 872, 871
1328, 790, 748, 749
1329, 789, 128, 129
1330, 789, 788, 128
1331, 836, 747, 787
1332, 874, 819, 833
1333, 791, 790, 749
1334, 941, 779, 828
1335, 858, 818, 817
1336, 820, 791, 772
1337, 792, 762, 124
1338, 792, 124, 125
1339, 793, 755, 754
1340, 798, 754, 753
1341, 812, 808, 768
1342, 795, 758, 757
1343, 796, 757, 756
1344, 832, 831, 784
1345, 799, 796, 756
1346, 850, 796, 847
1347, 797, 752, 751
1348, 804, 751, 766
1349, 798, 793, 754
1350, 802, 798, 753
1351, 799, 756, 755
1352, 841, 793, 840
1353, 800, 765, 764
1354, 805, 764, 763
1355, 801, 763, 762
1356, 819, 801, 762
1357, 802, 753, 752
1358, 865, 822, 863
1359, 857, 837, 848
1360, 803, 760, 759
1361, 869, 867, 826
1362, 804, 797, 751
1363, 890, 870, 834
1364, 805, 800, 764
1365, 829, 828, 778
1366, 939, 925, 937
1367, 807, 767, 104
1368, 810, 105, 106
1369, 852, 813, 808
1370, 812, 768, 767
1371, 873, 815, 809
1372, 813, 770, 769
1373, 811, 810, 106
1374, 816, 811, 761
1375, 811, 106, 107
1376, 816, 761, 760
1377, 851, 767, 807
1378, 848, 837, 803
1379, 853, 852, 808
1380, 854, 809, 813
1381, 814, 729, 730
1382, 814, 745, 779
1383, 815, 733, 732
1384, 815, 771, 809
1385, 837, 816, 803
1386, 816, 810, 811
1387, 818, 728, 729
1388, 828, 779, 778
1389, 820, 772, 818
1390, 818, 772, 728
1391, 819, 762, 792
1392, 833, 788, 789
1393, 941, 902, 858
1394, 834, 791, 820
1395, 821, 774, 781
1396, 822, 781, 773
1397, 823, 773, 782
1398, 897, 863, 895
1399, 825, 782, 775
1400, 840, 798, 839
1401, 824, 775, 783
1402, 827, 783, 776
1403, 825, 823, 782
1404, 825, 775, 824
1405, 844, 806, 843
1406, 826, 780, 774
1407, 831, 776, 784
1408, 931, 929, 919
1409, 829, 778, 780
1410, 891, 890, 858
1411, 883, 844, 880
1412, 913, 909, 880
1413, 832, 777, 830
1414, 830, 777, 785
1415, 831, 827, 776
1416, 832, 784, 777
1417, 868, 861, 832
1418, 861, 859, 831
1419, 836, 833, 789
1420, 928, 903, 914
1421, 845, 843, 800
1422, 834, 790, 791
1423, 846, 845, 805
1424, 835, 787, 790
1425, 836, 789, 747
1426, 871, 787, 835
1427, 857, 855, 837
1428, 848, 803, 794
1429, 838, 802, 797
1430, 842, 797, 804
1431, 864, 863, 823
1432, 839, 798, 802
1433, 866, 824, 860
1434, 840, 793, 798
1435, 860, 827, 859
1436, 841, 799, 793
1437, 844, 804, 806
1438, 869, 821, 865
1439, 843, 806, 800
1440, 845, 800, 805
1441, 867, 862, 829
1442, 844, 842, 804
1443, 846, 805, 801
1444, 928, 846, 872
1445, 874, 872, 846
1446, 872, 833, 836
1447, 920, 892, 919
1448, 847, 796, 799
1449, 887, 851, 857
1450, 849, 794, 795
1451, 850, 849, 795
1452, 942, 931, 940
1453, 850, 795, 796
1454, 876, 847, 875
1455, 851, 812, 767
1456, 855, 851, 807
1457, 888, 852, 853
1458, 853, 808, 812
1459, 887, 812, 851
1460, 940, 931, 919
1461, 873, 854, 830
1462, 854, 813, 852
1463, 855, 807, 810
1464, 855, 810, 816
1465, 856, 732,  98
1466, 856,  99, 771
1467, 857, 851, 855
1468, 885, 849, 881
1469, 858, 820, 818
1470, 902, 862, 891
1471, 859, 827, 831
1472, 861, 831, 832
1473, 877, 875, 841
1474, 860, 824, 827
1475, 868, 832, 830
1476, 898, 893, 861
1477, 862, 828, 829
1478, 867, 829, 826
1479, 863, 822, 823
1480, 864, 823, 825
1481, 866, 864, 825
1482, 922, 896, 921
1483, 882, 878, 838
1484, 865, 821, 822
1485, 866, 825, 824
1486, 894, 860, 892
1487, 869, 826, 821
1488, 901, 869, 900
1489, 868, 830, 854
1490, 889, 854, 852
1491, 900, 865, 897
1492, 883, 882, 842
1493, 886, 845, 884
1494, 870, 835, 834
1495, 871, 836, 787
1496, 903, 835, 870
1497, 874, 846, 801
1498, 872, 836, 871
1499, 873, 785, 815
1500, 873, 809, 854
1501, 874, 801, 819
1502, 874, 833, 872
1503, 875, 847, 841
1504, 877, 841, 840
1505, 893, 892, 859
1506, 876, 850, 847
1507, 879, 840, 839
1508, 896, 866, 894
1509, 878, 839, 838
1510, 882, 838, 842
1511, 879, 877, 840
1512, 879, 839, 878
1513, 880, 844, 843
1514, 886, 843, 845
1515, 916, 912, 915
1516, 881, 849, 850
1517, 883, 842, 844
1518, 924, 897, 923
1519, 937, 925, 935
1520, 911, 910, 882
1521, 928, 914, 884
1522, 884, 845, 846
1523, 885, 857, 848
1524, 885, 848, 849
1525, 938, 914, 927
1526, 886, 880, 843
1527, 887, 853, 812
1528, 916, 857, 885
1529, 898, 868, 889
1530, 915, 853, 887
1531, 889, 868, 854
1532, 889, 852, 888
1533, 890, 834, 820
1534, 902, 891, 858
1535, 918, 862, 899
1536, 917, 890, 891
1537, 892, 860, 859
1538, 893, 859, 861
1539, 898, 861, 868
1540, 929, 920, 919
1541, 906, 904, 875
1542, 894, 866, 860
1543, 895, 863, 864
1544, 896, 895, 864
1545, 896, 864, 866
1546, 921, 894, 920
1547, 910, 908, 878
1548, 897, 865, 863
1549, 898, 889, 888
1550, 942, 940, 898
1551, 899, 862, 867
1552, 901, 867, 869
1553, 911, 883, 909
1554, 900, 869, 865
1555, 926, 900, 924
1556, 901, 899, 867
1557, 941, 858, 817
1558, 902, 828, 862
1559, 903, 871, 835
1560, 939, 917, 918
1561, 904, 876, 875
1562, 906, 875, 877
1563, 931, 905, 929
1564, 905, 881, 876
1565, 907, 877, 879
1566, 930, 921, 920
1567, 908, 879, 878
1568, 932, 922, 921
1569, 910, 878, 882
1570, 933, 923, 922
1571, 909, 883, 880
1572, 913, 880, 886
1573, 911, 882, 883
1574, 934, 924, 923
1575, 935, 925, 926
1576, 926, 925, 901
1577, 912, 885, 881
1578, 912, 881, 905
1579, 914, 913, 886
1580, 939, 937, 938
1581, 914, 886, 884
1582, 927, 903, 870
1583, 915, 888, 853
1584, 916, 915, 887
1585, 916, 887, 857
1586, 916, 885, 912
1587, 917, 870, 890
1588, 918, 917, 891
1589, 918, 891, 862
1590, 925, 918, 899
1591, 919, 892, 893
1592, 940, 893, 898
1593, 930, 920, 929
1594, 920, 894, 892
1595, 932, 921, 930
1596, 921, 896, 894
1597, 933, 922, 932
1598, 922, 895, 896
1599, 934, 923, 933
1600, 923, 897, 895
1601, 936, 924, 934
1602, 924, 900, 897
1603, 925, 899, 901
1604, 926, 901, 900
1605, 936, 935, 926
1606, 936, 926, 924
1607, 927, 914, 903
1608, 927, 870, 917
1609, 928, 884, 846
1610, 928, 871, 903
1611, 929, 905, 904
1612, 930, 929, 904
1613, 930, 904, 906
1614, 932, 930, 906
1615, 931, 915, 912
1616, 931, 912, 905
1617, 932, 906, 907
1618, 933, 932, 907
1619, 933, 907, 908
1620, 934, 933, 908
1621, 934, 908, 910
1622, 936, 934, 910
1623, 935, 911, 909
1624, 937, 935, 909
1625, 936, 910, 911
1626, 936, 911, 935
1627, 937, 909, 913
1628, 938, 937, 913
1629, 938, 913, 914
1630, 939, 938, 927
1631, 939, 927, 917
1632, 939, 918, 925
1633, 940, 919, 893
1634, 942, 898, 888
1635, 941, 817, 814
1636, 941, 828, 902
1637, 942, 888, 915
1638, 942, 915, 931
1639,  943,    9,  137
1640, 1000,  947,  946
1641, 1015,  962, 1013
1642,  977,  162,  972
1643, 1016,  958, 1007
1644,  142,  141,   10
1645,  944,  141,  142
1646,  985,  144,  984
1647,  945,  139,  140
1648,  947,  137,  138
1649,  166,   11,  167
1650,  998,  166,  167
1651, 1025,  166,  998
1652,  976,  164,  975
1653, 1046,  172,  994
1654, 1002,   54,   53
1655,  964,   52,  951
1656,  965,   51,   50
1657, 1142, 1121, 1089
1658,  966,   50,   49
1659,  966,  965,   50
1660,  966,   49,  952
1661,  978,  160,  974
1662,  967,   46,  954
1663, 1017,  955, 1010
1664, 1106, 1061, 1101
1665, 1018,  957, 1006
1666,  963,   40,   39
1667,  990,  152,  153
1668,  992,  982,  149
1669,  993,  148,  982
1670,  949,  175,  948
1671,  973,  145,  146
1672, 1097, 1053, 1001
1673, 1023,  142,  143
1674,   54,  173,    4
1675, 1002,  994,  173
1676, 1004,  951, 1003
1677, 1046,  995,  171
1678, 1071, 1003, 1068
1679,  997,  169,  996
1680, 1051, 1025,  998
1681,  969,   48,   47
1682,  967,   47,   46
1683, 1083, 1038, 1078
1684,  986,  159,  978
1685,  955,   45,   44
1686,  955,  954,   45
1687, 1064, 1014, 1056
1688,  988,  156,  979
1689,  957,  956,   42
1690,  957,   41,  953
1691, 1019,  963, 1016
1692, 1065, 1016, 1060
1693,  959,   38,   37
1694, 1063, 1060, 1007
1695,  959,  958,   38
1696,  960,  959,   37
1697, 1044,  982, 1043
1698, 1141, 1138, 1139
1699,  962,   34,   33
1700, 1031,  973,  983
1701,  949,  174,  175
1702,  962,  961,   34
1703,  950,    3,  174
1704,  948,  176,  943
1705,  943,  176,    9
1706, 1027,  984,  973
1707,  945,  140,  944
1708,  944,  140,  141
1709,  946,  138,  139
1710,  946,  139,  945
1711, 1001, 1000,  946
1712,  947,  138,  946
1713, 1054,  943,  947
1714,  947,  943,  137
1715,  984,  145,  973
1716,  948,  175,  176
1717,  971,   33,   32
1718,  971,   32,  950
1719,  950,   32,    3
1720,  950,  174,  949
1721, 1118, 1095, 1089
1722,  951,   52,   51
1723, 1037,  977, 1024
1724,  952,   49,   48
1725,  990,  153,  980
1726,  953,   41,   40
1727,  986,  158,  159
1728,  954,   46,   45
1729,  968,   44,   43
1730, 1039,  987, 1028
1731, 1080, 1076, 1034
1732,  956,   43,   42
1733,  957,   42,   41
1734, 1123, 1101, 1108
1735, 1041,  991, 1030
1736,  958,   39,   38
1737,  960,   37,   36
1738,  992,  150,  981
1739,  970,   36,   35
1740, 1011,  970, 1009
1741,  993,  983,  147
1742,  961,   35,   34
1743,  971,  962,   33
1744, 1098,  999, 1050
1745,  963,  953,   40
1746,  963,   39,  958
1747, 1052, 1002,  964
1748,  964,   53,   52
1749, 1037, 1035,  974
1750,  965,  951,   51
1751,  977,  974,  161
1752, 1008,  952, 1005
1753, 1066, 1012, 1057
1754,  969,   47,  967
1755,  968,  955,   44
1756,  968,   43,  956
1757, 1067, 1021, 1066
1758,  969,  952,   48
1759,  970,  960,   36
1760,  970,   35,  961
1761,  999,  950,  949
1762,  999,  971,  950
1763,  972,  162,  163
1764,  976,  163,  164
1765, 1093, 1032, 1027
1766,  983,  146,  147
1767,  974,  160,  161
1768,  977,  161,  162
1769,  975,  164,  165
1770,  996,  170,  995
1771, 1089, 1087, 1036
1772,  976,  972,  163
1773, 1087, 1074, 1024
1774, 1082, 1037, 1074
1775, 1021,  967, 1012
1776,  978,  159,  160
1777,  979,  156,  157
1778,  987,  157,  158
1779,  980,  153,  154
1780,  989,  154,  155
1781,  981,  150,  151
1782,  991,  151,  152
1783,  982,  148,  149
1784,  992,  149,  150
1785,  983,  973,  146
1786,  993,  147,  148
1787, 1049,  944, 1023
1788,  984,  144,  145
1789, 1049, 1023,  985
1790,  985,  143,  144
1791, 1131, 1110, 1124
1792, 1058, 1057, 1017
1793,  987,  979,  157
1794,  987,  158,  986
1795, 1014, 1010,  968
1796,  988,  155,  156
1797,  989,  980,  154
1798,  989,  155,  988
1799, 1040,  980, 1026
1800, 1065, 1062, 1019
1801,  991,  981,  151
1802,  991,  152,  990
1803, 1042,  981, 1041
1804, 1135, 1113, 1114
1805, 1088, 1043, 1075
1806, 1090, 1044, 1088
1807,  994,  172,  173
1808, 1002,  173,   54
1809,  995,  170,  171
1810, 1117, 1052, 1004
1811, 1048,  997,  996
1812,  996,  169,  170
1813, 1051, 1033,  975
1814,  997,  168,  169
1815,  998,  167,  168
1816,  998,  168,  997
1817, 1013,  971,  999
1818, 1092, 1031, 1091
1819, 1141, 1000, 1053
1820, 1001,  946,  945
1821, 1049,  945,  944
1822, 1032,  985,  984
1823, 1002,   53,  964
1824, 1052,  964, 1004
1825, 1003,  951,  965
1826, 1022,  965,  966
1827, 1094, 1046, 1052
1828, 1004,  964,  951
1829, 1005,  952,  969
1830, 1021,  969,  967
1831, 1006,  957,  953
1832, 1019,  953,  963
1833, 1007,  958,  959
1834, 1020,  959,  960
1835, 1069, 1008, 1055
1836, 1008,  966,  952
1837, 1009,  970,  961
1838, 1015,  961,  962
1839, 1010,  955,  968
1840, 1014,  968,  956
1841, 1043,  992, 1042
1842, 1011,  960,  970
1843, 1012,  967,  954
1844, 1017, 1012,  954
1845, 1031, 1027,  973
1846, 1013,  962,  971
1847, 1018, 1014,  956
1848, 1128, 1125, 1103
1849, 1091, 1045, 1090
1850, 1015, 1009,  961
1851, 1079, 1030, 1077
1852, 1016,  963,  958
1853, 1017,  954,  955
1854, 1107, 1105, 1057
1855, 1018,  956,  957
1856, 1061, 1056, 1018
1857, 1062, 1061, 1006
1858, 1019, 1006,  953
1859, 1020, 1007,  959
1860, 1020,  960, 1011
1861, 1038,  978, 1035
1862, 1021, 1005,  969
1863, 1022, 1003,  965
1864, 1022,  966, 1008
1865, 1023,  944,  142
1866, 1023,  143,  985
1867, 1024,  977,  972
1868, 1036,  972,  976
1869, 1025,  975,  165
1870, 1025,  165,  166
1871, 1026,  980,  989
1872, 1034,  989,  988
1873, 1096,  948, 1054
1874, 1096, 1054, 1000
1875, 1028,  987,  986
1876, 1038,  986,  978
1877, 1029,  988,  979
1878, 1039, 1029,  979
1879, 1030,  991,  990
1880, 1040, 1030,  990
1881, 1045,  983,  993
1882, 1073, 1072, 1015
1883, 1097, 1049, 1032
1884, 1032,  984, 1027
1885, 1033,  976,  975
1886, 1051,  975, 1025
1887, 1034, 1026,  989
1888, 1034,  988, 1029
1889, 1035,  978,  974
1890, 1037,  974,  977
1891, 1036, 1024,  972
1892, 1036,  976, 1033
1893, 1111, 1069, 1100
1894, 1120, 1111, 1100
1895, 1107, 1058, 1104
1896, 1038, 1028,  986
1897, 1039,  979,  987
1898, 1127, 1105, 1107
1899, 1040,  990,  980
1900, 1085, 1026, 1076
1901, 1086, 1041, 1079
1902, 1041,  981,  991
1903, 1063, 1020, 1059
1904, 1042,  992,  981
1905, 1070, 1059, 1011
1906, 1043,  982,  992
1907, 1072, 1070, 1009
1908, 1044,  993,  982
1909, 1045, 1031,  983
1910, 1045,  993, 1044
1911, 1046,  171,  172
1912, 1052, 1046,  994
1913, 1047,  996,  995
1914, 1121, 1099, 1111
1915, 1118, 1051, 1048
1916, 1048,  996, 1047
1917, 1049,  985, 1032
1918, 1049, 1001,  945
1919, 1050,  999,  949
1920, 1096,  949,  948
1921, 1051,  998,  997
1922, 1051,  997, 1048
1923, 1052,  994, 1002
1924, 1117, 1094, 1052
1925, 1053, 1000, 1001
1926, 1137, 1091, 1134
1927, 1054,  948,  943
1928, 1054,  947, 1000
1929, 1055, 1008, 1005
1930, 1067, 1005, 1021
1931, 1056, 1014, 1018
1932, 1061, 1018, 1006
1933, 1057, 1012, 1017
1934, 1058, 1017, 1010
1935, 1064, 1058, 1010
1936, 1081, 1080, 1029
1937, 1059, 1020, 1011
1938, 1070, 1011, 1009
1939, 1060, 1016, 1007
1940, 1063, 1007, 1020
1941, 1062, 1006, 1019
1942, 1132, 1106, 1101
1943, 1065, 1019, 1016
1944, 1108, 1101, 1062
1945, 1113, 1112, 1063
1946, 1133, 1112, 1113
1947, 1064, 1010, 1014
1948, 1128, 1103, 1106
1949, 1129, 1109, 1112
1950, 1130, 1108, 1109
1951, 1127, 1124, 1105
1952, 1066, 1021, 1012
1953, 1131, 1102, 1110
1954, 1067, 1055, 1005
1955, 1068, 1003, 1022
1956, 1069, 1068, 1022
1957, 1069, 1022, 1008
1958, 1082, 1078, 1035
1959, 1072, 1009, 1015
1960, 1136, 1114, 1115
1961, 1119, 1094, 1117
1962, 1071, 1004, 1003
1963, 1073, 1015, 1013
1964, 1134, 1115, 1116
1965, 1098, 1013,  999
1966, 1140, 1139, 1138
1967, 1074, 1037, 1024
1968, 1087, 1024, 1036
1969, 1075, 1043, 1042
1970, 1086, 1042, 1041
1971, 1076, 1026, 1034
1972, 1080, 1034, 1029
1973, 1077, 1030, 1040
1974, 1085, 1077, 1040
1975, 1078, 1038, 1035
1976, 1082, 1035, 1037
1977, 1109, 1108, 1065
1978, 1079, 1041, 1030
1979, 1081, 1029, 1039
1980, 1125, 1104, 1103
1981, 1084, 1039, 1028
1982, 1104, 1064, 1103
1983, 1122, 1100, 1102
1984, 1102, 1100, 1055
1985, 1124, 1110, 1105
1986, 1083, 1028, 1038
1987, 1084, 1081, 1039
1988, 1084, 1028, 1083
1989, 1085, 1040, 1026
1990, 1132, 1128, 1106
1991, 1112, 1109, 1060
1992, 1086, 1075, 1042
1993, 1089, 1036, 1033
1994, 1121, 1111, 1120
1995, 1114, 1113, 1059
1996, 1088, 1044, 1043
1997, 1118, 1089, 1033
1998, 1095, 1048, 1047
1999, 1115, 1114, 1070
2000, 1090, 1045, 1044
2001, 1116, 1115, 1072
2002, 1091, 1031, 1045
2003, 1138, 1092, 1137
2004, 1092, 1027, 1031
2005, 1097, 1093, 1053
2006, 1093, 1027, 1092
2007, 1094, 1047,  995
2008, 1094,  995, 1046
2009, 1119, 1047, 1094
2010, 1142, 1119, 1099
2011, 1138, 1053, 1093
2012, 1096, 1050,  949
2013, 1097, 1001, 1049
2014, 1097, 1032, 1093
2015, 1098, 1073, 1013
2016, 1140, 1138, 1137
2017, 1099, 1071, 1068
2018, 1122, 1120, 1100
2019, 1100, 1069, 1055
2020, 1102, 1055, 1067
2021, 1101, 1061, 1062
2022, 1108, 1062, 1065
2023, 1110, 1067, 1066
2024, 1131, 1122, 1102
2025, 1103, 1064, 1056
2026, 1106, 1103, 1056
2027, 1126, 1107, 1104
2028, 1104, 1058, 1064
2029, 1105, 1066, 1057
2030, 1107, 1057, 1058
2031, 1106, 1056, 1061
2032, 1132, 1101, 1123
2033, 1126, 1104, 1125
2034, 1127, 1107, 1126
2035, 1109, 1065, 1060
2036, 1130, 1123, 1108
2037, 1112, 1060, 1063
2038, 1130, 1109, 1129
2039, 1110, 1102, 1067
2040, 1110, 1066, 1105
2041, 1111, 1099, 1068
2042, 1111, 1068, 1069
2043, 1113, 1063, 1059
2044, 1133, 1129, 1112
2045, 1114, 1059, 1070
2046, 1135, 1133, 1113
2047, 1115, 1070, 1072
2048, 1136, 1135, 1114
2049, 1116, 1072, 1073
2050, 1136, 1115, 1134
2051, 1140, 1073, 1098
2052, 1137, 1134, 1116
2053, 1117, 1004, 1071
2054, 1119, 1117, 1071
2055, 1118, 1033, 1051
2056, 1118, 1048, 1095
2057, 1119, 1071, 1099
2058, 1119, 1095, 1047
2059, 1120, 1074, 1087
2060, 1121, 1120, 1087
2061, 1121, 1087, 1089
2062, 1142, 1089, 1095
2063, 1122, 1082, 1074
2064, 1122, 1074, 1120
2065, 1123, 1077, 1085
2066, 1132, 1123, 1085
2067, 1124, 1083, 1078
2068, 1131, 1124, 1078
2069, 1125, 1080, 1081
2070, 1126, 1125, 1081
2071, 1126, 1081, 1084
2072, 1127, 1126, 1084
2073, 1127, 1084, 1083
2074, 1127, 1083, 1124
2075, 1128, 1076, 1080
2076, 1128, 1080, 1125
2077, 1129, 1086, 1079
2078, 1130, 1129, 1079
2079, 1130, 1079, 1077
2080, 1130, 1077, 1123
2081, 1131, 1078, 1082
2082, 1131, 1082, 1122
2083, 1132, 1085, 1076
2084, 1132, 1076, 1128
2085, 1133, 1075, 1086
2086, 1133, 1086, 1129
2087, 1134, 1091, 1090
2088, 1136, 1134, 1090
2089, 1135, 1088, 1075
2090, 1135, 1075, 1133
2091, 1136, 1090, 1088
2092, 1136, 1088, 1135
2093, 1140, 1098, 1139
2094, 1137, 1092, 1091
2095, 1139, 1098, 1050
2096, 1138, 1093, 1092
2097, 1139, 1050, 1096
2098, 1141, 1139, 1096
2099, 1140, 1137, 1116
2100, 1140, 1116, 1073
2101, 1141, 1096, 1000
2102, 1141, 1053, 1138
2103, 1142, 1095, 1119
2104, 1142, 1099, 1121
2105, 1143,  140,  139
2106, 1144,  140, 1143
2107, 1164,  192, 1163
2108, 1146,    8,  133
2109, 1165,  191, 1164
2110, 1169, 1143, 1149
2111, 1149,  139,  138
2112, 1187, 1143, 1169
2113, 1189, 1151, 1148
2114, 1151,    9,  177
2115, 1198, 1173, 1197
2116,  126,    7,  180
2117, 1152,  126,  180
2118, 1160,  182, 1159
2119, 1153,  128,  127
2120, 1174, 1173, 1147
2121, 1179, 1177, 1159
2122, 1156,  131, 1147
2123, 1156,  132,  131
2124,  187,  186,   12
2125, 1168,  187,  188
2126, 1213, 1192, 1186
2127, 1176,  184,  185
2128, 1199, 1171, 1153
2129, 1159,  183, 1158
2130, 1207,  180,  181
2131,  196,   10,  141
2132, 1144,  141,  140
2133, 1182, 1161,  195
2134, 1181, 1180, 1163
2135, 1162,  194, 1161
2136, 1163,  193, 1162
2137, 1218, 1210, 1216
2138, 1166,  190, 1165
2139, 1167,  189, 1166
2140, 1168,  188, 1167
2141, 1151, 1150,  137
2142, 1187, 1182, 1144
2143, 1182,  196, 1144
2144, 1144,  196,  141
2145, 1145,  178,  179
2146, 1146, 1145,  179
2147, 1146,  179,    8
2148, 1157,  133,  132
2149, 1147,  131,  130
2150, 1155,  130,  129
2151, 1148,  177,  178
2152, 1148,  178, 1145
2153, 1149, 1143,  139
2154, 1150, 1149,  138
2155, 1150,  138,  137
2156, 1170, 1169, 1149
2157, 1151,  137,    9
2158, 1151,  177, 1148
2159, 1153,  127, 1152
2160, 1152,  127,  126
2161, 1207, 1199, 1152
2162, 1154,  128, 1153
2163, 1155,  129, 1154
2164, 1154,  129,  128
2165, 1183, 1164, 1180
2166, 1155, 1147,  130
2167, 1172, 1157, 1156
2168, 1157,  132, 1156
2169, 1188, 1146, 1157
2170, 1157, 1146,  133
2171, 1158,  183,  184
2172, 1220, 1212, 1214
2173, 1177, 1160, 1159
2174, 1159,  182,  183
2175, 1207, 1160, 1199
2176, 1160,  181,  182
2177, 1187, 1185, 1161
2178, 1161,  194,  195
2179, 1191, 1145, 1188
2180, 1162,  193,  194
2181, 1173, 1172, 1156
2182, 1163,  192,  193
2183, 1175, 1174, 1155
2184, 1164,  191,  192
2185, 1175, 1154, 1171
2186, 1165,  190,  191
2187, 1200, 1176, 1192
2188, 1166,  189,  190
2189, 1192, 1168, 1167
2190, 1167,  188,  189
2191, 1178,  186, 1168
2192, 1168,  186,  187
2193, 1170, 1149, 1150
2194, 1206, 1185, 1193
2195, 1189, 1170, 1150
2196, 1222, 1145, 1191
2197, 1171, 1154, 1153
2198, 1211, 1199, 1177
2199, 1222, 1191, 1221
2200, 1173, 1156, 1147
2201, 1174, 1147, 1155
2202, 1197, 1174, 1196
2203, 1214, 1209, 1208
2204, 1209, 1196, 1208
2205, 1175, 1155, 1154
2206, 1211, 1195, 1171
2207, 1176, 1158,  184
2208, 1178, 1176,  185
2209, 1179, 1159, 1158
2210, 1201, 1177, 1179
2211, 1178,  185,  186
2212, 1192, 1178, 1168
2213, 1200, 1158, 1176
2214, 1184, 1165, 1183
2215, 1180, 1164, 1163
2216, 1181, 1163, 1162
2217, 1185, 1181, 1162
2218, 1194, 1193, 1169
2219, 1182,  195,  196
2220, 1187, 1144, 1143
2221, 1196, 1175, 1195
2222, 1183, 1165, 1164
2223, 1214, 1212, 1203
2224, 1184, 1166, 1165
2225, 1185, 1162, 1161
2226, 1194, 1169, 1170
2227, 1186, 1167, 1166
2228, 1186, 1166, 1184
2229, 1193, 1187, 1169
2230, 1187, 1161, 1182
2231, 1188, 1145, 1146
2232, 1188, 1157, 1172
2233, 1189, 1150, 1151
2234, 1190, 1189, 1148
2235, 1190, 1170, 1189
2236, 1219, 1206, 1194
2237, 1223, 1188, 1172
2238, 1198, 1172, 1173
2239, 1192, 1176, 1178
2240, 1192, 1167, 1186
2241, 1193, 1185, 1187
2242, 1194, 1170, 1190
2243, 1221, 1218, 1217
2244, 1206, 1205, 1181
2245, 1195, 1175, 1171
2246, 1211, 1201, 1195
2247, 1204, 1202, 1183
2248, 1196, 1174, 1175
2249, 1210, 1197, 1209
2250, 1197, 1173, 1174
2251, 1205, 1204, 1180
2252, 1223, 1172, 1198
2253, 1199, 1153, 1152
2254, 1199, 1160, 1177
2255, 1213, 1203, 1212
2256, 1200, 1179, 1158
2257, 1212, 1179, 1200
2258, 1220, 1214, 1208
2259, 1202, 1184, 1183
2260, 1204, 1183, 1180
2261, 1203, 1186, 1184
2262, 1203, 1184, 1202
2263, 1205, 1180, 1181
2264, 1215, 1210, 1209
2265, 1206, 1181, 1185
2266, 1218, 1216, 1217
2267, 1206, 1193, 1194
2268, 1219, 1217, 1206
2269, 1207, 1152,  180
2270, 1207,  181, 1160
2271, 1208, 1196, 1195
2272, 1220, 1195, 1201
2273, 1215, 1209, 1214
2274, 1209, 1197, 1196
2275, 1216, 1210, 1215
2276, 1210, 1198, 1197
2277, 1211, 1171, 1199
2278, 1211, 1177, 1201
2279, 1212, 1201, 1179
2280, 1213, 1212, 1200
2281, 1213, 1200, 1192
2282, 1213, 1186, 1203
2283, 1214, 1203, 1202
2284, 1215, 1214, 1202
2285, 1215, 1202, 1204
2286, 1216, 1215, 1204
2287, 1216, 1204, 1205
2288, 1217, 1216, 1205
2289, 1221, 1217, 1219
2290, 1217, 1205, 1206
2291, 1223, 1218, 1221
2292, 1218, 1198, 1210
2293, 1219, 1194, 1190
2294, 1221, 1219, 1190
2295, 1220, 1208, 1195
2296, 1220, 1201, 1212
2297, 1222, 1221, 1190
2298, 1223, 1221, 1191
2299, 1222, 1190, 1148
2300, 1222, 1148, 1145
2301, 1223, 1191, 1188
2302, 1223, 1198, 1218
*Orientation, name=Ori-1
1., 0., 0., 0., 1., 0.
3, 0.
** Region: (CompositeLayup-1-1: Generated From Layup)
*Elset, elset=CompositeLayup-1-1, generate
    1,  2302,     1
** Section: CompositeLayup-1-1
*Shell Section, elset=CompositeLayup-1-1, composite, orientation=Ori-1, layup=CompositeLayup-1
0.25, 1, ABQ_PLY_FABRIC, 45., Ply-1
0.25, 1, ABQ_PLY_FABRIC, -45., Ply-2
0.25, 1, ABQ_PLY_FABRIC, -45., Ply-3
0.25, 1, ABQ_PLY_FABRIC, 45., Ply-4
*End Part
**  
**
** ASSEMBLY
**
*Assembly, name=Assembly
**  
*Instance, name=Plate-1, part=PLATE
*End Instance
**  
*Nset, nset=Set-1, instance=Plate-1
   6,   7,  12, 108, 109, 110, 111, 112, 113, 114, 115, 116, 117, 118, 119, 120
 121, 122, 123, 124, 125, 180, 181, 182, 183, 184, 185, 186
*Elset, elset=Set-1, instance=Plate-1
 1172, 1173, 1182, 1233, 1255, 1256, 1258, 1260, 1262, 1264, 1266, 1268, 1270, 1272, 1274, 1277
 1280, 1282, 1338, 2116, 2124, 2127, 2130, 2171, 2174, 2176, 2211
*Nset, nset=Set-2, instance=Plate-1
   4,   5,  11,  55,  56,  57,  58,  59,  60,  61,  62,  63,  64,  65,  66,  67
  68,  69,  70,  71,  72, 167, 168, 169, 170, 171, 172, 173
*Elset, elset=Set-2, instance=Plate-1
   23,   24,   46,   52,   54,  141,  144,  146,  148,  150,  152,  154,  156,  158,  256,  263
  271,  273,  275, 1649, 1674, 1807, 1809, 1812, 1814, 1815, 1911
*End Assembly
*Amplitude, name=Ramp, time=TOTAL TIME
             0.,              0.,            0.01,              1.
** 
** MATERIALS
** 
*Material, name=ABQ_PLY_FABRIC
*Density
 1.594e-09,
*Depvar, delete=16
     16,
*User Material, constants=40
27500., 27500.,   0.11,  2900., 27500., 27500.,   0.11,     0.
   604.,   291.,   604.,   291.,    75.,     0.,     0.,     0.
 20.438, 4.6257, 20.438, 4.6257, 0.3221,     1.,     0.,     0.
    75., 0.0008,  0.552,     0.,     0.,     0.,     0.,     0.
     0.,     1.,  1e+09,  1e+09, -1e+09,     0.,     0.,     0.
** ----------------------------------------------------------------
** 
** STEP: Step-1
** 
*Step, name=Step-1, nlgeom=NO
*Dynamic, Explicit
, 0.01
*Bulk Viscosity
0.06, 1.2
** 
** BOUNDARY CONDITIONS
** 
** Name: BC-1 Type: Symmetry/Antisymmetry/Encastre
*Boundary
Set-1, ENCASTRE
** Name: BC-2 Type: Displacement/Rotation
*Boundary, amplitude=Ramp
Set-2, 1, 1, 2.36842
** 
** OUTPUT REQUESTS
** 
*Restart, write, number interval=1, time marks=NO
** 
** FIELD OUTPUT: F-Output-1
** 
*Output, field, number interval=1
*Element Output, position=NODES, directions=YES
LE, PEEQ, SDV
** 
** HISTORY OUTPUT: H-Output-1
** 
*Output, history, variable=PRESELECT
*End Step
