*Heading
** Job name: Plate_nonlinear_448 Model name: Model-1
** Generated by: Abaqus/CAE 2024.HF3
*Preprint, echo=NO, model=NO, history=NO, contact=NO
**
** PARTS
**
*Part, name=PLATE
*Node
      1,   69.3750458,   156.947495,           0.
      2,   69.3750458,   121.430214,           0.
      3,   86.1736069,    104.63166,           0.
      4,   104.062569,    104.63166,           0.
      5,   104.062569,   156.947495,           0.
      6,           0.,   156.947495,           0.
      7,           0.,    104.63166,           0.
      8,   52.5764923,    104.63166,           0.
      9,   69.3750458,   87.8330994,           0.
     10,   69.3750458,           0.,           0.
     11,   104.062569,           0.,           0.
     12,           0.,           0.,           0.
     13,   69.3750458,   153.001129,           0.
     14,   69.3750458,   149.054764,           0.
     15,   69.3750458,   145.108398,           0.
     16,   69.3750458,   141.162033,           0.
     17,   69.3750458,   137.215668,           0.
     18,   69.3750458,   133.269302,           0.
     19,   69.3750458,   129.322937,           0.
     20,   69.3750458,   125.376579,           0.
     21,   73.1130753,   121.009041,           0.
     22,   76.6636658,    119.76664,           0.
     23,   79.8487778,   117.765297,           0.
     24,   82.5086899,   115.105392,           0.
     25,    84.510025,    111.92028,           0.
     26,   85.7524338,    108.36969,           0.
     27,   89.7513962,    104.63166,           0.
     28,   93.3291931,    104.63166,           0.
     29,   96.9069824,    104.63166,           0.
     30,   100.484779,    104.63166,           0.
     31,   104.062569,   108.655952,           0.
     32,   104.062569,   112.680252,           0.
     33,   104.062569,   116.704544,           0.
     34,   104.062569,   120.728836,           0.
     35,   104.062569,   124.753136,           0.
     36,   104.062569,   128.777435,           0.
     37,   104.062569,   132.801727,           0.
     38,   104.062569,   136.826019,           0.
     39,   104.062569,   140.850311,           0.
     40,   104.062569,   144.874603,           0.
     41,   104.062569,   148.898895,           0.
     42,   104.062569,   152.923203,           0.
     43,   100.208405,   156.947495,           0.
     44,   96.3542328,   156.947495,           0.
     45,    92.500061,   156.947495,           0.
     46,   88.6458969,   156.947495,           0.
     47,   84.7917252,   156.947495,           0.
     48,   80.9375534,   156.947495,           0.
     49,   77.0833893,   156.947495,           0.
     50,   73.2292175,   156.947495,           0.
     51,   65.5208817,   156.947495,           0.
     52,   61.6667099,   156.947495,           0.
     53,    57.812542,   156.947495,           0.
     54,   53.9583702,   156.947495,           0.
     55,   50.1042023,   156.947495,           0.
     56,   46.2500305,   156.947495,           0.
     57,   42.3958626,   156.947495,           0.
     58,   38.5416946,   156.947495,           0.
     59,   34.6875229,   156.947495,           0.
     60,   30.8333549,   156.947495,           0.
     61,   26.9791851,   156.947495,           0.
     62,   23.1250153,   156.947495,           0.
     63,   19.2708473,   156.947495,           0.
     64,   15.4166775,   156.947495,           0.
     65,   11.5625076,   156.947495,           0.
     66,   7.70833874,   156.947495,           0.
     67,   3.85416937,   156.947495,           0.
     68,           0.,   152.923203,           0.
     69,           0.,   148.898895,           0.
     70,           0.,   144.874603,           0.
     71,           0.,   140.850311,           0.
     72,           0.,   136.826019,           0.
     73,           0.,   132.801727,           0.
     74,           0.,   128.777435,           0.
     75,           0.,   124.753136,           0.
     76,           0.,   120.728836,           0.
     77,           0.,   116.704544,           0.
     78,           0.,   112.680252,           0.
     79,           0.,   108.655952,           0.
     80,   4.04434538,    104.63166,           0.
     81,   8.08869076,    104.63166,           0.
     82,   12.1330366,    104.63166,           0.
     83,   16.1773815,    104.63166,           0.
     84,   20.2217274,    104.63166,           0.
     85,   24.2660732,    104.63166,           0.
     86,   28.3104191,    104.63166,           0.
     87,    32.354763,    104.63166,           0.
     88,   36.3991089,    104.63166,           0.
     89,   40.4434547,    104.63166,           0.
     90,   44.4878006,    104.63166,           0.
     91,   48.5321465,    104.63166,           0.
     92,   52.9976654,    108.36969,           0.
     93,   54.2400703,    111.92028,           0.
     94,   56.2414093,   115.105392,           0.
     95,   58.9013176,   117.765297,           0.
     96,   62.0864258,    119.76664,           0.
     97,   65.6370163,   121.009041,           0.
     98,   69.3750458,   83.8406906,           0.
     99,   69.3750458,   79.8482742,           0.
    100,   69.3750458,   75.8558655,           0.
    101,   69.3750458,   71.8634491,           0.
    102,   69.3750458,   67.8710327,           0.
    103,   69.3750458,   63.8786201,           0.
    104,   69.3750458,   59.8862076,           0.
    105,   69.3750458,   55.8937912,           0.
    106,   69.3750458,   51.9013786,           0.
    107,   69.3750458,   47.9089661,           0.
    108,   69.3750458,   43.9165497,           0.
    109,   69.3750458,   39.9241371,           0.
    110,   69.3750458,   35.9317245,           0.
    111,   69.3750458,   31.9393101,           0.
    112,   69.3750458,   27.9468956,           0.
    113,   69.3750458,    23.954483,           0.
    114,   69.3750458,   19.9620686,           0.
    115,   69.3750458,    15.969655,           0.
    116,   69.3750458,   11.9772415,           0.
    117,   69.3750458,   7.98482752,           0.
    118,   69.3750458,   3.99241376,           0.
    119,   73.2292175,           0.,           0.
    120,   77.0833893,           0.,           0.
    121,   80.9375534,           0.,           0.
    122,   84.7917252,           0.,           0.
    123,   88.6458969,           0.,           0.
    124,    92.500061,           0.,           0.
    125,   96.3542328,           0.,           0.
    126,   100.208405,           0.,           0.
    127,   104.062569,   3.87524676,           0.
    128,   104.062569,   7.75049353,           0.
    129,   104.062569,   11.6257401,           0.
    130,   104.062569,   15.5009871,           0.
    131,   104.062569,   19.3762341,           0.
    132,   104.062569,   23.2514801,           0.
    133,   104.062569,   27.1267262,           0.
    134,   104.062569,   31.0019741,           0.
    135,   104.062569,   34.8772202,           0.
    136,   104.062569,   38.7524681,           0.
    137,   104.062569,   42.6277122,           0.
    138,   104.062569,   46.5029602,           0.
    139,   104.062569,   50.3782082,           0.
    140,   104.062569,   54.2534523,           0.
    141,   104.062569,   58.1287003,           0.
    142,   104.062569,   62.0039482,           0.
    143,   104.062569,   65.8791962,           0.
    144,   104.062569,   69.7544403,           0.
    145,   104.062569,   73.6296844,           0.
    146,   104.062569,   77.5049362,           0.
    147,   104.062569,   81.3801804,           0.
    148,   104.062569,   85.2554245,           0.
    149,   104.062569,   89.1306763,           0.
    150,   104.062569,   93.0059204,           0.
    151,   104.062569,   96.8811646,           0.
    152,   104.062569,   100.756416,           0.
    153,   85.7524338,   100.893631,           0.
    154,    84.510025,   97.3430405,           0.
    155,   82.5086899,   94.1579285,           0.
    156,   79.8487778,   91.4980164,           0.
    157,   76.6636658,   89.4966812,           0.
    158,   73.1130753,   88.2542801,           0.
    159,   65.6370163,   88.2542801,           0.
    160,   62.0864258,   89.4966812,           0.
    161,   58.9013176,   91.4980164,           0.
    162,   56.2414093,   94.1579285,           0.
    163,   54.2400703,   97.3430405,           0.
    164,   52.9976654,   100.893631,           0.
    165,           0.,   100.756416,           0.
    166,           0.,   96.8811646,           0.
    167,           0.,   93.0059204,           0.
    168,           0.,   89.1306763,           0.
    169,           0.,   85.2554245,           0.
    170,           0.,   81.3801804,           0.
    171,           0.,   77.5049362,           0.
    172,           0.,   73.6296844,           0.
    173,           0.,   69.7544403,           0.
    174,           0.,   65.8791962,           0.
    175,           0.,   62.0039482,           0.
    176,           0.,   58.1287003,           0.
    177,           0.,   54.2534523,           0.
    178,           0.,   50.3782082,           0.
    179,           0.,   46.5029602,           0.
    180,           0.,   42.6277122,           0.
    181,           0.,   38.7524681,           0.
    182,           0.,   34.8772202,           0.
    183,           0.,   31.0019741,           0.
    184,           0.,   27.1267262,           0.
    185,           0.,   23.2514801,           0.
    186,           0.,   19.3762341,           0.
    187,           0.,   15.5009871,           0.
    188,           0.,   11.6257401,           0.
    189,           0.,   7.75049353,           0.
    190,           0.,   3.87524676,           0.
    191,   3.85416937,           0.,           0.
    192,   7.70833874,           0.,           0.
    193,   11.5625076,           0.,           0.
    194,   15.4166775,           0.,           0.
    195,   19.2708473,           0.,           0.
    196,   23.1250153,           0.,           0.
    197,   26.9791851,           0.,           0.
    198,   30.8333549,           0.,           0.
    199,   34.6875229,           0.,           0.
    200,   38.5416946,           0.,           0.
    201,   42.3958626,           0.,           0.
    202,   46.2500305,           0.,           0.
    203,   50.1042023,           0.,           0.
    204,   53.9583702,           0.,           0.
    205,    57.812542,           0.,           0.
    206,   61.6667099,           0.,           0.
    207,   65.5208817,           0.,           0.
    208,   72.7946014,   147.036972,           0.
    209,   72.5143661,   150.372742,           0.
    210,   79.9743271,   121.318687,           0.
    211,   88.2682953,   111.735909,           0.
    212,    85.973259,   115.203194,           0.
    213,   72.7908249,   143.128464,           0.
    214,   72.7908859,   139.186096,           0.
    215,   72.8100052,   135.204468,           0.
    216,   72.8948135,   131.028015,           0.
    217,   72.9776993,   126.531052,           0.
    218,   83.2652206,   118.500977,           0.
    219,   76.5492172,   123.734528,           0.
    220,   99.0837631,   108.314331,           0.
    221,   94.9578781,   108.289856,           0.
    222,   90.7702484,   108.226265,           0.
    223,   100.540405,   146.936462,           0.
    224,   100.557579,    142.90242,           0.
    225,   100.582092,   138.845215,           0.
    226,   100.588486,   134.814514,           0.
    227,   100.593201,   130.788986,           0.
    228,   100.598396,    126.76474,           0.
    229,     100.6054,   122.741737,           0.
    230,   100.620995,   118.728325,           0.
    231,    100.67263,   114.755249,           0.
    232,   100.990295,   111.336227,           0.
    233,   86.7089462,   153.519913,           0.
    234,   90.5704575,   153.544235,           0.
    235,   94.5636215,   153.414536,           0.
    236,   98.7907181,   153.357361,           0.
    237,   82.8068924,   153.392349,           0.
    238,   74.5616302,   153.334061,           0.
    239,   78.7890701,    153.31105,           0.
    240,   88.7635727,   150.057968,           0.
    241,   92.6106567,   150.026855,           0.
    242,   76.3396835,   133.074722,           0.
    243,   76.2038193,   141.159515,           0.
    244,   76.1814575,   145.074905,           0.
    245,   76.4243698,    149.35054,           0.
    246,   76.2298203,   137.172379,           0.
    247,   97.0223465,   140.958817,           0.
    248,   97.1304932,   132.797745,           0.
    249,   97.1645584,   116.813774,           0.
    250,   100.853867,   150.317734,           0.
    251,   97.1887665,   120.795563,           0.
    252,   97.1615982,   124.759796,           0.
    253,   97.0043259,   112.369408,           0.
    254,   97.1456604,   128.774353,           0.
    255,   97.0426254,   145.072922,           0.
    256,   97.1069412,   136.842026,           0.
    257,    92.418335,   111.841835,           0.
    258,   87.4838486,   119.003304,           0.
    259,   89.8009415,   115.169998,           0.
    260,   80.0214005,   125.140831,           0.
    261,   83.9184265,   122.765327,           0.
    262,   96.9265137,   149.429153,           0.
    263,   94.1376038,   146.922272,           0.
    264,   80.8455887,   149.693298,           0.
    265,   90.9298096,   146.801315,           0.
    266,   84.8991852,   149.809113,           0.
    267,   76.9928665,   128.409561,           0.
    268,   79.6296692,   139.176544,           0.
    269,   79.5510025,   143.147491,           0.
    270,   79.7182999,   135.123489,           0.
    271,   79.2059097,    146.59642,           0.
    272,    93.551796,   115.510796,           0.
    273,   93.5274582,   138.925308,           0.
    274,   93.7214813,   126.750366,           0.
    275,   93.8022614,   122.832863,           0.
    276,   93.6965561,    130.77507,           0.
    277,   93.6437073,   134.829498,           0.
    278,   93.1732178,   143.359161,           0.
    279,   93.8883209,   119.129234,           0.
    280,   87.3022614,    146.54158,           0.
    281,   79.9746246,   131.154633,           0.
    282,   83.1533585,   137.060791,           0.
    283,   83.0630798,   145.692108,           0.
    284,   83.1010971,   141.146942,           0.
    285,   90.2007828,   132.802704,           0.
    286,   90.1828232,   128.672562,           0.
    287,   90.3992844,   124.704384,           0.
    288,   90.1036682,   136.871796,           0.
    289,   90.7255249,   121.040749,           0.
    290,   83.2338562,   133.029053,           0.
    291,   86.6026154,   138.934189,           0.
    292,   89.9334717,   140.825943,           0.
    293,    86.378067,   126.454475,           0.
    294,   86.6350555,   130.848694,           0.
    295,    86.654892,   134.924545,           0.
    296,   86.5979843,     142.8629,           0.
    297,   87.7810287,   122.793648,           0.
    298,   91.0900879,   117.970818,           0.
    299,   89.5873489,   144.078186,           0.
    300,   83.1966171,   129.333466,           0.
    301,   82.7836151,   126.364159,           0.
    302,   80.5938263,   128.080536,           0.
    303,   58.5827942,   121.172729,           0.
    304,    52.641758,   115.472122,           0.
    305,   50.1409492,   112.039528,           0.
    306,   55.3984985,   118.578217,           0.
    307,   25.0544891,   153.600693,           0.
    308,   28.9079094,   153.605804,           0.
    309,   32.7615318,   153.609451,           0.
    310,   5.22354174,   153.330032,           0.
    311,   9.42631435,   153.377319,           0.
    312,   13.4322138,   153.515533,           0.
    313,   17.3279037,   153.569656,           0.
    314,   36.6151733,   153.611816,           0.
    315,   40.4686661,   153.612595,           0.
    316,   44.3219986,   153.611526,           0.
    317,   48.1753311,    153.60788,           0.
    318,   52.0409164,   153.589493,           0.
    319,   55.9411659,   153.538971,           0.
    320,   59.9597244,   153.411758,           0.
    321,   64.1689148,   153.377304,           0.
    322,   65.9402847,   139.208435,           0.
    323,   65.9085541,   131.448639,           0.
    324,    65.970108,   135.292206,           0.
    325,   3.68759227,   110.059105,           0.
    326,   3.50150824,   122.732567,           0.
    327,   3.48321891,    126.76664,           0.
    328,    3.4744668,   130.791641,           0.
    329,   3.47177148,   134.818604,           0.
    330,   3.49080014,   138.867096,           0.
    331,   3.50426722,    142.92363,           0.
    332,   3.47334504,   146.919785,           0.
    333,   10.1478176,    108.18705,           0.
    334,   30.3414288,   108.108139,           0.
    335,   34.3942909,   108.107414,           0.
    336,   38.4795456,   108.139206,           0.
    337,   42.7249413,   108.293312,           0.
    338,   47.3315659,   108.390312,           0.
    339,   62.3951874,   123.668732,           0.
    340,   21.1963959,   153.589157,           0.
    341,   57.9495163,   150.089966,           0.
    342,   50.1251907,   150.249588,           0.
    343,   26.9857998,   150.251907,           0.
    344,    34.690033,   150.273865,           0.
    345,   42.3940926,   150.277939,           0.
    346,   15.3647919,   150.139954,           0.
    347,   30.8380318,   150.264954,           0.
    348,   11.4577637,   150.017441,           0.
    349,    46.253006,   150.270035,           0.
    350,   38.5424461,   150.277512,           0.
    351,   54.0307465,   150.201935,           0.
    352,   65.9112701,   143.171112,           0.
    353,    65.930191,   147.086472,           0.
    354,   62.7385635,   133.447235,           0.
    355,   65.3087463,   127.352158,           0.
    356,   66.2291031,   150.409271,           0.
    357,   62.5970345,   137.241028,           0.
    358,   45.0656624,   112.508293,           0.
    359,   3.55426717,   118.648605,           0.
    360,   6.93815374,   132.809631,           0.
    361,   7.05932188,   140.942841,           0.
    362,   3.67609239,   114.438042,           0.
    363,   6.97477293,   124.735558,           0.
    364,   6.95017433,   128.780533,           0.
    365,   6.96307898,   136.843338,           0.
    366,   7.02079344,   145.042343,           0.
    367,   14.1600733,   108.200272,           0.
    368,   22.2573967,   108.132805,           0.
    369,   26.2993641,   108.115685,           0.
    370,   32.3674469,   111.559898,           0.
    371,    36.398922,   111.555702,           0.
    372,   40.4660721,   111.696945,           0.
    373,    54.757515,   122.430885,           0.
    374,   48.4376945,   115.931572,           0.
    375,   51.1738968,   119.693054,           0.
    376,   7.11070919,   149.412064,           0.
    377,   62.3039932,   149.515442,           0.
    378,   44.4948387,   116.812897,           0.
    379,   19.2552891,    150.18428,           0.
    380,   40.4683723,   146.944321,           0.
    381,   36.6193733,   146.938751,           0.
    382,   32.7705574,   146.926102,           0.
    383,   44.3221703,   146.940643,           0.
    384,   52.1298599,   146.862534,           0.
    385,   56.0474586,   146.833359,           0.
    386,   28.9319172,   146.890869,           0.
    387,   48.2141724,   146.899033,           0.
    388,   13.3970881,   146.692108,           0.
    389,   59.4493141,   147.006088,           0.
    390,   23.1281586,    150.22049,           0.
    391,   62.4217834,   141.220291,           0.
    392,   62.9233437,   130.265564,           0.
    393,   59.4039383,   135.176224,           0.
    394,   62.4222527,   145.227066,           0.
    395,   57.9659653,   125.049133,           0.
    396,   7.02202654,   120.643349,           0.
    397,   10.4031992,   130.798401,           0.
    398,    10.395504,   134.816071,           0.
    399,   10.4525251,   126.734261,           0.
    400,    10.453826,   138.799789,           0.
    401,   10.9690447,   143.119354,           0.
    402,   28.3326321,   111.577209,           0.
    403,   12.0939398,   111.841652,           0.
    404,   18.2144737,   108.181114,           0.
    405,   38.3685608,   114.953896,           0.
    406,   34.4084702,   114.992004,           0.
    407,   24.3069515,   111.616203,           0.
    408,   3.16151929,   150.296799,           0.
    409,    7.1232934,   116.532829,           0.
    410,   7.68015003,   111.988235,           0.
    411,   58.5271225,   143.341217,           0.
    412,    54.180294,   126.415047,           0.
    413,   47.0402489,   119.526184,           0.
    414,   21.2258129,   146.760574,           0.
    415,   42.3937569,   143.610443,           0.
    416,   46.2656898,   143.561981,           0.
    417,   30.8796349,   143.547348,           0.
    418,   34.7024498,   143.584503,           0.
    419,    38.548027,   143.602783,           0.
    420,   54.2071114,   143.420395,           0.
    421,   50.2115555,   143.404221,           0.
    422,   25.1027603,   146.820572,           0.
    423,     17.31287,   146.701752,           0.
    424,   59.1415672,   139.078262,           0.
    425,   9.99107933,   146.856659,           0.
    426,   59.8757629,   131.414047,           0.
    427,   10.4966793,    118.52597,           0.
    428,   10.4957294,   122.620773,           0.
    429,   30.3894367,    115.04158,           0.
    430,   13.9129524,   128.785233,           0.
    431,    13.570178,   140.237518,           0.
    432,   13.8454819,   132.826935,           0.
    433,   13.8038607,   136.794601,           0.
    434,   16.1997566,   111.850639,           0.
    435,   20.2860432,   111.702797,           0.
    436,   36.5452461,   118.438408,           0.
    437,   26.3601627,   115.099281,           0.
    438,   6.72971916,   107.899544,           0.
    439,    43.915184,   120.041878,           0.
    440,   57.0998688,   128.973495,           0.
    441,   19.3390617,   143.150879,           0.
    442,   23.2872829,    143.29393,           0.
    443,    44.315258,   140.251144,           0.
    444,   40.4821167,   140.259308,           0.
    445,   32.7837334,   140.206116,           0.
    446,   48.1188507,   140.119904,           0.
    447,   36.6256409,   140.236313,           0.
    448,   52.3032112,   139.431259,           0.
    449,   27.1054153,    143.44313,           0.
    450,     15.31882,   143.187302,           0.
    451,   14.0048084,   120.441368,           0.
    452,   56.3254471,   132.900757,           0.
    453,   56.0123558,   140.449539,           0.
    454,   55.9079514,   136.932007,           0.
    455,   48.5873146,   122.239487,           0.
    456,   40.7546844,   118.466408,           0.
    457,   14.0423574,   124.638527,           0.
    458,   32.5325012,   118.606979,           0.
    459,    10.292923,   114.959732,           0.
    460,   17.3046322,   130.879303,           0.
    461,   17.2850475,   139.198776,           0.
    462,   17.1700535,   134.869339,           0.
    463,   22.3527565,   115.185707,           0.
    464,   14.0629807,   115.924751,           0.
    465,   18.3772678,   115.325821,           0.
    466,   28.4444008,   118.652138,           0.
    467,   41.7724915,   122.869392,           0.
    468,   53.4666176,   130.326004,           0.
    469,   60.9281464,   127.787193,           0.
    470,   51.2019806,   124.006332,           0.
    471,   45.5798035,   122.713997,           0.
    472,   25.4055939,   139.925735,           0.
    473,   42.4281845,   136.886673,           0.
    474,    21.569849,   139.644836,           0.
    475,   46.1674194,   136.948517,           0.
    476,   38.5420532,   136.797867,           0.
    477,   34.6315193,   136.726196,           0.
    478,   49.4175529,   136.985107,           0.
    479,   29.0696888,   140.186554,           0.
    480,   17.9651985,   122.418861,           0.
    481,   41.8299637,   114.887688,           0.
    482,   34.9377365,   122.522568,           0.
    483,   17.4280186,   126.842819,           0.
    484,   20.5889435,   133.008438,           0.
    485,   24.3943653,   118.715736,           0.
    486,   20.1153164,   136.503387,           0.
    487,   20.4016972,   118.753357,           0.
    488,   30.5734978,   122.308105,           0.
    489,   47.8668709,   125.458595,           0.
    490,   50.6522141,    127.87159,           0.
    491,    44.476635,    133.44339,           0.
    492,   40.5019646,    133.19754,           0.
    493,    27.473835,    137.18808,           0.
    494,   48.2533875,    133.82608,           0.
    495,   36.5002289,   133.069138,           0.
    496,   30.7690964,   136.776245,           0.
    497,   52.2811623,   134.524017,           0.
    498,   38.4732285,   121.422585,           0.
    499,   20.5728645,    125.38295,           0.
    500,   20.7365017,   128.929611,           0.
    501,   16.9623909,    118.57283,           0.
    502,   26.4532795,   122.375893,           0.
    503,   23.9251366,   135.793488,           0.
    504,   32.4564629,   125.998116,           0.
    505,   22.3547325,   122.341087,           0.
    506,   28.0841351,   133.228729,           0.
    507,   46.9184647,    129.69574,           0.
    508,   38.4017601,   124.796242,           0.
    509,   42.6183624,   129.691742,           0.
    510,   50.3143692,   131.248688,           0.
    511,   38.4540482,   129.019287,           0.
    512,   32.4832115,   133.125626,           0.
    513,   24.2979374,   126.448883,           0.
    514,   28.5835934,    125.96312,           0.
    515,   24.1346092,   131.098862,           0.
    516,   44.3065758,   126.163269,           0.
    517,   27.1291313,   129.240662,           0.
    518,   41.1106491,   126.507988,           0.
    519,   34.3571625,   129.502716,           0.
    520,   35.7214355,   126.367783,           0.
    521,   30.5156155,   129.509827,           0.
    522,   66.4182053,   123.767349,           0.
    523,   94.9148712,   101.048576,           0.
    524,   90.7351837,    101.08271,           0.
    525,   76.4302063,   86.1660461,           0.
    526,   79.9898148,   88.0682831,           0.
    527,   85.9839249,   93.9250412,           0.
    528,   88.3152237,   97.4169159,           0.
    529,   83.2227859,   90.7007446,           0.
    530,   86.7209702,   3.34977293,           0.
    531,   82.7862244,   3.41418648,           0.
    532,   74.5342102,   3.61776233,           0.
    533,   90.5586853,   3.32610226,           0.
    534,   78.7354736,   3.57683825,           0.
    535,    101.00444,   98.1395111,           0.
    536,   100.711464,   94.8784561,           0.
    537,   100.721695,   91.0536194,           0.
    538,   100.717911,   87.1898575,           0.
    539,   100.713524,   83.3175659,           0.
    540,   100.709496,    79.443161,           0.
    541,   100.705475,   75.5681305,           0.
    542,   100.702568,   71.6926422,           0.
    543,   100.700836,   67.8170624,           0.
    544,   100.700119,   63.9416733,           0.
    545,   100.699799,   60.0663605,           0.
    546,   100.699539,   56.1910896,           0.
    547,     100.6996,    52.315834,           0.
    548,     100.6996,   48.4405861,           0.
    549,     100.6996,   44.5653381,           0.
    550,     100.6996,   40.6900902,           0.
    551,   100.699631,   36.8148422,           0.
    552,   100.699783,   32.9395981,           0.
    553,   100.700012,   29.0642967,           0.
    554,   100.700493,   25.1888638,           0.
    555,    100.70182,   21.3134918,           0.
    556,   100.703468,    17.438282,           0.
    557,   100.645676,   13.4653292,           0.
    558,   100.523262,   9.36660099,           0.
    559,   100.522499,   5.14655304,           0.
    560,    72.772728,   73.7397079,           0.
    561,   72.7858124,    13.975563,           0.
    562,   72.8169327,   17.9672604,           0.
    563,   72.8233185,   21.9583702,           0.
    564,   72.8249664,   25.9506416,           0.
    565,   72.8251419,   29.9430637,           0.
    566,   72.8253937,   33.9355011,           0.
    567,   72.8254852,   37.9279251,           0.
    568,   72.8255157,   41.9203415,           0.
    569,   72.8255234,   45.9127579,           0.
    570,   72.8255234,   49.9051704,           0.
    571,   72.8255386,   53.8975868,           0.
    572,    72.825882,   61.8824272,           0.
    573,    72.825325,   65.8748474,           0.
    574,   72.8249054,    57.890007,           0.
    575,   72.8088837,   69.8375244,           0.
    576,   72.7028503,   77.5233536,           0.
    577,   99.0651932,   101.068497,           0.
    578,   72.8562775,   84.9581146,           0.
    579,   94.3608551,   3.31149769,           0.
    580,   84.7091827,   6.77023554,           0.
    581,   97.6227951,    3.0743432,           0.
    582,   88.6405869,    6.6890378,           0.
    583,   80.7176743,    6.9348526,           0.
    584,   97.3356552,    69.756218,           0.
    585,   97.3161011,    93.052269,           0.
    586,   97.3504333,   77.5091171,           0.
    587,   97.3725586,   85.2568741,           0.
    588,   97.3315582,   62.0041771,           0.
    589,   97.3318787,   31.0017605,           0.
    590,   97.3309021,    34.877182,           0.
    591,    97.330513,   38.7524605,           0.
    592,   97.3304062,   42.6277122,           0.
    593,   97.3303833,    46.502964,           0.
    594,   97.3303986,   50.3782196,           0.
    595,   97.3302841,   54.2534866,           0.
    596,   97.3298721,   58.1288071,           0.
    597,   97.3317871,   65.8800278,           0.
    598,   97.3321457,   27.1258678,           0.
    599,   97.0853119,   97.2291031,           0.
    600,   97.3134155,    19.365263,           0.
    601,   97.3410721,   73.6334152,           0.
    602,   97.3615494,   81.3841934,           0.
    603,   97.3562469,   89.1821365,           0.
    604,   97.1513443,   15.3834982,           0.
    605,   97.0370255,   11.3432283,           0.
    606,   97.3261032,   23.2469463,           0.
    607,   72.7411118,   10.0076151,           0.
    608,   75.9808731,   75.4369888,           0.
    609,   76.2699661,   35.9316826,           0.
    610,    76.270134,   43.9165459,           0.
    611,   76.2704391,   51.9013824,           0.
    612,   76.2697067,    63.878788,           0.
    613,   76.2679672,   23.9537716,           0.
    614,   76.2685394,   27.9465523,           0.
    615,   76.2636414,   19.9641495,           0.
    616,   72.4740372,    6.6283989,           0.
    617,   76.3239746,   15.9144077,           0.
    618,   76.2683716,   31.9391651,           0.
    619,   76.2688751,    39.924118,           0.
    620,   76.2691727,   47.9089661,           0.
    621,   76.2569427,   67.8558273,           0.
    622,   76.2694321,   55.8938141,           0.
    623,   76.2685928,   59.8862801,           0.
    624,   76.1822205,   71.7218704,           0.
    625,   76.1835251,   82.5672913,           0.
    626,    96.652626,   6.93580198,           0.
    627,   76.3496857,   7.54392004,           0.
    628,    86.686554,   10.0804482,           0.
    629,   82.6911621,   10.1809292,           0.
    630,   92.4797287,   6.64626408,           0.
    631,   93.9550705,   32.9391632,           0.
    632,   93.9536438,   36.8147202,           0.
    633,   93.9553528,   29.0625973,           0.
    634,   93.9532242,   40.6900635,           0.
    635,   93.9531097,   44.5653381,           0.
    636,   93.9531021,    48.440609,           0.
    637,   93.9531097,   52.3158913,           0.
    638,   93.9531479,   56.1912384,           0.
    639,   93.9536743,   60.0667572,           0.
    640,   93.9550705,   63.9429092,           0.
    641,   93.9590378,   67.8205948,           0.
    642,   93.1757889,   13.3208942,           0.
    643,   94.0327759,   83.3204193,           0.
    644,   93.9517288,   25.1832256,           0.
    645,   93.8113861,    17.483408,           0.
    646,   93.9678802,   71.7000427,           0.
    647,   94.0235596,   87.2302246,           0.
    648,   93.9245834,   21.3126869,           0.
    649,   94.0039749,   79.4545746,           0.
    650,   93.9829712,   75.5794678,           0.
    651,   93.9782867,   91.1313477,           0.
    652,   94.2578964,   94.5339584,           0.
    653,    92.621582,   97.4772797,           0.
    654,     76.25737,   11.8707609,           0.
    655,   79.7871704,   49.7142487,           0.
    656,   79.7940826,   45.7182045,           0.
    657,   79.8016815,   41.7240829,           0.
    658,   79.7997589,   53.6618538,           0.
    659,   79.7958679,   57.6468773,           0.
    660,   79.8039474,   37.7441902,           0.
    661,   79.8043365,   33.7688408,           0.
    662,   79.8070831,    61.588131,           0.
    663,   79.8041611,   29.7941494,           0.
    664,   79.7985535,   65.5715408,           0.
    665,   79.8449097,   69.6038361,           0.
    666,   79.8036118,    25.818819,           0.
    667,   79.8026962,   21.8474579,           0.
    668,    79.834549,   17.9179668,           0.
    669,   79.5435333,   73.7158508,           0.
    670,   84.0732651,   86.4388351,           0.
    671,    79.904335,   84.1542206,           0.
    672,   90.4058533,    93.384964,           0.
    673,   87.0492554,   90.0582275,           0.
    674,    79.453125,   80.2055359,           0.
    675,   84.7229843,   13.4566422,           0.
    676,   90.5978622,   81.3916245,           0.
    677,   90.4912109,   19.4414177,           0.
    678,   90.6427155,   16.1320648,           0.
    679,   90.5324783,   77.3849487,           0.
    680,   90.5173721,   31.0753136,           0.
    681,   90.5076904,   34.9726295,           0.
    682,   90.5098343,     38.85289,           0.
    683,   90.5088196,   42.7400703,           0.
    684,   90.5038681,   46.6349297,           0.
    685,    90.503212,   50.5225639,           0.
    686,   90.5022659,   54.4123535,           0.
    687,    90.503334,    58.297039,           0.
    688,   90.5056992,   62.1810875,           0.
    689,   90.5223694,    66.092926,           0.
    690,   90.4901428,   23.3011494,           0.
    691,   90.7486496,   85.2291412,           0.
    692,   90.6694031,   69.8994293,           0.
    693,   90.4883575,   27.2122459,           0.
    694,   90.6931458,   88.9790649,           0.
    695,   90.6797562,    73.533844,           0.
    696,   93.9965668,   9.64177036,           0.
    697,   90.6328354,   9.95387459,           0.
    698,   79.2506638,   10.0407982,           0.
    699,   80.2954636,   13.6816921,           0.
    700,   83.5172806,   67.1200485,           0.
    701,   83.4017944,   47.2918396,           0.
    702,   83.4078522,   43.3353653,           0.
    703,   83.4034424,   55.1763535,           0.
    704,   83.4047089,   51.2224426,           0.
    705,   83.4119339,   39.3861313,           0.
    706,   83.4090042,   35.4512672,           0.
    707,   83.4103394,   59.0916634,           0.
    708,   83.4297638,   63.0447502,           0.
    709,   83.4083557,   31.5119972,           0.
    710,   83.4032822,   27.5721245,           0.
    711,   83.3999634,   23.6173725,           0.
    712,   83.3246384,   19.7021351,           0.
    713,   83.9478378,    71.768837,           0.
    714,   87.9584656,   86.8476105,           0.
    715,   87.2749481,   83.4816666,           0.
    716,   86.9175873,   79.2933655,           0.
    717,   86.8560791,   17.1196194,           0.
    718,   86.9800949,   41.0471878,           0.
    719,   86.9734421,   37.1480675,           0.
    720,   86.9700699,   44.9736443,           0.
    721,   86.9731522,   33.2387428,           0.
    722,   86.9669647,   48.8905525,           0.
    723,    86.965538,   52.8069496,           0.
    724,   86.9681778,   56.7123032,           0.
    725,   86.9730835,   60.6224174,           0.
    726,    87.009346,    64.583725,           0.
    727,   86.9257584,   21.4266186,           0.
    728,   86.9638367,   29.3314056,           0.
    729,   86.9452209,   25.4101524,           0.
    730,   87.2536697,   68.5263214,           0.
    731,   87.1048203,   75.0892944,           0.
    732,   87.9310989,   71.7635498,           0.
    733,   88.7861557,   13.3439236,           0.
    734,   83.0067444,   16.3756104,           0.
    735,   82.7067337,   76.9675751,           0.
    736,   83.3883286,   81.7568665,           0.
    737,   72.7413254,   81.2812424,           0.
    738,     78.72789,   77.0551376,           0.
    739,   75.9649353,   79.0115891,           0.
    740,   65.9245758,    61.883255,           0.
    741,    52.832016,   93.9212265,           0.
    742,     50.54179,   97.4081192,           0.
    743,   65.9237518,   21.9594841,           0.
    744,   65.9226151,    25.951355,           0.
    745,   65.9220428,   29.9432087,           0.
    746,   65.9214783,   33.9355125,           0.
    747,   65.9211731,   37.9279251,           0.
    748,   65.9210815,   41.9203415,           0.
    749,   65.9210587,   45.9127579,           0.
    750,   65.9210892,   49.9051704,           0.
    751,    65.921257,   53.8975868,           0.
    752,   65.9229279,   57.8904114,           0.
    753,   65.9303894,   65.8766937,           0.
    754,   65.9369278,   69.8701096,           0.
    755,   65.9189224,   73.8960266,           0.
    756,   58.4258728,   87.2900925,           0.
    757,   65.8613892,    78.098381,           0.
    758,   65.7771988,   82.6270142,           0.
    759,   55.4295654,    90.675354,           0.
    760,   62.2860603,   85.2473221,           0.
    761,   30.3391914,   101.148712,           0.
    762,   34.3817863,   101.154999,           0.
    763,   38.4814301,   101.028259,           0.
    764,   43.0181618,   100.418694,           0.
    765,   47.6651268,   100.893852,           0.
    766,   3.50890446,   13.5293169,           0.
    767,   3.44123292,   17.4206181,           0.
    768,   3.37341499,   21.3105125,           0.
    769,   3.36188698,   25.1884537,           0.
    770,   3.35989022,     29.06423,           0.
    771,   3.35955358,   32.9395752,           0.
    772,   3.35943341,   36.8148384,           0.
    773,   3.35948801,   40.6900902,           0.
    774,   3.35957336,   44.5653381,           0.
    775,   3.35951352,   48.4405823,           0.
    776,   3.35942745,   52.3158302,           0.
    777,   3.35948753,   56.1910782,           0.
    778,   3.35924292,   60.0663795,           0.
    779,   3.35858941,   63.9416695,           0.
    780,   3.35816312,   67.8167419,           0.
    781,   3.35890961,   71.6917038,           0.
    782,    3.3608799,   75.5668488,           0.
    783,   3.36393881,   79.4418869,           0.
    784,   3.36774707,   83.3168411,           0.
    785,   3.37523603,    87.190979,           0.
    786,   3.41707158,   91.0795898,           0.
    787,   3.55331588,   95.0995712,           0.
    788,   3.60519075,   99.3366928,           0.
    789,   64.0986176,   3.57919788,           0.
    790,   59.8960915,   3.53642035,           0.
    791,   55.9060287,   3.39644361,           0.
    792,   52.0348091,   3.35870028,           0.
    793,   48.1777573,   3.35113215,           0.
    794,   44.3230133,   3.34932971,           0.
    795,   40.4686546,   3.34853315,           0.
    796,   36.6143837,   3.34742856,           0.
    797,   32.7601776,   3.34651494,           0.
    798,   28.9060268,   3.34546924,           0.
    799,   25.0518932,   3.34447837,           0.
    800,   21.1977711,   3.34363461,           0.
    801,   17.3436508,   3.34297371,           0.
    802,   13.4692421,   3.37456942,           0.
    803,    9.4564085,   3.48259377,           0.
    804,   5.24342918,   3.49691486,           0.
    805,   38.5406876,   6.70357752,           0.
    806,   53.9846115,   6.75166416,           0.
    807,   46.2499313,    6.7074194,           0.
    808,   34.6861839,   6.70169449,           0.
    809,   30.8320274,   6.69878864,           0.
    810,   26.9780598,   6.69597626,           0.
    811,   23.1243877,   6.69360018,           0.
    812,   19.2722034,   6.69254541,           0.
    813,   15.4262991,   6.71519375,           0.
    814,    11.545785,   6.79686785,           0.
    815,   57.9091454,   6.90479708,           0.
    816,   50.1083984,    6.7197423,           0.
    817,   42.3952408,    6.7071023,           0.
    818,   3.51103234,    9.6839304,           0.
    819,   6.75267458,   85.2486649,           0.
    820,   6.71852303,   69.7533951,           0.
    821,   6.72860336,   77.5016785,           0.
    822,   6.89749527,   92.9767532,           0.
    823,   6.85687494,   19.3720703,           0.
    824,   6.72199774,   27.1264896,           0.
    825,   6.72173357,   34.8772087,           0.
    826,   6.72204685,   38.7524643,           0.
    827,   6.72173929,   50.3782082,           0.
    828,   6.72221088,   42.6277122,           0.
    829,    6.7224946,   46.5029602,           0.
    830,   6.72191334,   54.2534523,           0.
    831,   6.72142792,   58.1289711,           0.
    832,   6.72001696,   62.0046387,           0.
    833,   3.17985725,   6.42191935,           0.
    834,   7.07779837,   15.4701862,           0.
    835,   6.71869946,    65.879509,           0.
    836,   6.74697113,   23.2499428,           0.
    837,   6.72234678,   31.0019016,           0.
    838,   6.79182339,   89.0955048,           0.
    839,   6.73967171,   81.3750076,           0.
    840,   6.72284842,   73.6270065,           0.
    841,   62.4362068,   75.9896393,           0.
    842,   62.4707146,   35.9315605,           0.
    843,   62.4700546,   43.9165535,           0.
    844,   62.4704208,   51.9015121,           0.
    845,   62.4872856,   63.8852959,           0.
    846,   65.9239273,   17.9633999,           0.
    847,   62.4768753,   23.9560471,           0.
    848,   62.4742851,   27.9475708,           0.
    849,   65.8938217,   9.98280048,           0.
    850,   65.9241486,   13.9594316,           0.
    851,   62.4728203,   31.9390469,           0.
    852,   62.4962234,   71.8959198,           0.
    853,   62.4726295,   55.8947754,           0.
    854,   62.4785767,   59.8899078,           0.
    855,   62.5000839,   67.8846436,           0.
    856,   62.4708405,   39.9240723,           0.
    857,   62.4707947,   47.9090385,           0.
    858,   26.2937527,   101.148613,           0.
    859,   18.1675034,   101.085114,           0.
    860,   22.2410069,   101.138245,           0.
    861,   32.3664932,   97.6934586,           0.
    862,   36.3342209,   97.6741257,           0.
    863,   40.2188187,   97.3986893,           0.
    864,    14.065465,   101.012115,           0.
    865,   10.0362797,   101.047073,           0.
    866,   6.65436029,   101.403671,           0.
    867,   51.5008736,   89.9259644,           0.
    868,   49.0502052,   93.9040375,           0.
    869,   54.6611137,   87.4020004,           0.
    870,   59.4745712,    83.496727,           0.
    871,   62.2674828,   7.50699043,           0.
    872,   7.51824808,   97.3583755,           0.
    873,    7.1826129,   7.32674646,           0.
    874,   59.4411545,   10.0534544,           0.
    875,   10.0622311,   94.3954163,           0.
    876,   44.3219833,   10.0750208,           0.
    877,   48.1801643,   10.0836163,           0.
    878,   52.0928955,   10.1227112,           0.
    879,   13.5029163,   10.0177097,           0.
    880,   17.3423786,   10.0283098,           0.
    881,   21.1962643,   10.0443363,           0.
    882,   40.4662437,   10.0719738,           0.
    883,   25.0491734,   10.0504475,           0.
    884,   28.9025402,    10.056016,           0.
    885,   32.7564392,   10.0616531,           0.
    886,   36.6109238,   10.0676622,           0.
    887,    56.003685,   10.1882906,           0.
    888,   10.0871992,   56.1917458,           0.
    889,   10.0855188,   60.0681953,           0.
    890,   10.0882378,   52.3160248,           0.
    891,   10.0886545,   48.4406395,           0.
    892,   10.0888405,   44.5653496,           0.
    893,   10.0887661,   40.6900902,           0.
    894,   10.0884733,   36.8148079,           0.
    895,   10.0879431,   32.9394569,           0.
    896,   10.0871153,   29.0640411,           0.
    897,   10.0900192,   25.1882496,           0.
    898,   10.2087879,   21.3237076,           0.
    899,   10.4019442,   17.5176277,           0.
    900,   10.0809317,   67.8160782,           0.
    901,     10.08323,   63.9433556,           0.
    902,   10.0934668,   75.5584412,           0.
    903,   10.0854301,   71.6866379,           0.
    904,   10.1081657,   79.4303741,           0.
    905,   10.1282873,   83.3017883,           0.
    906,   10.1612005,   87.1371231,           0.
    907,   10.2255926,   91.0077972,           0.
    908,   7.09772491,   11.5430079,           0.
    909,   10.0817785,   9.82031727,           0.
    910,   61.9267769,   80.5857315,           0.
    911,   62.4778519,   19.9789314,           0.
    912,   62.4190025,   11.8720016,           0.
    913,   59.0259514,   53.8994064,           0.
    914,   59.0330276,   57.8963203,           0.
    915,   59.0245476,   49.9058571,           0.
    916,    59.024025,   45.9129906,           0.
    917,   59.0240135,   41.9202843,           0.
    918,   59.0248146,   37.9274254,           0.
    919,   59.0269661,   33.9342155,           0.
    920,   59.0300446,   29.9433231,           0.
    921,   59.0294151,   25.9737568,           0.
    922,   59.0473709,   61.8967018,           0.
    923,   59.0908318,   73.8630981,           0.
    924,   59.0680885,   65.8963852,           0.
    925,   59.0851936,   69.8893204,           0.
    926,   62.3739853,   15.9360943,           0.
    927,   46.5170593,   97.2554398,           0.
    928,   28.3246899,   97.6851959,           0.
    929,   20.2086773,    97.568367,           0.
    930,   11.9272509,    97.426918,           0.
    931,   16.0782051,   97.4100647,           0.
    932,   38.2244606,   94.2243881,           0.
    933,   34.3456764,   94.2543411,           0.
    934,   24.2731018,   97.6557083,           0.
    935,   45.3892174,   93.9467773,           0.
    936,   58.4437943,   13.7301121,           0.
    937,   13.8185778,   93.4291763,           0.
    938,   11.0130424,   13.4025278,           0.
    939,   54.1263199,    13.463316,           0.
    940,    34.679245,   13.4333763,           0.
    941,   23.1379013,   13.3966513,           0.
    942,   19.2475739,   13.4360094,           0.
    943,   26.9776134,   13.4128189,           0.
    944,   15.2977018,   13.3619776,           0.
    945,   30.8260155,   13.4249153,           0.
    946,   50.2019882,   13.4622841,           0.
    947,   46.2741585,   13.4566841,           0.
    948,   38.5347404,   13.4425411,           0.
    949,   42.3967209,   13.4507675,           0.
    950,   13.4489107,    69.748497,           0.
    951,    13.499651,   81.3500671,           0.
    952,   13.4485741,   65.8806152,           0.
    953,   13.5372763,   85.2389603,           0.
    954,   13.4757223,   77.4811325,           0.
    955,   13.5401287,   89.1449509,           0.
    956,   13.4555683,   58.1318016,           0.
    957,   13.4581499,   54.2547112,           0.
    958,   13.4593153,   50.3786163,           0.
    959,   13.4597673,   46.5030899,           0.
    960,   13.4598026,   42.6277275,           0.
    961,   13.4592371,   38.7522697,           0.
    962,   13.4578962,   34.8766174,           0.
    963,   13.4558716,   31.0009289,           0.
    964,   13.4539232,   27.1250401,           0.
    965,   13.5103235,    23.254055,           0.
    966,   13.6077595,   19.4516735,           0.
    967,   13.4596434,   73.6138535,           0.
    968,   13.4525299,   62.0080681,           0.
    969,   58.9174728,   77.7785568,           0.
    970,   30.3501358,   94.2447205,           0.
    971,   55.6906052,   71.8758011,           0.
    972,   58.9008827,   22.0295544,           0.
    973,   55.5844269,   51.9043236,           0.
    974,   55.5918961,   55.9031448,           0.
    975,   55.5828743,    47.910202,           0.
    976,    55.582283,   43.9167328,           0.
    977,   55.5833397,    39.923214,           0.
    978,   55.5863533,   35.9290314,           0.
    979,   55.5905609,   31.9380283,           0.
    980,   55.5666771,   27.9896183,           0.
    981,   55.6623344,   67.9074478,           0.
    982,   58.8000832,   18.0401611,           0.
    983,   55.6085548,    59.908268,           0.
    984,   55.6344604,   63.9133797,           0.
    985,   36.3175354,   90.8736267,           0.
    986,   18.1902752,    93.867424,           0.
    987,    22.249197,    93.971962,           0.
    988,   26.3097897,   94.1617126,           0.
    989,   66.2020035,   6.60924625,           0.
    990,      52.2416,   16.7321281,           0.
    991,   21.2449379,    16.692564,           0.
    992,    17.086853,   17.1441879,           0.
    993,     25.04813,   16.6690464,           0.
    994,   32.7452431,   16.8021908,           0.
    995,    28.895092,   16.7297859,           0.
    996,   48.2687073,   16.7913971,           0.
    997,   44.3436241,   16.8232746,           0.
    998,   36.6000328,   16.8155174,           0.
    999,   40.4634171,   16.8250141,           0.
   1000,   16.8168964,   67.8136673,           0.
   1001,   16.8238144,    71.673439,           0.
   1002,   16.8592052,   83.3321915,           0.
   1003,   16.7954617,   87.2863083,           0.
   1004,    16.860302,   79.4062195,           0.
   1005,   16.8405781,   75.5344238,           0.
   1006,   16.8308315,   56.1955376,           0.
   1007,   16.8338928,   52.3175735,           0.
   1008,   16.8351631,   48.4411545,           0.
   1009,   16.8353081,   44.5653534,           0.
   1010,   16.8344517,   40.6894951,           0.
   1011,   16.8324146,   36.8132629,           0.
   1012,   16.8291187,   32.9369469,           0.
   1013,   16.8248253,   29.0606651,           0.
   1014,   16.9333706,     25.14114,           0.
   1015,   16.9556866,   21.2571793,           0.
   1016,   16.8206749,   63.9472008,           0.
   1017,   16.8265934,   60.0735245,           0.
   1018,   13.4814606,   16.1755981,           0.
   1019,   55.6941605,   75.7699661,           0.
   1020,   40.1538925,   90.8747406,           0.
   1021,   32.3635674,   90.8362656,           0.
   1022,   55.4347305,   24.1658268,           0.
   1023,   52.2736702,   69.9133224,           0.
   1024,    52.145401,    45.913784,           0.
   1025,   52.1465988,    41.919136,           0.
   1026,   52.1503525,    37.923584,           0.
   1027,   52.1545563,   53.9095764,           0.
   1028,   52.1490135,   49.9100304,           0.
   1029,   52.1555519,   33.9319572,           0.
   1030,   52.1307716,   29.9866543,           0.
   1031,   52.1720123,   57.9190559,           0.
   1032,   54.8094254,   20.0469246,           0.
   1033,   52.2344437,   65.9338913,           0.
   1034,   52.2009239,   61.9314194,           0.
   1035,   20.1617298,   89.8875275,           0.
   1036,   24.3821278,   90.5624161,           0.
   1037,   28.3418102,   90.7371826,           0.
   1038,   16.5012341,   90.7230759,           0.
   1039,   50.3826599,   20.0851498,           0.
   1040,     23.12537,   19.8059959,           0.
   1041,    20.190197,   69.7387466,           0.
   1042,   30.8126564,   20.0793266,           0.
   1043,   26.9440613,   19.9394569,           0.
   1044,   46.3497009,   20.2344856,           0.
   1045,   34.6629639,   20.1673622,           0.
   1046,   38.5198402,   20.1995296,           0.
   1047,   42.3939095,   20.2125893,           0.
   1048,   20.1906223,   65.8825836,           0.
   1049,   20.2695904,   81.4177933,           0.
   1050,   20.1697826,   85.4814911,           0.
   1051,   20.2052479,   73.5886612,           0.
   1052,   20.2339134,   77.4610519,           0.
   1053,   20.2111301,    54.259079,           0.
   1054,   20.2116947,   38.7495537,           0.
   1055,    20.214407,   42.6265182,           0.
   1056,   20.2154331,   46.5030785,           0.
   1057,   20.2697506,   27.1534634,           0.
   1058,   20.2148285,   50.3802872,           0.
   1059,   20.2139111,   31.0008583,           0.
   1060,   20.2098522,   34.8729172,           0.
   1061,   20.7599487,   23.0974998,           0.
   1062,    20.205368,   58.1396332,           0.
   1063,   20.1979237,    62.015255,           0.
   1064,    55.606266,   79.5585861,           0.
   1065,   55.6842461,   16.4025288,           0.
   1066,   38.3165932,   87.4973679,           0.
   1067,   52.3101463,   73.8387222,           0.
   1068,   34.3781395,   87.4628754,           0.
   1069,   52.0914955,   26.1586399,           0.
   1070,   48.7144165,   43.9157448,           0.
   1071,   48.7159615,   47.9132538,           0.
   1072,   48.7187691,   39.9183502,           0.
   1073,   48.7226753,   51.9157066,           0.
   1074,   48.7424812,   35.9479103,           0.
   1075,   48.6697502,   32.0134735,           0.
   1076,   48.7385941,   55.9284325,           0.
   1077,   48.8473549,   67.9528046,           0.
   1078,   48.7673721,   59.9489594,           0.
   1079,    48.805069,   63.9600601,           0.
   1080,   26.4067249,   87.2684631,           0.
   1081,    30.388567,   87.3860703,           0.
   1082,   19.8345585,   19.5994854,           0.
   1083,   48.5507889,   23.9273357,           0.
   1084,   23.5628281,   67.8102036,           0.
   1085,   23.5700798,    71.654007,           0.
   1086,   28.7050018,   23.3354626,           0.
   1087,   24.0700836,    83.668541,           0.
   1088,   32.6344032,   23.5285225,           0.
   1089,   23.6290321,   79.4123306,           0.
   1090,   36.5507545,    23.575386,           0.
   1091,   44.3316727,   23.5527725,           0.
   1092,   40.4536972,   23.5611248,           0.
   1093,   23.5903702,   75.5388794,           0.
   1094,   23.5700073,   63.9544563,           0.
   1095,   23.5992451,   44.5640907,           0.
   1096,   23.5965481,   52.3221626,           0.
   1097,   23.5998859,   48.4423752,           0.
   1098,   23.5796108,   28.9508266,           0.
   1099,   23.6003246,   40.6834564,           0.
   1100,   23.7341881,   32.8199081,           0.
   1101,   23.1779327,   25.7258835,           0.
   1102,   23.6423225,   36.7728462,           0.
   1103,   23.5899868,   56.2049026,           0.
   1104,   23.5806694,    60.083992,           0.
   1105,   42.1375961,   87.5223923,           0.
   1106,   36.3937035,   84.1055832,           0.
   1107,   52.2478371,   77.7177582,           0.
   1108,   48.9116173,    71.878418,           0.
   1109,   23.0380898,   87.3736877,           0.
   1110,   48.6873741,   28.1119232,           0.
   1111,   45.2888756,   45.9151192,           0.
   1112,   45.2920227,   41.9143677,           0.
   1113,    45.294384,   49.9198647,           0.
   1114,   45.3387794,   37.9674835,           0.
   1115,   45.3240891,   34.1435165,           0.
   1116,    45.309063,    53.935524,           0.
   1117,   45.3365402,   57.9628105,           0.
   1118,   45.4170303,   65.9868851,           0.
   1119,   45.3743401,   61.9829102,           0.
   1120,   32.3859787,   83.9325027,           0.
   1121,   28.3635674,   83.8532715,           0.
   1122,   26.9333229,   69.7408905,           0.
   1123,   26.9173241,   73.6412277,           0.
   1124,   45.7761497,   26.5023041,           0.
   1125,   26.9420872,   65.8914948,           0.
   1126,   26.8724918,   77.5213928,           0.
   1127,   30.3699036,   26.8844738,           0.
   1128,   34.4374657,   27.0148125,           0.
   1129,   38.4667625,   26.9514694,           0.
   1130,   42.4025192,   26.8022099,           0.
   1131,   40.2833366,   84.1556778,           0.
   1132,   43.8550987,   90.7776337,           0.
   1133,   26.9886665,    46.502903,           0.
   1134,   26.9869041,   50.3846016,           0.
   1135,   52.1509094,   81.6446304,           0.
   1136,   26.4076042,    26.403986,           0.
   1137,   27.6733303,   30.5504417,           0.
   1138,   26.9914646,   42.6195602,           0.
   1139,   27.1263561,   34.8652992,           0.
   1140,   27.0208683,   38.7475052,           0.
   1141,   26.9801712,    54.269455,           0.
   1142,   26.9555664,   62.0288239,           0.
   1143,   26.9693909,     58.15271,           0.
   1144,   52.2538185,   22.8767757,           0.
   1145,   48.8033257,   75.7593307,           0.
   1146,   45.5008392,   69.9038544,           0.
   1147,   44.8163071,   30.0768795,           0.
   1148,   34.4801865,   80.5996399,           0.
   1149,   41.7195015,   47.7504311,           0.
   1150,   41.6937256,   43.7290573,           0.
   1151,   41.7082977,   39.7568588,           0.
   1152,   41.9208641,   35.9598808,           0.
   1153,   41.6915359,   51.7082176,           0.
   1154,   41.6014023,   55.8213463,           0.
   1155,   41.5909882,   60.0773468,           0.
   1156,   41.7418709,   64.2161102,           0.
   1157,   30.2766457,   79.9900818,           0.
   1158,   26.6423645,    80.889122,           0.
   1159,   30.4941845,   71.6240158,           0.
   1160,    30.506916,   67.6275558,           0.
   1161,   44.1206932,   84.1757889,           0.
   1162,   36.4600029,   30.4654503,           0.
   1163,   38.4028206,   80.7844467,           0.
   1164,   40.5558167,   30.1219025,           0.
   1165,   30.4818859,   63.7228546,           0.
   1166,    45.843647,   87.3780823,           0.
   1167,   30.4778023,   48.5568924,           0.
   1168,   30.4971313,   44.6839333,           0.
   1169,   55.8292084,   83.6989975,           0.
   1170,   48.6882172,   79.6333389,           0.
   1171,   30.3318291,   33.4617538,           0.
   1172,   30.5276108,   40.8055534,           0.
   1173,   30.5753574,   36.8860588,           0.
   1174,   30.4793224,   52.4981575,           0.
   1175,   24.8533192,   23.0513802,           0.
   1176,   30.3251362,   59.9330864,           0.
   1177,   30.3241596,   56.2920532,           0.
   1178,      45.4459,   73.6665726,           0.
   1179,    41.872776,   68.1705017,           0.
   1180,   37.9141579,   45.3347473,           0.
   1181,   37.9252052,   41.3651772,           0.
   1182,   38.1430779,   37.3590279,           0.
   1183,    37.903923,   49.2795563,           0.
   1184,   37.7722969,   53.3925133,           0.
   1185,   37.1444359,   58.0350533,           0.
   1186,   33.1558838,   77.4516983,           0.
   1187,   37.7949905,   62.5936127,           0.
   1188,   34.3388977,   69.2155914,           0.
   1189,   34.2079773,    65.181076,           0.
   1190,   48.2151833,   83.8609695,           0.
   1191,   44.8365059,   77.6802521,           0.
   1192,   32.2570381,   30.4736099,           0.
   1193,    47.450264,   90.5512085,           0.
   1194,   38.9466934,   33.5283966,           0.
   1195,   42.3144798,   80.9428635,           0.
   1196,   30.3628082,   75.6447067,           0.
   1197,   34.1618729,   46.9258041,           0.
   1198,   33.8602791,   61.2607117,           0.
   1199,   34.4128265,   34.4494019,           0.
   1200,    34.129818,   50.9088745,           0.
   1201,   34.2002945,   43.0144539,           0.
   1202,   34.2973976,   38.9799461,           0.
   1203,   58.3508606,   81.0237198,           0.
   1204,   33.8428802,   54.8708725,           0.
   1205,   33.0993805,   58.0783539,           0.
   1206,   36.6798553,   77.4044113,           0.
   1207,   42.0767899,   71.9313736,           0.
   1208,   38.0348091,   66.6534271,           0.
   1209,   42.3127556,   32.7661133,           0.
   1210,   34.6164246,   73.7444305,           0.
   1211,    48.991127,   87.4598694,           0.
   1212,   45.6350174,   81.2586441,           0.
   1213,   40.6037598,    77.685936,           0.
   1214,   38.3284492,   70.6737061,           0.
   1215,   51.8914032,   85.6654053,           0.
   1216,   42.3987923,   75.0582123,           0.
   1217,   39.1173439,   74.4163437,           0.
   1218,   41.8729668,   93.9963455,           0.
   1219,    43.403244,   96.6031876,           0.
*Element, type=S3
  1, 208,  14,  15
  2, 209,  14, 208
  3, 218,  23,  24
  4, 230,  34, 229
  5, 222,  26,  27
  6, 212,  25, 211
  7, 237, 233,  47
  8, 213, 208,  15
  9, 214, 213,  16
 10, 215, 214,  17
 11, 256, 225, 247
 12, 217, 216,  19
 13, 217,  20,  21
 14,  20,   2,  21
 15,  26,   3,  27
 16, 218,  24, 212
 17, 219, 217,  21
 18,  31,  30,   4
 19, 220,  30,  31
 20, 249, 231, 230
 21, 222,  27,  28
 22,  43,  42,   5
 23, 236,  42,  43
 24, 250,  42, 236
 25, 224,  40, 223
 26, 225,  39, 224
 27, 226,  38, 225
 28, 227,  37, 226
 29, 254, 227, 248
 30, 228,  36, 227
 31, 251, 249, 230
 32, 231,  33, 230
 33, 232,  31,  32
 34,  50,   1,  13
 35, 244, 213, 243
 36, 238,  50,  13
 37, 245, 238, 209
 38, 237,  47,  48
 39, 234,  46, 233
 40, 235,  45, 234
 41, 262, 250, 236
 42, 213,  15,  16
 43, 266, 233, 237
 44, 238,  13, 209
 45, 209,  13,  14
 46, 216, 215,  18
 47, 210,  22,  23
 48, 211,  25,  26
 49, 221,  29, 220
 50, 229,  35, 228
 51, 212,  24,  25
 52, 214,  16,  17
 53, 262, 255, 223
 54, 215,  17,  18
 55, 292, 291, 288
 56, 216,  18,  19
 57, 246, 243, 214
 58, 217,  19,  20
 59, 267, 216, 217
 60, 219,  21,  22
 61, 267, 219, 260
 62, 281, 270, 242
 63, 218, 210,  23
 64, 219,  22, 210
 65, 260, 219, 210
 66, 220,  29,  30
 67, 253, 220, 232
 68, 257, 221, 253
 69, 221,  28,  29
 70, 222, 211,  26
 71, 222,  28, 221
 72, 223,  40,  41
 73, 240, 234, 233
 74, 278, 273, 247
 75, 224,  39,  40
 76, 246, 215, 242
 77, 225,  38,  39
 78, 297, 289, 287
 79, 226,  37,  38
 80, 279, 251, 275
 81, 227,  36,  37
 82, 252, 251, 229
 83, 228,  35,  36
 84, 272, 253, 249
 85, 229,  34,  35
 86, 272, 259, 257
 87, 230,  33,  34
 88, 253, 232, 231
 89, 231,  32,  33
 90, 232, 220,  31
 91, 232,  32, 231
 92, 233,  46,  47
 93, 264, 239, 245
 94, 241, 234, 240
 95, 234,  45,  46
 96, 262, 236, 235
 97, 235,  44,  45
 98, 236,  43,  44
 99, 236,  44, 235
100, 239,  48,  49
101, 269, 243, 268
102, 238,  49,  50
103, 245, 209, 208
104, 239, 237,  48
105, 239,  49, 238
106, 283, 264, 271
107, 263, 255, 262
108, 263, 262, 241
109, 241, 235, 234
110, 242, 215, 216
111, 261, 218, 258
112, 243, 213, 214
113, 246, 214, 215
114, 271, 245, 244
115, 244, 208, 213
116, 245, 239, 238
117, 245, 208, 244
118, 256, 248, 226
119, 270, 268, 246
120, 247, 225, 224
121, 255, 247, 224
122, 248, 227, 226
123, 256, 226, 225
124, 251, 230, 229
125, 259, 211, 257
126, 250, 223,  41
127, 250,  41,  42
128, 252, 229, 228
129, 289, 279, 275
130, 254, 252, 228
131, 287, 275, 274
132, 253, 221, 220
133, 253, 231, 249
134, 254, 228, 227
135, 276, 274, 254
136, 255, 224, 223
137, 265, 241, 240
138, 299, 280, 296
139, 277, 276, 248
140, 257, 211, 222
141, 257, 222, 221
142, 258, 218, 212
143, 259, 258, 212
144, 298, 272, 279
145, 259, 212, 211
146, 302, 267, 260
147, 261, 260, 210
148, 286, 274, 276
149, 261, 210, 218
150, 262, 223, 250
151, 262, 235, 241
152, 265, 263, 241
153, 278, 255, 263
154, 284, 283, 269
155, 264, 237, 239
156, 280, 240, 266
157, 284, 268, 282
158, 266, 240, 233
159, 266, 237, 264
160, 267, 242, 216
161, 267, 217, 219
162, 268, 243, 246
163, 270, 246, 242
164, 283, 280, 266
165, 269, 244, 243
166, 281, 242, 267
167, 277, 256, 273
168, 271, 264, 245
169, 271, 244, 269
170, 272, 257, 253
171, 279, 249, 251
172, 273, 256, 247
173, 278, 247, 255
174, 274, 252, 254
175, 276, 254, 248
176, 275, 251, 252
177, 275, 252, 274
178, 277, 248, 256
179, 295, 290, 294
180, 288, 285, 277
181, 288, 277, 273
182, 278, 263, 265
183, 299, 296, 292
184, 298, 289, 258
185, 279, 272, 249
186, 280, 265, 240
187, 283, 266, 264
188, 301, 293, 300
189, 295, 294, 285
190, 282, 268, 270
191, 290, 270, 281
192, 283, 271, 269
193, 284, 269, 268
194, 295, 291, 282
195, 296, 283, 284
196, 300, 294, 290
197, 285, 276, 277
198, 293, 287, 286
199, 286, 276, 285
200, 287, 274, 286
201, 297, 258, 289
202, 292, 273, 278
203, 295, 282, 290
204, 289, 275, 287
205, 298, 258, 259
206, 290, 282, 270
207, 300, 293, 294
208, 296, 291, 292
209, 291, 284, 282
210, 292, 288, 273
211, 299, 278, 265
212, 297, 293, 261
213, 294, 293, 286
214, 294, 286, 285
215, 300, 290, 281
216, 295, 285, 288
217, 295, 288, 291
218, 296, 280, 283
219, 296, 284, 291
220, 297, 287, 293
221, 297, 261, 258
222, 298, 259, 272
223, 298, 279, 289
224, 299, 292, 278
225, 299, 265, 280
226, 302, 300, 281
227, 302, 301, 300
228, 301, 260, 261
229, 301, 261, 293
230, 302, 281, 267
231, 302, 260, 301
232, 355,  19, 323
233, 339,  96,  97
234, 316,  57, 315
235, 327,  75, 326
236, 438,  80,  81
237, 306,  94,  95
238,  13,   1,  51
239, 321,  51,  52
240, 341, 320, 319
241, 342, 318, 317
242, 470, 455, 375
243, 324,  17, 322
244, 323,  19,  18
245, 522, 339,  97
246,  67,   6,  68
247, 310,  67,  68
248, 332,  70, 331
249, 311,  65,  66
250, 312,  64,  65
251, 365, 329, 360
252, 340,  62,  63
253, 308,  61, 307
254, 309,  60, 308
255, 314,  59, 309
256, 306, 304,  94
257, 315,  58, 314
258, 317,  56, 316
259, 318,  55, 317
260, 319,  54, 318
261, 320,  53, 319
262, 321,  52, 320
263,  80,  79,   7
264, 325,  79,  80
265, 362,  78, 325
266, 359, 326,  76
267, 359,  76,  77
268, 450, 441, 423
269, 328,  74, 327
270, 329,  73, 328
271, 360, 329, 328
272, 330,  72, 329
273, 365, 361, 330
274, 408,  68,  69
275, 367,  82,  83
276, 396, 363, 326
277, 435, 368, 407
278, 368,  84,  85
279, 369,  86, 334
280, 334,  86,  87
281, 335, 334,  87
282, 336, 335,  88
283, 337, 336,  89
284, 371, 335, 336
285, 305,  92,  93
286,  91,   8,  92
287, 522,   2,  20
288, 306,  95, 303
289, 305,  93, 304
290, 303,  95,  96
291, 352,  16,  15
292, 343, 308, 307
293, 304,  93,  94
294, 338,  91,  92
295, 338,  92, 305
296, 350, 314, 344
297, 344, 314, 309
298, 307,  61,  62
299, 513, 499, 505
300, 347, 308, 343
301, 308,  60,  61
302, 413, 374, 375
303, 309,  59,  60
304, 311,  66, 310
305, 310,  66,  67
306, 331,  71, 330
307, 312,  65, 311
308, 348, 346, 312
309, 313,  64, 312
310, 340,  63, 313
311, 313,  63,  64
312, 387, 349, 383
313, 314,  58,  59
314, 345, 316, 315
315, 315,  57,  58
316, 384, 351, 342
317, 316,  56,  57
318, 394, 377, 389
319, 317,  55,  56
320, 424, 391, 411
321, 318,  54,  55
322, 353, 352,  15
323, 319,  53,  54
324, 377, 320, 341
325, 320,  52,  53
326, 356,  13, 321
327, 321,  13,  51
328, 354, 323, 324
329, 322,  17,  16
330, 392, 355, 323
331, 324, 323,  18
332, 324,  18,  17
333, 357, 354, 324
334, 325,  78,  79
335, 333,  81,  82
336, 326,  75,  76
337, 464, 459, 403
338, 450, 388, 401
339, 327,  74,  75
340, 423, 346, 388
341, 328,  73,  74
342, 348, 312, 311
343, 329,  72,  73
344, 408, 376, 310
345, 330,  71,  72
346, 361, 331, 330
347, 331,  70,  71
348, 408, 332, 376
349, 332,  69,  70
350, 438, 333, 410
351, 435, 404, 368
352, 335,  87,  88
353, 458, 406, 436
354, 336,  88,  89
355, 372, 371, 336
356, 337,  89,  90
357, 358, 337, 338
358, 338, 337,  90
359, 374, 305, 304
360, 338,  90,  91
361, 358, 338, 305
362, 339, 303,  96
363, 522, 355, 339
364, 340, 307,  62
365, 379, 313, 346
366, 351, 319, 318
367, 424, 357, 391
368, 349, 317, 316
369, 421, 387, 416
370, 382, 381, 344
371, 390, 307, 340
372, 347, 344, 309
373, 375, 306, 373
374, 350, 345, 315
375, 383, 345, 380
376, 346, 313, 312
377, 425, 388, 348
378, 347, 309, 308
379, 386, 382, 347
380, 376, 348, 311
381, 366, 332, 331
382, 349, 342, 317
383, 349, 316, 345
384, 350, 315, 314
385, 381, 380, 350
386, 351, 341, 319
387, 351, 318, 342
388, 352, 322,  16
389, 353,  15,  14
390, 356, 353,  14
391, 377, 356, 321
392, 469, 395, 339
393, 357, 324, 322
394, 355,  20,  19
395, 392, 323, 354
396, 356,  14,  13
397, 377, 321, 320
398, 391, 322, 352
399, 385, 351, 384
400, 375, 374, 304
401, 371, 370, 335
402, 362,  77,  78
403, 362, 359,  77
404, 364, 328, 327
405, 399, 397, 364
406, 401, 366, 361
407, 365, 330, 329
408, 410, 333, 403
409, 459, 410, 403
410, 363, 327, 326
411, 396, 326, 359
412, 364, 360, 328
413, 364, 327, 363
414, 397, 360, 364
415, 432, 397, 430
416, 425, 376, 366
417, 366, 331, 361
418, 367, 333,  82
419, 404,  83,  84
420, 369, 368,  85
421, 437, 402, 429
422, 369,  85,  86
423, 402, 334, 370
424, 370, 334, 335
425, 418, 382, 417
426, 372, 336, 337
427, 481, 405, 372
428, 372, 337, 358
429, 481, 358, 378
430, 373, 306, 303
431, 395, 303, 339
432, 374, 358, 305
433, 375, 304, 306
434, 510, 507, 490
435, 467, 456, 439
436, 376, 311, 310
437, 376, 332, 366
438, 389, 341, 385
439, 377, 353, 356
440, 378, 358, 374
441, 506, 496, 493
442, 414, 390, 379
443, 379, 340, 313
444, 380, 345, 350
445, 381, 350, 344
446, 382, 344, 347
447, 406, 371, 405
448, 386, 347, 343
449, 516, 471, 489
450, 448, 421, 446
451, 383, 349, 345
452, 420, 411, 385
453, 387, 384, 342
454, 411, 389, 385
455, 385, 341, 351
456, 422, 343, 390
457, 398, 360, 397
458, 387, 342, 349
459, 415, 383, 380
460, 388, 346, 348
461, 400, 365, 398
462, 411, 394, 389
463, 389, 377, 341
464, 390, 343, 307
465, 390, 340, 379
466, 391, 357, 322
467, 394, 391, 352
468, 426, 354, 393
469, 469, 355, 392
470, 452, 426, 393
471, 393, 354, 357
472, 394, 352, 353
473, 394, 353, 377
474, 395, 373, 303
475, 469, 426, 440
476, 409, 359, 362
477, 459, 427, 409
478, 399, 364, 363
479, 457, 428, 451
480, 461, 431, 433
481, 398, 365, 360
482, 428, 396, 427
483, 407, 369, 402
484, 431, 401, 400
485, 400, 361, 365
486, 425, 401, 388
487, 401, 361, 400
488, 402, 369, 334
489, 429, 370, 406
490, 403, 333, 367
491, 434, 367, 404
492, 404, 367,  83
493, 404,  84, 368
494, 405, 371, 372
495, 439, 378, 413
496, 495, 492, 476
497, 406, 370, 371
498, 501, 487, 480
499, 407, 368, 369
500, 408, 310,  68
501, 408,  69, 332
502, 409, 396, 359
503, 410, 409, 362
504, 410, 362, 325
505, 438, 410, 325
506, 411, 391, 394
507, 420, 385, 384
508, 416, 383, 415
509, 412, 373, 395
510, 413, 378, 374
511, 470, 375, 373
512, 442, 414, 441
513, 423, 414, 379
514, 443, 416, 415
515, 419, 380, 381
516, 497, 478, 494
517, 416, 387, 383
518, 417, 382, 386
519, 449, 386, 422
520, 477, 476, 447
521, 418, 381, 382
522, 419, 415, 380
523, 419, 381, 418
524, 497, 454, 448
525, 421, 420, 384
526, 421, 384, 387
527, 446, 416, 443
528, 422, 386, 343
529, 422, 390, 414
530, 423, 379, 346
531, 450, 401, 431
532, 424, 393, 357
533, 453, 411, 420
534, 425, 348, 376
535, 425, 366, 401
536, 426, 392, 354
537, 516, 489, 507
538, 501, 464, 465
539, 427, 396, 409
540, 428, 399, 363
541, 428, 363, 396
542, 505, 480, 487
543, 429, 402, 370
544, 433, 398, 432
545, 430, 397, 399
546, 433, 400, 398
547, 432, 398, 397
548, 460, 432, 430
549, 474, 441, 461
550, 462, 432, 460
551, 433, 431, 400
552, 434, 403, 367
553, 435, 434, 404
554, 463, 407, 437
555, 465, 464, 434
556, 436, 406, 405
557, 456, 378, 439
558, 437, 407, 402
559, 466, 429, 458
560, 438, 325,  80
561, 438,  81, 333
562, 471, 413, 455
563, 444, 443, 415
564, 440, 412, 395
565, 469, 440, 395
566, 462, 461, 433
567, 441, 414, 423
568, 474, 472, 442
569, 442, 422, 414
570, 468, 440, 452
571, 444, 415, 419
572, 447, 419, 418
573, 498, 456, 467
574, 445, 418, 417
575, 479, 417, 449
576, 454, 424, 453
577, 446, 421, 416
578, 447, 444, 419
579, 447, 418, 445
580, 454, 453, 448
581, 448, 420, 421
582, 449, 417, 386
583, 449, 422, 442
584, 450, 423, 388
585, 461, 450, 431
586, 451, 428, 427
587, 464, 427, 459
588, 452, 440, 426
589, 454, 393, 424
590, 453, 424, 411
591, 453, 420, 448
592, 497, 448, 478
593, 454, 452, 393
594, 455, 413, 375
595, 490, 470, 412
596, 456, 436, 405
597, 481, 456, 405
598, 457, 430, 399
599, 457, 399, 428
600, 458, 429, 406
601, 518, 511, 508
602, 459, 409, 410
603, 464, 403, 434
604, 484, 462, 460
605, 483, 430, 457
606, 461, 441, 450
607, 462, 433, 432
608, 503, 474, 486
609, 503, 493, 472
610, 463, 435, 407
611, 485, 437, 466
612, 465, 434, 435
613, 464, 451, 427
614, 465, 435, 463
615, 487, 465, 463
616, 466, 437, 429
617, 488, 458, 482
618, 471, 467, 439
619, 476, 473, 444
620, 475, 443, 473
621, 468, 412, 440
622, 469, 339, 355
623, 469, 392, 426
624, 470, 373, 412
625, 490, 489, 470
626, 471, 439, 413
627, 507, 494, 491
628, 503, 472, 474
629, 472, 449, 442
630, 473, 443, 444
631, 476, 444, 447
632, 474, 442, 441
633, 486, 461, 462
634, 510, 494, 507
635, 475, 446, 443
636, 477, 447, 445
637, 492, 491, 473
638, 496, 445, 479
639, 517, 515, 513
640, 478, 448, 446
641, 478, 446, 475
642, 479, 445, 417
643, 479, 449, 472
644, 480, 457, 451
645, 505, 499, 480
646, 481, 372, 358
647, 481, 378, 456
648, 482, 458, 436
649, 498, 482, 436
650, 483, 460, 430
651, 483, 457, 480
652, 500, 460, 483
653, 500, 483, 499
654, 485, 463, 437
655, 502, 466, 488
656, 486, 474, 461
657, 486, 462, 484
658, 501, 480, 451
659, 487, 463, 485
660, 488, 466, 458
661, 521, 506, 517
662, 489, 471, 455
663, 489, 455, 470
664, 490, 412, 468
665, 510, 497, 494
666, 491, 475, 473
667, 492, 473, 476
668, 495, 476, 477
669, 511, 509, 492
670, 521, 512, 506
671, 493, 479, 472
672, 494, 478, 475
673, 494, 475, 491
674, 512, 477, 496
675, 508, 482, 498
676, 496, 477, 445
677, 496, 479, 493
678, 497, 468, 452
679, 497, 452, 454
680, 498, 436, 456
681, 508, 498, 467
682, 499, 483, 480
683, 513, 505, 502
684, 514, 488, 504
685, 500, 484, 460
686, 501, 451, 464
687, 501, 465, 487
688, 502, 485, 466
689, 517, 513, 514
690, 503, 486, 484
691, 515, 484, 500
692, 504, 488, 482
693, 520, 482, 508
694, 505, 487, 485
695, 505, 485, 502
696, 506, 493, 503
697, 515, 503, 484
698, 518, 467, 516
699, 507, 489, 490
700, 518, 516, 509
701, 520, 511, 519
702, 509, 507, 491
703, 509, 491, 492
704, 510, 490, 468
705, 510, 468, 497
706, 511, 492, 495
707, 519, 511, 495
708, 512, 495, 477
709, 512, 496, 506
710, 513, 500, 499
711, 514, 513, 502
712, 514, 502, 488
713, 521, 519, 512
714, 515, 506, 503
715, 515, 500, 513
716, 516, 467, 471
717, 516, 507, 509
718, 521, 514, 504
719, 517, 506, 515
720, 518, 509, 511
721, 518, 508, 467
722, 520, 519, 504
723, 519, 495, 512
724, 520, 504, 482
725, 520, 508, 511
726, 521, 517, 514
727, 521, 504, 519
728, 522,  97,   2
729, 522,  20, 355
 730, 578, 525, 158
 731, 623, 574, 622
 732, 526, 157, 525
 733, 577, 535, 152
 734, 599, 535, 577
 735, 691, 676, 643
 736, 118,  10, 119
 737, 532, 118, 119
 738, 580, 531, 530
 739, 607, 561, 116
 740, 582, 580, 530
 741, 617, 615, 562
 742, 606, 600, 555
 743, 693, 690, 644
 744, 618, 565, 614
 745, 661, 660, 609
 746, 619, 567, 609
 747, 635, 634, 592
 748, 620, 569, 610
 749, 637, 636, 594
 750, 574, 572, 104
 751, 597, 588, 544
 752, 624, 575, 621
 753, 601, 541, 586
 754, 674, 671, 625
 755, 576, 100, 560
 756, 578, 158,   9
 757, 127, 126,  11
 758, 559, 127, 128
 759, 696, 626, 605
 760, 533, 530, 123
 761, 530, 122, 123
 762, 531, 122, 530
 763, 534, 121, 531
 764, 532, 119, 120
 765, 152,   4,  30
 766, 577,  30,  29
 767, 536, 151, 535
 768, 537, 150, 536
 769, 538, 149, 537
 770, 529, 527, 155
 771, 540, 147, 539
 772, 541, 146, 540
 773, 542, 145, 541
 774, 543, 144, 542
 775, 544, 143, 543
 776, 545, 142, 544
 777, 546, 141, 545
 778, 547, 140, 546
 779, 548, 139, 547
 780, 549, 138, 548
 781, 550, 137, 549
 782, 551, 136, 550
 783, 552, 135, 551
 784, 553, 134, 552
 785, 554, 133, 553
 786, 555, 132, 554
 787, 615, 613, 563
 788, 556, 131, 555
 789, 558, 129, 557
 790, 559, 128, 558
 791, 523,  29,  28
 792, 653, 652, 599
 793, 524,  27, 153
 794,  27,   3, 153
 795, 578,   9,  98
 796, 529, 156, 526
 797, 524, 523,  28
 798, 524,  28,  27
 799, 653, 599, 523
 800, 528, 153, 154
 801, 585, 537, 536
 802, 525, 157, 158
 803, 650, 586, 649
 804, 539, 148, 538
 805, 526, 156, 157
 806, 527, 154, 155
 807, 529, 155, 156
 808, 528, 524, 153
 809, 528, 154, 527
 810, 647, 587, 603
 811, 603, 537, 585
 812, 607, 116, 117
 813, 533, 123, 124
 814, 627, 607, 616
 815, 531, 121, 122
 816, 616, 118, 532
 817, 534, 532, 120
 818, 579, 124, 125
 819, 557, 130, 556
 820, 534, 120, 121
 821, 583, 531, 580
 822, 535, 151, 152
 823, 577, 152,  30
 824, 672, 651, 652
 825, 536, 150, 151
 826, 647, 643, 587
 827, 537, 149, 150
 828, 587, 539, 538
 829, 538, 148, 149
 830, 649, 602, 643
 831, 539, 147, 148
 832, 739, 737, 576
 833, 540, 146, 147
 834, 573, 102, 103
 835, 541, 145, 146
 836, 573, 103, 572
 837, 542, 144, 145
 838, 597, 543, 584
 839, 543, 143, 144
 840, 574, 105, 571
 841, 544, 142, 143
 842, 571, 106, 570
 843, 545, 141, 142
 844, 570, 107, 569
 845, 546, 140, 141
 846, 569, 108, 568
 847, 547, 139, 140
 848, 568, 109, 567
 849, 548, 138, 139
 850, 567, 110, 566
 851, 549, 137, 138
 852, 566, 111, 565
 853, 550, 136, 137
 854, 565, 112, 564
 855, 551, 135, 136
 856, 564, 113, 563
 857, 552, 134, 135
 858, 563, 114, 562
 859, 553, 133, 134
 860, 562, 115, 561
 861, 554, 132, 133
 862, 734, 717, 712
 863, 555, 131, 132
 864, 645, 642, 604
 865, 556, 130, 131
 866, 630, 579, 626
 867, 557, 129, 130
 868, 626, 559, 558
 869, 558, 128, 129
 870, 581, 126, 559
 871, 559, 126, 127
 872, 560, 100, 101
 873, 575, 101, 102
 874, 561, 115, 116
 875, 734, 699, 675
 876, 606, 554, 598
 877, 562, 114, 115
 878, 598, 553, 589
 879, 563, 113, 114
 880, 614, 564, 613
 881, 564, 112, 113
 882, 590, 589, 552
 883, 565, 111, 112
 884, 591, 590, 551
 885, 566, 110, 111
 886, 592, 591, 550
 887, 567, 109, 110
 888, 593, 592, 549
 889, 568, 108, 109
 890, 594, 593, 548
 891, 569, 107, 108
 892, 596, 546, 545
 893, 570, 106, 107
 894, 596, 545, 588
 895, 571, 105, 106
 896, 572, 103, 104
 897, 574, 104, 105
 898, 640, 639, 588
 899, 575, 102, 573
 900, 595, 594, 547
 901, 622, 571, 611
 902, 621, 573, 612
 903, 575, 560, 101
 904, 737, 625, 578
 905, 576,  99, 100
 906, 577,  29, 523
 907, 599, 577, 523
 908, 737,  98,  99
 909, 737,  99, 576
 910, 579, 533, 124
 911, 581, 579, 125
 912, 582, 530, 533
 913, 697, 630, 696
 914, 581, 125, 126
 915, 626, 581, 559
 916, 630, 533, 579
 917, 604, 556, 600
 918, 654, 607, 627
 919, 583, 534, 531
 920, 584, 543, 542
 921, 601, 542, 541
 922, 599, 585, 536
 923, 603, 587, 538
 924, 586, 541, 540
 925, 602, 540, 539
 926, 603, 538, 537
 927, 643, 602, 587
 928, 588, 545, 544
 929, 597, 544, 543
 930, 589, 553, 552
 931, 590, 552, 551
 932, 591, 551, 550
 933, 632, 631, 590
 934, 592, 550, 549
 935, 634, 632, 591
 936, 593, 549, 548
 937, 619, 610, 568
 938, 594, 548, 547
 939, 636, 635, 593
 940, 595, 547, 546
 941, 620, 611, 570
 942, 596, 595, 546
 943, 638, 637, 595
 944, 662, 623, 659
 945, 658, 611, 655
 946, 664, 612, 662
 947, 641, 640, 597
 948, 633, 589, 631
 949, 598, 554, 553
 950, 599, 536, 535
 951, 653, 523, 524
 952, 600, 556, 555
 953, 606, 555, 554
 954, 669, 624, 665
 955, 601, 584, 542
 956, 602, 586, 540
 957, 602, 539, 587
 958, 651, 603, 585
 959, 714, 691, 694
 960, 697, 582, 630
 961, 604, 557, 556
 962, 605, 558, 557
 963, 605, 557, 604
 964, 644, 598, 633
 965, 648, 606, 644
 966, 616, 607, 117
 967, 627, 532, 534
 968, 608, 576, 560
 969, 624, 560, 575
 970, 609, 567, 566
 971, 618, 566, 565
 972, 610, 569, 568
 973, 619, 568, 567
 974, 611, 571, 570
 975, 620, 570, 569
 976, 612, 573, 572
 977, 623, 572, 574
 978, 613, 564, 563
 979, 615, 563, 562
 980, 709, 706, 661
 981, 614, 565, 564
 982, 617, 562, 561
 983, 648, 645, 600
 984, 616, 117, 118
 985, 627, 616, 532
 986, 654, 561, 607
 987, 629, 580, 628
 988, 663, 661, 618
 989, 618, 609, 566
 990, 660, 657, 619
 991, 719, 705, 706
 992, 656, 655, 620
 993, 685, 684, 636
 994, 665, 621, 664
 995, 621, 575, 573
 996, 659, 622, 658
 997, 622, 574, 571
 998, 639, 638, 596
 999, 623, 612, 572
1000, 646, 641, 584
1001, 624, 608, 560
1002, 671, 525, 625
1003, 625, 525, 578
1004, 626, 579, 581
1005, 626, 558, 605
1006, 627, 534, 583
1007, 698, 627, 583
1008, 628, 580, 582
1009, 733, 678, 717
1010, 699, 654, 698
1011, 629, 583, 580
1012, 697, 696, 642
1013, 630, 582, 533
1014, 631, 589, 590
1015, 632, 590, 591
1016, 634, 591, 592
1017, 721, 706, 709
1018, 666, 663, 614
1019, 633, 598, 589
1020, 635, 592, 593
1021, 657, 656, 610
1022, 636, 593, 594
1023, 720, 702, 718
1024, 637, 594, 595
1025, 722, 701, 720
1026, 638, 595, 596
1027, 686, 685, 637
1028, 639, 596, 588
1029, 704, 655, 701
1030, 640, 588, 597
1031, 724, 703, 723
1032, 641, 597, 584
1033, 707, 659, 703
1034, 646, 584, 601
1035, 708, 662, 707
1036, 642, 605, 604
1037, 645, 604, 600
1038, 715, 691, 714
1039, 671, 670, 526
1040, 667, 666, 613
1041, 644, 606, 598
1042, 648, 600, 606
1043, 668, 667, 615
1044, 650, 601, 586
1045, 730, 700, 726
1046, 651, 647, 603
1047, 714, 694, 673
1048, 711, 710, 666
1049, 712, 711, 667
1050, 735, 713, 731
1051, 649, 586, 602
1052, 713, 665, 700
1053, 650, 646, 601
1054, 652, 651, 585
1055, 694, 672, 673
1056, 672, 653, 528
1057, 652, 585, 599
1058, 653, 524, 528
1059, 672, 528, 527
1060, 698, 654, 627
1061, 654, 617, 561
1062, 655, 611, 620
1063, 656, 620, 610
1064, 657, 610, 619
1065, 684, 683, 635
1066, 660, 619, 609
1067, 683, 682, 634
1068, 687, 686, 638
1069, 658, 622, 611
1070, 688, 687, 639
1071, 659, 623, 622
1072, 661, 609, 618
1073, 682, 681, 632
1074, 663, 618, 614
1075, 681, 680, 631
1076, 689, 688, 640
1077, 662, 612, 623
1078, 666, 614, 613
1079, 710, 709, 663
1080, 692, 689, 641
1081, 664, 621, 612
1082, 695, 650, 679
1083, 665, 624, 621
1084, 667, 613, 615
1085, 693, 633, 680
1086, 668, 615, 617
1087, 690, 677, 648
1088, 699, 617, 654
1089, 675, 629, 628
1090, 679, 649, 676
1091, 669, 608, 624
1092, 670, 529, 526
1093, 671, 526, 525
1094, 739, 674, 625
1095, 736, 715, 670
1096, 673, 672, 527
1097, 672, 652, 653
1098, 673, 527, 529
1099, 673, 529, 670
1100, 739, 738, 674
1101, 716, 676, 715
1102, 733, 697, 642
1103, 717, 678, 677
1104, 676, 649, 643
1105, 715, 676, 691
1106, 677, 645, 648
1107, 690, 648, 644
1108, 678, 642, 645
1109, 678, 645, 677
1110, 695, 692, 646
1111, 679, 650, 649
1112, 680, 633, 631
1113, 681, 631, 632
1114, 682, 632, 634
1115, 721, 719, 706
1116, 683, 634, 635
1117, 719, 718, 705
1118, 684, 635, 636
1119, 718, 702, 705
1120, 685, 636, 637
1121, 720, 701, 702
1122, 686, 637, 638
1123, 704, 703, 658
1124, 687, 638, 639
1125, 723, 703, 704
1126, 688, 639, 640
1127, 724, 707, 703
1128, 689, 640, 641
1129, 725, 708, 707
1130, 692, 641, 646
1131, 726, 700, 708
1132, 693, 644, 633
1133, 727, 711, 712
1134, 691, 643, 647
1135, 694, 691, 647
1136, 695, 646, 650
1137, 730, 713, 700
1138, 728, 721, 709
1139, 729, 728, 710
1140, 694, 647, 651
1141, 694, 651, 672
1142, 736, 735, 716
1143, 731, 695, 679
1144, 696, 630, 626
1145, 696, 605, 642
1146, 733, 642, 678
1147, 697, 628, 582
1148, 698, 583, 629
1149, 699, 698, 629
1150, 699, 629, 675
1151, 699, 668, 617
1152, 700, 665, 664
1153, 708, 664, 662
1154, 701, 655, 656
1155, 702, 701, 656
1156, 702, 656, 657
1157, 705, 702, 657
1158, 703, 659, 658
1159, 704, 658, 655
1160, 722, 704, 701
1161, 723, 704, 722
1162, 705, 657, 660
1163, 706, 705, 660
1164, 706, 660, 661
1165, 709, 661, 663
1166, 725, 707, 724
1167, 707, 662, 659
1168, 726, 708, 725
1169, 708, 700, 664
1170, 710, 663, 666
1171, 728, 709, 710
1172, 711, 666, 667
1173, 729, 710, 711
1174, 712, 667, 668
1175, 729, 711, 727
1176, 734, 712, 668
1177, 727, 712, 717
1178, 732, 713, 730
1179, 713, 669, 665
1180, 714, 673, 670
1181, 715, 714, 670
1182, 736, 670, 671
1183, 736, 716, 715
1184, 735, 731, 716
1185, 716, 679, 676
1186, 733, 717, 675
1187, 727, 717, 677
1188, 718, 682, 683
1189, 720, 718, 683
1190, 719, 681, 682
1191, 719, 682, 718
1192, 720, 683, 684
1193, 722, 720, 684
1194, 721, 680, 681
1195, 721, 681, 719
1196, 722, 684, 685
1197, 723, 722, 685
1198, 723, 685, 686
1199, 724, 723, 686
1200, 724, 686, 687
1201, 725, 724, 687
1202, 725, 687, 688
1203, 726, 725, 688
1204, 726, 688, 689
1205, 730, 726, 689
1206, 727, 677, 690
1207, 729, 727, 690
1208, 728, 693, 680
1209, 728, 680, 721
1210, 729, 690, 693
1211, 729, 693, 728
1212, 730, 689, 692
1213, 732, 730, 692
1214, 732, 731, 713
1215, 731, 679, 716
1216, 732, 692, 695
1217, 732, 695, 731
1218, 733, 675, 628
1219, 733, 628, 697
1220, 734, 668, 699
1221, 734, 675, 717
1222, 738, 735, 674
1223, 735, 669, 713
1224, 736, 671, 674
1225, 736, 674, 735
1226, 737, 578,  98
1227, 739, 576, 608
1228, 738, 608, 669
1229, 738, 669, 735
1230, 739, 608, 738
1231, 739, 625, 737
1232,  912,  849,  850
1233,  989,  118,  117
1234,  774,  180,  773
1235,  742,  163,  164
1236,  765,  164,   91
1237,  781,  173,  780
1238,  979,  919,  978
1239,  846,  114,  743
1240,  743,  114,  113
1241,  796,  199,  200
1242,  744,  743,  113
1243,  745,  744,  112
1244,  746,  745,  111
1245,  747,  746,  110
1246,  748,  747,  109
1247,  749,  748,  108
1248,  750,  749,  107
1249,  751,  750,  106
1250,  752,  104,  740
1251,  754,  102,  101
1252,  901,  832,  889
1253,  753,  740,  103
1254,  754,  753,  102
1255,  841,  755,  757
1256,  910,  760,  870
1257,  760,  159,  160
1258,   98,    9,  159
1259,  164,    8,   91
1260,  759,  162,  741
1261,  760,  758,  159
1262,   80,    7,  165
1263,  788,  165,  166
1264,  838,  785,  819
1265,  819,  785,  784
1266,  839,  784,  783
1267,  937,  931,  930
1268,  864,   83,   82
1269,  858,   86,   85
1270,  762,   87,  761
1271, 1038, 1035,  986
1272,  763,   88,  762
1273,  742,  741,  163
1274,  191,  190,   12
1275,  804,  191,  192
1276,  873,  818,  833
1277, 1013, 1012,  963
1278,  767,  187,  766
1279,  768,  186,  767
1280,  769,  185,  768
1281,  770,  184,  769
1282,  771,  183,  770
1283,  772,  182,  771
1284,  773,  181,  772
1285,  854,  752,  740
1286,  775,  179,  774
1287,  776,  178,  775
1288,  777,  177,  776
1289,  778,  176,  777
1290,  779,  175,  778
1291,  981,  925,  971
1292,  780,  174,  779
1293,  782,  172,  781
1294,  783,  171,  782
1295,  784,  170,  783
1296,  785,  169,  784
1297,  786,  168,  785
1298,  787,  167,  786
1299,  788,  166,  787
1300,  207,   10,  118
1301,  789,  207,  118
1302,  790,  206,  789
1303,  790,  205,  206
1304,  815,  806,  791
1305,  792,  204,  791
1306,  792,  203,  204
1307,  793,  202,  203
1308,  794,  201,  202
1309,  795,  200,  201
1310,  797,  198,  199
1311,  798,  197,  198
1312,  800,  196,  799
1313,  801,  195,  800
1314,  802,  194,  801
1315,  803,  193,  802
1316,  804,  192,  803
1317,  740,  104,  103
1318,  753,  103,  102
1319,  741,  162,  163
1320,  927,  868,  742
1321,  765,   91,   90
1322,  764,   89,  763
1323,  744,  113,  112
1324,  817,  795,  794
1325,  745,  112,  111
1326,  834,  823,  767
1327,  746,  111,  110
1328,  823,  768,  767
1329,  747,  110,  109
1330,  836,  768,  823
1331,  748,  109,  108
1332,  824,  770,  769
1333,  749,  108,  107
1334,  837,  770,  824
1335,  750,  107,  106
1336,  825,  772,  771
1337,  751,  106,  105
1338,  826,  772,  825
1339,  752,  751,  105
1340,  854,  740,  845
1341,  752,  105,  104
1342,  827,  776,  775
1343,  755,  101,  100
1344, 1021,  933,  970
1345,  755,  754,  101
1346,  910,  757,  758
1347,  757,  100,   99
1348,  756,  160,  161
1349,  759,  161,  162
1350,  759,  756,  161
1351,  757,  755,  100
1352,  758,  757,   99
1353,  758,   99,   98
1354,  758,   98,  159
1355,  928,  761,  858
1356,  869,  759,  867
1357,  760,  160,  756
1358,  870,  760,  756
1359,  761,   87,   86
1360,  820,  781,  780
1361,  862,  762,  861
1362,  762,   88,   87
1363,  863,  763,  862
1364,  763,   89,   88
1365, 1219,  764,  863
1366,  764,   90,   89
1367,  765,  742,  164
1368,  765,   90,  764
1369,  766,  187,  188
1370,  818,  188,  189
1371,  851,  745,  746
1372,  767,  186,  187
1373,  836,  824,  769
1374,  768,  185,  186
1375,  848,  847,  744
1376,  769,  184,  185
1377,  837,  825,  771
1378,  770,  183,  184
1379,  917,  843,  916
1380,  771,  182,  183
1381,  894,  893,  826
1382,  772,  181,  182
1383,  828,  773,  826
1384,  773,  180,  181
1385,  828,  774,  773
1386,  774,  179,  180
1387,  891,  890,  827
1388,  775,  178,  179
1389,  830,  776,  827
1390,  776,  177,  178
1391,  831,  777,  830
1392,  777,  176,  177
1393,  832,  778,  831
1394,  778,  175,  176
1395,  925,  924,  855
1396,  779,  174,  175
1397,  933,  932,  862
1398,  780,  173,  174
1399,  840,  781,  820
1400,  781,  172,  173
1401,  840,  821,  782
1402,  782,  171,  172
1403,  860,   84,  859
1404,  783,  170,  171
1405,  930,  872,  875
1406,  784,  169,  170
1407,  865,  864,   82
1408,  785,  168,  169
1409,  822,  787,  786
1410,  786,  167,  168
1411,  872,  787,  822
1412,  787,  166,  167
1413,  866,   80,  788
1414,  788,   80,  165
1415,  789,  206,  207
1416,  849,  117,  116
1417,  850,  849,  116
1418,  791,  205,  790
1419,  815,  791,  790
1420,  791,  204,  205
1421,  816,  792,  806
1422,  793,  203,  792
1423,  816,  807,  793
1424,  794,  202,  793
1425,  807,  794,  793
1426,  795,  201,  794
1427,  808,  796,  805
1428,  796,  200,  795
1429,  805,  796,  795
1430,  797,  199,  796
1431,  808,  797,  796
1432,  798,  198,  797
1433,  809,  798,  797
1434,  799,  197,  798
1435,  810,  799,  798
1436,  799,  196,  197
1437,  812,  800,  811
1438,  800,  195,  196
1439,  813,  801,  812
1440,  801,  194,  195
1441,  814,  802,  813
1442,  802,  193,  194
1443,  873,  804,  803
1444,  803,  192,  193
1445,  833,  190,  804
1446,  804,  190,  191
1447,  877,  876,  807
1448,  921,  848,  920
1449,  806,  792,  791
1450,  847,  743,  744
1451,  878,  877,  816
1452,  817,  794,  807
1453,  886,  805,  882
1454,  809,  797,  808
1455,  886,  808,  805
1456,  810,  798,  809
1457,  881,  880,  812
1458,  811,  799,  810
1459,  880,  879,  813
1460,  811,  800,  799
1461,  899,  898,  823
1462,  812,  801,  800
1463,  938,  908,  909
1464,  813,  802,  801
1465,  908,  818,  873
1466,  814,  803,  802
1467,  871,  790,  789
1468,  850,  115,  846
1469,  816,  793,  792
1470,  887,  815,  874
1471,  877,  807,  816
1472,  817,  805,  795
1473,  818,  766,  188
1474,  833,  818,  189
1475,  821,  783,  782
1476,  931,  859,  864
1477,  835,  780,  779
1478,  903,  820,  900
1479,  904,  821,  902
1480,  840,  782,  781
1481,  864,  859,   83
1482,  838,  822,  786
1483,  834,  767,  766
1484,  851,  746,  842
1485,  836,  769,  768
1486,  856,  748,  843
1487,  837,  771,  770
1488,  857,  750,  844
1489,  829,  774,  828
1490,  826,  773,  772
1491,  829,  775,  774
1492,  854,  853,  752
1493,  893,  892,  828
1494,  892,  891,  829
1495,  915,  844,  913
1496,  829,  827,  775
1497,  890,  888,  830
1498,  830,  777,  776
1499, 1017,  956, 1006
1500,  831,  778,  777
1501,  889,  831,  888
1502,  832,  779,  778
1503,  833,  189,  190
1504,  873,  833,  804
1505,  909,  873,  814
1506,  879,  814,  813
1507,  835,  820,  780
1508,  835,  779,  832
1509,  898,  897,  836
1510,  897,  896,  824
1511,  896,  895,  837
1512,  895,  894,  825
1513,  838,  786,  785
1514,  905,  839,  904
1515,  839,  819,  784
1516,  839,  783,  821
1517, 1041, 1001, 1000
1518,  902,  821,  840
1519,  855,  754,  852
1520,  852,  755,  841
1521,  842,  746,  747
1522,  856,  747,  748
1523,  843,  748,  749
1524,  857,  749,  750
1525,  844,  750,  751
1526,  853,  751,  752
1527,  845,  740,  753
1528,  855,  753,  754
1529,  846,  115,  114
1530,  911,  743,  847
1531,  882,  805,  817
1532,  848,  744,  745
1533,  851,  848,  745
1534,  945,  885,  940
1535,  989,  849,  871
1536,  850,  116,  115
1537,  926,  846,  911
1538,  912,  871,  849
1539,  919,  842,  918
1540,  920,  851,  919
1541,  852,  754,  755
1542, 1068,  985, 1021
1543,  957,  956,  888
1544,  853,  844,  751
1545,  922,  914,  854
1546,  914,  913,  853
1547,  925,  852,  923
1548,  855,  845,  753
1549,  918,  856,  917
1550,  856,  842,  747
1551,  916,  857,  915
1552,  857,  843,  749
1553,  858,  761,   86
1554,  860,   85,   84
1555,  859,   84,   83
1556,  937,  930,  875
1557,  987,  934,  929
1558,  860,  858,   85
1559, 1109, 1080, 1036
1560,  861,  762,  761
1561,  932,  863,  862
1562,  862,  763,  762
1563,  927,  742,  765
1564,  863,  764,  763
1565,  865,   82,   81
1566,  937,  875,  907
1567,  866,  865,   81
1568,  872,  866,  788
1569,  866,   81,   80
1570,  872,  788,  787
1571,  867,  759,  741
1572,  868,  867,  741
1573,  868,  741,  742
1574, 1219,  935,  927
1575,  969,  923,  841
1576,  869,  756,  759
1577, 1203,  969,  910
1578, 1169,  756,  869
1579,  871,  815,  790
1580,  989,  871,  789
1581,  875,  872,  822
1582,  872,  865,  866
1583,  873,  803,  814
1584,  909,  908,  873
1585,  874,  815,  871
1586,  936,  912,  926
1587,  907,  822,  838
1588,  906,  819,  905
1589,  882,  817,  876
1590,  876,  817,  807
1591,  878,  816,  806
1592,  946,  878,  939
1593,  887,  878,  806
1594,  939,  887,  936
1595,  880,  813,  812
1596,  881,  812,  811
1597,  883,  811,  810
1598, 1018,  966,  899
1599,  884,  810,  809
1600,  966,  965,  898
1601, 1029,  978, 1026
1602,  965,  964,  897
1603,  883,  881,  811
1604,  884,  883,  810
1605,  885,  809,  808
1606,  885,  884,  809
1607,  886,  885,  808
1608,  940,  885,  886
1609, 1026,  977, 1025
1610,  949,  876,  947
1611,  887,  806,  815
1612,  936,  874,  912
1613,  888,  831,  830
1614,  890,  830,  827
1615,  901,  900,  835
1616,  889,  832,  831
1617,  891,  827,  829
1618,  958,  957,  890
1619,  892,  829,  828
1620, 1007, 1006,  957
1621,  893,  828,  826
1622,  975,  915,  973
1623,  894,  826,  825
1624,  976,  916,  975
1625,  895,  825,  837
1626,  977,  917,  976
1627,  896,  837,  824
1628,  978,  918,  977
1629,  897,  824,  836
1630,  964,  963,  896
1631,  898,  836,  823
1632,  941,  881,  883
1633,  899,  823,  834
1634,  942,  881,  941
1635,  938,  834,  908
1636, 1014, 1013,  964
1637,  900,  820,  835
1638,  901,  835,  832
1639,  968,  889,  956
1640,  952,  950,  900
1641,  967,  903,  950
1642,  903,  902,  840
1643,  903,  840,  820
1644, 1048, 1000, 1016
1645, 1087, 1050, 1049
1646,  904,  839,  821
1647,  951,  905,  904
1648,  905,  819,  839
1649,  953,  905,  951
1650,  906,  838,  819
1651,  907,  875,  822
1652,  907,  838,  906
1653,  908,  834,  766
1654,  908,  766,  818
1655,  909,  814,  879
1656,  938,  909,  879
1657,  910,  841,  757
1658,  910,  758,  760
1659,  911,  846,  743
1660,  972,  847,  921
1661,  912,  874,  871
1662,  926,  912,  850
1663,  913,  844,  853
1664,  914,  853,  854
1665,  922,  854,  845
1666,  974,  973,  913
1667,  959,  958,  891
1668,  915,  857,  844
1669,  960,  959,  892
1670,  916,  843,  857
1671,  961,  960,  893
1672,  917,  856,  843
1673,  962,  961,  894
1674,  918,  842,  856
1675, 1012, 1011,  962
1676,  919,  851,  842
1677,  947,  876,  877
1678,  920,  848,  851
1679, 1032,  982,  972
1680,  921,  847,  848
1681,  924,  845,  855
1682,  984,  922,  924
1683,  923,  852,  841
1684,  969,  841,  910
1685,  984,  924,  981
1686,  924,  922,  845
1687,  925,  855,  852
1688, 1190, 1170, 1135
1689,  926,  850,  846
1690,  982,  926,  911
1691,  927,  765,  764
1692, 1219, 1218,  935
1693,  928,  861,  761
1694,  934,  858,  860
1695,  929,  860,  859
1696,  986,  931,  937
1697,  930,  864,  865
1698,  930,  865,  872
1699,  931,  929,  859
1700,  931,  864,  930
1701, 1020,  932,  985
1702,  933,  862,  861
1703,  970,  861,  928
1704, 1050, 1003, 1002
1705,  934,  928,  858
1706,  934,  860,  929
1707, 1193,  935, 1132
1708,  935,  868,  927
1709,  972,  911,  847
1710,  936,  887,  874
1711,  955,  907,  906
1712, 1004, 1002,  951
1713,  944,  879,  880
1714,  938,  899,  834
1715, 1065, 1032,  990
1716,  939,  878,  887
1717,  963,  962,  895
1718,  948,  886,  882
1719,  943,  883,  884
1720,  943,  941,  883
1721,  991,  942,  941
1722,  942,  880,  881
1723,  945,  943,  884
1724, 1175, 1101, 1061
1725,  944,  938,  879
1726,  944,  880,  942
1727,  945,  884,  885
1728,  999,  949,  997
1729,  947,  877,  946
1730,  946,  877,  878
1731,  949,  948,  882
1732,  949,  882,  876
1733, 1072, 1025, 1070
1734,  948,  940,  886
1735,  996,  946,  990
1736,  980,  920,  979
1737,  950,  903,  900
1738,  952,  900,  901
1739,  954,  904,  902
1740,  954,  951,  904
1741,  968,  901,  889
1742, 1016, 1000,  952
1743, 1002,  953,  951
1744,  953,  906,  905
1745,  967,  954,  902
1746, 1005,  967, 1001
1747,  955,  937,  907
1748,  955,  906,  953
1749,  956,  889,  888
1750,  957,  888,  890
1751,  958,  890,  891
1752, 1076, 1073, 1027
1753,  959,  891,  892
1754, 1008, 1007,  958
1755,  960,  892,  893
1756, 1028,  973, 1027
1757,  961,  893,  894
1758, 1056, 1009, 1055
1759,  962,  894,  895
1760, 1025,  976, 1024
1761,  963,  895,  896
1762, 1059, 1012, 1013
1763,  964,  896,  897
1764, 1061, 1057, 1014
1765,  965,  897,  898
1766, 1015, 1014,  965
1767,  966,  898,  899
1768, 1040,  991,  993
1769, 1018,  899,  938
1770,  992,  944,  942
1771,  967,  902,  903
1772, 1001,  950, 1000
1773,  984,  983,  922
1774,  968,  952,  901
1775, 1203, 1169, 1064
1776, 1019,  971,  923
1777,  970,  933,  861
1778,  988,  928,  934
1779,  971,  925,  923
1780, 1019,  923,  969
1781,  982,  911,  972
1782, 1022,  921,  980
1783,  973,  915,  913
1784,  974,  913,  914
1785,  983,  914,  922
1786, 1031, 1027,  974
1787, 1009, 1008,  959
1788,  975,  916,  915
1789, 1010, 1009,  960
1790,  976,  917,  916
1791, 1011, 1010,  961
1792,  977,  918,  917
1793,  997,  949,  947
1794,  978,  919,  918
1795, 1144, 1083, 1039
1796,  979,  920,  919
1797, 1039,  990, 1032
1798,  980,  921,  920
1799, 1048, 1041, 1000
1800,  981,  924,  925
1801, 1065,  936,  982
1802,  982,  936,  926
1803, 1017, 1016,  968
1804,  983,  974,  914
1805, 1033,  981, 1023
1806, 1033,  984,  981
1807, 1068, 1066,  985
1808,  985,  932,  933
1809,  987,  929,  986
1810,  986,  929,  931
1811, 1003,  953, 1002
1812, 1038,  986,  937
1813,  988,  970,  928
1814,  988,  934,  987
1815,  989,  789,  118
1816,  989,  117,  849
1817,  990,  946,  939
1818, 1144, 1032, 1022
1819,  993,  941,  943
1820,  993,  991,  941
1821, 1018,  992,  966
1822,  992,  942,  991
1823,  995,  943,  945
1824,  994,  945,  940
1825,  998,  940,  948
1826, 1090, 1088, 1045
1827,  995,  993,  943
1828,  995,  945,  994
1829,  997,  947,  996
1830,  996,  947,  946
1831,  999,  998,  948
1832,  999,  948,  949
1833, 1074, 1026, 1072
1834,  998,  994,  940
1835, 1128, 1127, 1088
1836, 1030,  979, 1029
1837, 1000,  950,  952
1838, 1016,  952,  968
1839, 1081, 1037, 1080
1840, 1001,  967,  950
1841, 1036,  988,  987
1842, 1004,  951,  954
1843, 1038, 1003, 1035
1844, 1003,  955,  953
1845, 1005, 1004,  954
1846, 1051, 1001, 1041
1847, 1005,  954,  967
1848, 1217, 1207, 1216
1849, 1006,  956,  957
1850, 1007,  957,  958
1851, 1008,  958,  959
1852, 1073, 1071, 1028
1853, 1009,  959,  960
1854, 1056, 1008, 1009
1855, 1010,  960,  961
1856, 1055, 1010, 1054
1857, 1011,  961,  962
1858, 1112, 1070, 1111
1859, 1012,  962,  963
1860, 1136, 1086, 1127
1861, 1013,  963,  964
1862, 1101, 1098, 1057
1863, 1014,  964,  965
1864, 1082, 1061, 1015
1865, 1015,  965,  966
1866, 1082, 1040, 1061
1867, 1015,  966,  992
1868, 1082,  992,  991
1869, 1017,  968,  956
1870, 1034,  984, 1033
1871, 1062, 1006, 1053
1872, 1062, 1017, 1006
1873, 1018,  938,  944
1874, 1018,  944,  992
1875, 1064, 1019,  969
1876, 1212, 1191, 1170
1877, 1132, 1020, 1105
1878, 1218, 1020, 1132
1879, 1021,  985,  933
1880, 1037,  970,  988
1881, 1022,  972,  921
1882, 1069,  980, 1030
1883, 1023,  981,  971
1884, 1067,  971, 1019
1885, 1024,  976,  975
1886, 1028,  975,  973
1887, 1099, 1095, 1055
1888, 1025,  977,  976
1889, 1047,  999,  997
1890, 1026,  978,  977
1891, 1027,  973,  974
1892, 1031,  974,  983
1893, 1097, 1056, 1095
1894, 1028, 1024,  975
1895, 1046, 1045,  998
1896, 1029,  979,  978
1897, 1044,  996, 1039
1898, 1030,  980,  979
1899, 1034,  983,  984
1900, 1103, 1053, 1096
1901, 1065,  990,  939
1902, 1032,  972, 1022
1903, 1123, 1085, 1122
1904, 1079, 1033, 1077
1905, 1103, 1062, 1053
1906, 1034, 1031,  983
1907, 1036,  987, 1035
1908, 1035,  987,  986
1909, 1050, 1002, 1049
1910, 1037,  988, 1036
1911, 1049, 1002, 1004
1912, 1037, 1021,  970
1913, 1038,  937,  955
1914, 1038,  955, 1003
1915, 1039,  996,  990
1916, 1144, 1069, 1083
1917, 1043,  993,  995
1918, 1042,  995,  994
1919, 1131, 1066, 1106
1920, 1106, 1066, 1068
1921, 1045,  994,  998
1922, 1046,  998,  999
1923, 1043, 1040,  993
1924, 1043,  995, 1042
1925, 1047,  997, 1044
1926, 1044,  997,  996
1927, 1114, 1072, 1112
1928, 1045, 1042,  994
1929, 1047, 1046,  999
1930, 1075, 1029, 1074
1931, 1092, 1047, 1091
1932, 1102, 1060, 1100
1933, 1063, 1016, 1017
1934, 1094, 1084, 1048
1935, 1052, 1004, 1005
1936, 1085, 1041, 1084
1937, 1109, 1035, 1050
1938, 1050, 1035, 1003
1939, 1051, 1005, 1001
1940, 1120, 1106, 1068
1941, 1052, 1049, 1004
1942, 1052, 1005, 1051
1943, 1053, 1006, 1007
1944, 1058, 1007, 1008
1945, 1054, 1010, 1011
1946, 1060, 1011, 1012
1947, 1138, 1133, 1095
1948, 1055, 1009, 1010
1949, 1071, 1070, 1024
1950, 1058, 1008, 1056
1951, 1059, 1013, 1057
1952, 1057, 1013, 1014
1953, 1113, 1111, 1071
1954, 1058, 1053, 1007
1955, 1086, 1043, 1042
1956, 1060, 1012, 1059
1957, 1127, 1086, 1088
1958, 1060, 1054, 1011
1959, 1061, 1014, 1015
1960, 1175, 1086, 1136
1961, 1079, 1034, 1033
1962, 1063, 1017, 1062
1963, 1079, 1078, 1034
1964, 1063, 1048, 1016
1965, 1203, 1064,  969
1966, 1135, 1107, 1064
1967, 1065,  939,  936
1968, 1065,  982, 1032
1969, 1105, 1020, 1066
1970, 1066, 1020,  985
1971, 1067, 1023,  971
1972, 1107, 1019, 1064
1973, 1081, 1021, 1037
1974, 1093, 1051, 1085
1975, 1069, 1022,  980
1976, 1110, 1030, 1075
1977, 1070, 1025, 1024
1978, 1071, 1024, 1028
1979, 1073, 1028, 1027
1980, 1097, 1096, 1058
1981, 1100, 1060, 1059
1982, 1072, 1026, 1025
1983, 1076, 1027, 1031
1984, 1116, 1113, 1073
1985, 1091, 1047, 1044
1986, 1074, 1029, 1026
1987, 1091, 1044, 1083
1988, 1075, 1030, 1029
1989, 1078, 1031, 1034
1990, 1200, 1183, 1184
1991, 1077, 1033, 1023
1992, 1108, 1023, 1067
1993, 1143, 1142, 1104
1994, 1078, 1076, 1031
1995, 1125, 1122, 1084
1996, 1119, 1079, 1118
1997, 1080, 1037, 1036
1998, 1109, 1087, 1080
1999, 1121, 1120, 1081
2000, 1081, 1068, 1021
2001, 1082, 1015,  992
2002, 1082,  991, 1040
2003, 1083, 1044, 1039
2004, 1110, 1083, 1069
2005, 1084, 1041, 1048
2006, 1094, 1048, 1063
2007, 1126, 1093, 1123
2008, 1085, 1051, 1041
2009, 1088, 1042, 1045
2010, 1088, 1086, 1042
2011, 1089, 1049, 1052
2012, 1089, 1087, 1049
2013, 1090, 1045, 1046
2014, 1129, 1128, 1090
2015, 1093, 1089, 1052
2016, 1217, 1214, 1207
2017, 1092, 1046, 1047
2018, 1115, 1074, 1114
2019, 1124, 1083, 1110
2020, 1130, 1129, 1092
2021, 1173, 1172, 1140
2022, 1092, 1090, 1046
2023, 1093, 1052, 1051
2024, 1206, 1148, 1186
2025, 1104, 1063, 1062
2026, 1156, 1155, 1119
2027, 1095, 1056, 1055
2028, 1099, 1055, 1054
2029, 1096, 1053, 1058
2030, 1097, 1058, 1056
2031, 1168, 1167, 1133
2032, 1183, 1180, 1149
2033, 1100, 1059, 1098
2034, 1098, 1059, 1057
2035, 1102, 1054, 1060
2036, 1150, 1111, 1149
2037, 1137, 1136, 1127
2038, 1164, 1162, 1129
2039, 1101, 1057, 1061
2040, 1175, 1061, 1040
2041, 1151, 1112, 1150
2042, 1102, 1099, 1054
2043, 1117, 1116, 1076
2044, 1104, 1062, 1103
2045, 1155, 1154, 1117
2046, 1104, 1094, 1063
2047, 1212, 1190, 1161
2048, 1166, 1132, 1105
2049, 1157, 1148, 1120
2050, 1120, 1068, 1081
2051, 1107, 1067, 1019
2052, 1169, 1135, 1064
2053, 1108, 1077, 1023
2054, 1145, 1067, 1107
2055, 1109, 1036, 1035
2056, 1109, 1050, 1087
2057, 1110, 1069, 1030
2058, 1147, 1075, 1115
2059, 1111, 1070, 1071
2060, 1113, 1071, 1073
2061, 1140, 1102, 1139
2062, 1112, 1072, 1070
2063, 1116, 1073, 1076
2064, 1134, 1097, 1133
2065, 1139, 1100, 1137
2066, 1114, 1074, 1072
2067, 1130, 1091, 1124
2068, 1115, 1075, 1074
2069, 1117, 1076, 1078
2070, 1141, 1096, 1134
2071, 1119, 1078, 1079
2072, 1143, 1103, 1141
2073, 1118, 1079, 1077
2074, 1146, 1077, 1108
2075, 1142, 1125, 1094
2076, 1119, 1117, 1078
2077, 1121, 1081, 1080
2078, 1196, 1126, 1123
2079, 1121, 1080, 1087
2080, 1158, 1087, 1089
2081, 1122, 1085, 1084
2082, 1125, 1084, 1094
2083, 1158, 1157, 1121
2084, 1123, 1093, 1085
2085, 1124, 1091, 1083
2086, 1147, 1110, 1075
2087, 1142, 1094, 1104
2088, 1160, 1159, 1122
2089, 1158, 1126, 1157
2090, 1126, 1089, 1093
2091, 1137, 1098, 1136
2092, 1128, 1088, 1090
2093, 1129, 1090, 1092
2094, 1152, 1114, 1151
2095, 1130, 1092, 1091
2096, 1209, 1194, 1164
2097, 1147, 1130, 1124
2098, 1209, 1147, 1115
2099, 1131, 1105, 1066
2100, 1163, 1106, 1148
2101, 1193, 1132, 1166
2102, 1218, 1132,  935
2103, 1133, 1097, 1095
2104, 1138, 1095, 1099
2105, 1153, 1149, 1113
2106, 1134, 1096, 1097
2107, 1215,  867, 1211
2108, 1215, 1190, 1135
2109, 1136, 1098, 1101
2110, 1175, 1136, 1101
2111, 1137, 1100, 1098
2112, 1192, 1171, 1137
2113, 1140, 1099, 1102
2114, 1197, 1180, 1183
2115, 1202, 1181, 1201
2116, 1139, 1102, 1100
2117, 1201, 1180, 1197
2118, 1140, 1138, 1099
2119, 1154, 1153, 1116
2120, 1141, 1103, 1096
2121, 1143, 1104, 1103
2122, 1198, 1187, 1189
2123, 1177, 1176, 1143
2124, 1205, 1185, 1198
2125, 1144, 1039, 1032
2126, 1144, 1022, 1069
2127, 1145, 1108, 1067
2128, 1212, 1195, 1191
2129, 1146, 1118, 1077
2130, 1178, 1108, 1145
2131, 1147, 1124, 1110
2132, 1209, 1164, 1147
2133, 1148, 1106, 1120
2134, 1210, 1196, 1159
2135, 1149, 1111, 1113
2136, 1153, 1113, 1116
2137, 1172, 1168, 1138
2138, 1150, 1112, 1111
2139, 1173, 1139, 1171
2140, 1151, 1114, 1112
2141, 1202, 1199, 1182
2142, 1152, 1115, 1114
2143, 1154, 1116, 1117
2144, 1174, 1134, 1167
2145, 1155, 1117, 1119
2146, 1177, 1141, 1174
2147, 1156, 1119, 1118
2148, 1176, 1165, 1142
2149, 1179, 1118, 1146
2150, 1165, 1160, 1125
2151, 1157, 1120, 1121
2152, 1196, 1186, 1157
2153, 1158, 1121, 1087
2154, 1158, 1089, 1126
2155, 1159, 1123, 1122
2156, 1160, 1122, 1125
2157, 1165, 1125, 1142
2158, 1208, 1188, 1189
2159, 1161, 1105, 1131
2160, 1195, 1131, 1163
2161, 1192, 1127, 1128
2162, 1162, 1128, 1129
2163, 1210, 1206, 1186
2164, 1163, 1131, 1106
2165, 1164, 1129, 1130
2166, 1164, 1130, 1147
2167, 1176, 1142, 1143
2168, 1198, 1189, 1165
2169, 1211, 1193, 1166
2170, 1166, 1105, 1161
2171, 1167, 1134, 1133
2172, 1168, 1133, 1138
2173, 1172, 1138, 1140
2174, 1201, 1181, 1180
2175, 1169,  870,  756
2176, 1215, 1169,  869
2177, 1170, 1145, 1107
2178, 1170, 1107, 1135
2179, 1171, 1139, 1137
2180, 1192, 1137, 1127
2181, 1173, 1140, 1139
2182, 1181, 1150, 1180
2183, 1199, 1192, 1162
2184, 1182, 1151, 1181
2185, 1184, 1183, 1153
2186, 1174, 1141, 1134
2187, 1175, 1040, 1043
2188, 1175, 1043, 1086
2189, 1177, 1143, 1141
2190, 1198, 1185, 1187
2191, 1204, 1184, 1185
2192, 1205, 1204, 1185
2193, 1178, 1146, 1108
2194, 1191, 1178, 1145
2195, 1179, 1156, 1118
2196, 1207, 1146, 1178
2197, 1180, 1150, 1149
2198, 1183, 1149, 1153
2199, 1202, 1182, 1181
2200, 1181, 1151, 1150
2201, 1199, 1194, 1182
2202, 1182, 1152, 1151
2203, 1184, 1153, 1154
2204, 1200, 1197, 1183
2205, 1185, 1184, 1154
2206, 1204, 1200, 1184
2207, 1185, 1154, 1155
2208, 1187, 1185, 1155
2209, 1186, 1148, 1157
2210, 1196, 1157, 1126
2211, 1187, 1155, 1156
2212, 1208, 1156, 1179
2213, 1188, 1159, 1160
2214, 1189, 1188, 1160
2215, 1189, 1160, 1165
2216, 1208, 1189, 1187
2217, 1215, 1211, 1190
2218, 1190, 1166, 1161
2219, 1213, 1191, 1195
2220, 1191, 1145, 1170
2221, 1192, 1128, 1162
2222, 1199, 1162, 1194
2223, 1193,  867,  868
2224, 1193,  868,  935
2225, 1194, 1162, 1164
2226, 1194, 1152, 1182
2227, 1195, 1161, 1131
2228, 1217, 1216, 1213
2229, 1196, 1123, 1159
2230, 1210, 1159, 1188
2231, 1197, 1167, 1168
2232, 1201, 1197, 1168
2233, 1198, 1165, 1176
2234, 1205, 1198, 1176
2235, 1199, 1173, 1171
2236, 1199, 1171, 1192
2237, 1200, 1174, 1167
2238, 1200, 1167, 1197
2239, 1201, 1168, 1172
2240, 1202, 1201, 1172
2241, 1202, 1172, 1173
2242, 1202, 1173, 1199
2243, 1203,  910,  870
2244, 1203,  870, 1169
2245, 1204, 1177, 1174
2246, 1204, 1174, 1200
2247, 1205, 1176, 1177
2248, 1205, 1177, 1204
2249, 1217, 1210, 1214
2250, 1206, 1163, 1148
2251, 1207, 1179, 1146
2252, 1216, 1191, 1213
2253, 1208, 1187, 1156
2254, 1214, 1208, 1179
2255, 1209, 1115, 1152
2256, 1209, 1152, 1194
2257, 1210, 1186, 1196
2258, 1214, 1210, 1188
2259, 1211,  867, 1193
2260, 1211, 1166, 1190
2261, 1212, 1170, 1190
2262, 1212, 1161, 1195
2263, 1213, 1195, 1163
2264, 1213, 1163, 1206
2265, 1214, 1188, 1208
2266, 1214, 1179, 1207
2267, 1215, 1135, 1169
2268, 1215,  869,  867
2269, 1216, 1207, 1178
2270, 1216, 1178, 1191
2271, 1217, 1213, 1206
2272, 1217, 1206, 1210
2273, 1218,  863,  932
2274, 1218,  932, 1020
2275, 1219,  927,  764
2276, 1219,  863, 1218
*Orientation, name=Ori-1
1., 0., 0., 0., 1., 0.
3, 0.
** Region: (CompositeLayup-1-1: Generated From Layup)
*Elset, elset=CompositeLayup-1-1, generate
    1,  2276,     1
** Section: CompositeLayup-1-1
*Shell Section, elset=CompositeLayup-1-1, composite, orientation=Ori-1, layup=CompositeLayup-1
0.25, 1, ABQ_PLY_FABRIC, 45., Ply-1
0.25, 1, ABQ_PLY_FABRIC, -45., Ply-2
0.25, 1, ABQ_PLY_FABRIC, -45., Ply-3
0.25, 1, ABQ_PLY_FABRIC, 45., Ply-4
*End Part
**  
**
** ASSEMBLY
**
*Assembly, name=Assembly
**  
*Instance, name=Plate-1, part=PLATE
*End Instance
**  
*Nset, nset=Set-1, instance=Plate-1
   6,   7,  12,  68,  69,  70,  71,  72,  73,  74,  75,  76,  77,  78,  79, 165
 166, 167, 168, 169, 170, 171, 172, 173, 174, 175, 176, 177, 178, 179, 180, 181
 182, 183, 184, 185, 186, 187, 188, 189, 190
*Elset, elset=Set-1, instance=Plate-1
  246,  263,  267,  274,  334,  336,  339,  341,  343,  345,  347,  349,  402, 1262, 1263, 1274
 1369, 1370, 1372, 1374, 1376, 1378, 1380, 1382, 1384, 1386, 1388, 1390, 1392, 1394, 1396, 1398
 1400, 1402, 1404, 1406, 1408, 1410, 1412, 1503
*Nset, nset=Set-2, instance=Plate-1
   4,   5,  11,  31,  32,  33,  34,  35,  36,  37,  38,  39,  40,  41,  42, 127
 128, 129, 130, 131, 132, 133, 134, 135, 136, 137, 138, 139, 140, 141, 142, 143
 144, 145, 146, 147, 148, 149, 150, 151, 152
*Elset, elset=Set-2, instance=Plate-1
  18,  22,  33,  72,  75,  77,  79,  81,  83,  85,  87,  89, 127, 757, 758, 765
 822, 825, 827, 829, 831, 833, 835, 837, 839, 841, 843, 845, 847, 849, 851, 853
 855, 857, 859, 861, 863, 865, 867, 869
*End Assembly
*Amplitude, name=Ramp, time=TOTAL TIME
             0.,              0.,            0.01,              1.
** 
** MATERIALS
** 
*Material, name=ABQ_PLY_FABRIC
*Density
 1.594e-09,
*Depvar, delete=16
     16,
*User Material, constants=40
27500., 27500.,   0.11,  2900., 27500., 27500.,   0.11,     0.
   604.,   291.,   604.,   291.,    75.,     0.,     0.,     0.
 20.438, 4.6257, 20.438, 4.6257, 0.3221,     1.,     0.,     0.
    75., 0.0008,  0.552,     0.,     0.,     0.,     0.,     0.
     0.,     1.,  1e+09,  1e+09, -1e+09,     0.,     0.,     0.
** ----------------------------------------------------------------
** 
** STEP: Step-1
** 
*Step, name=Step-1, nlgeom=NO
*Dynamic, Explicit
, 0.01
*Bulk Viscosity
0.06, 1.2
** 
** BOUNDARY CONDITIONS
** 
** Name: BC-1 Type: Symmetry/Antisymmetry/Encastre
*Boundary
Set-1, ENCASTRE
** Name: BC-2 Type: Displacement/Rotation
*Boundary, amplitude=Ramp
Set-2, 1, 1, 1.84211
** 
** OUTPUT REQUESTS
** 
*Restart, write, number interval=1, time marks=NO
** 
** FIELD OUTPUT: F-Output-1
** 
*Output, field, number interval=1
*Element Output, position=NODES, directions=YES
LE, PEEQ, SDV
** 
** HISTORY OUTPUT: H-Output-1
** 
*Output, history, variable=PRESELECT
*End Step
