*Heading
** Job name: Plate_nonlinear_201 Model name: Model-1
** Generated by: Abaqus/CAE 2024.HF3
*Preprint, echo=NO, model=NO, history=NO, contact=NO
**
** PARTS
**
*Part, name=PLATE
*Node
      1,   63.2070732,   115.851311,           0.
      2,   63.2070732,   69.1656723,           0.
      3,   78.3087997,   54.0639458,           0.
      4,   135.443726,   54.0639458,           0.
      5,   135.443726,   115.851311,           0.
      6,           0.,   115.851311,           0.
      7,           0.,   54.0639458,           0.
      8,   48.1053429,   54.0639458,           0.
      9,   63.2070732,   38.9622154,           0.
     10,   63.2070732,           0.,           0.
     11,   135.443726,           0.,           0.
     12,           0.,           0.,           0.
     13,   63.2070732,   111.960838,           0.
     14,   63.2070732,   108.070374,           0.
     15,   63.2070732,   104.179901,           0.
     16,   63.2070732,   100.289429,           0.
     17,   63.2070732,   96.3989639,           0.
     18,   63.2070732,   92.5084915,           0.
     19,   63.2070732,   88.6180191,           0.
     20,   63.2070732,   84.7275543,           0.
     21,   63.2070732,   80.8370819,           0.
     22,   63.2070732,   76.9466095,           0.
     23,   63.2070732,   73.0561447,           0.
     24,   67.1156845,   68.6510925,           0.
     25,   70.7579346,   67.1424255,           0.
     26,   73.8856049,   64.7424774,           0.
     27,    76.285553,   61.6148071,           0.
     28,     77.79422,   57.9725609,           0.
     29,   82.1177902,   54.0639458,           0.
     30,   85.9267883,   54.0639458,           0.
     31,   89.7357864,   54.0639458,           0.
     32,   93.5447769,   54.0639458,           0.
     33,    97.353775,   54.0639458,           0.
     34,   101.162773,   54.0639458,           0.
     35,   104.971764,   54.0639458,           0.
     36,   108.780762,   54.0639458,           0.
     37,   112.589752,   54.0639458,           0.
     38,    116.39875,   54.0639458,           0.
     39,   120.207748,   54.0639458,           0.
     40,   124.016739,   54.0639458,           0.
     41,   127.825737,   54.0639458,           0.
     42,   131.634735,   54.0639458,           0.
     43,   135.443726,   57.9256554,           0.
     44,   135.443726,    61.787365,           0.
     45,   135.443726,   65.6490784,           0.
     46,   135.443726,    69.510788,           0.
     47,   135.443726,   73.3724976,           0.
     48,   135.443726,   77.2342072,           0.
     49,   135.443726,   81.0959167,           0.
     50,   135.443726,   84.9576263,           0.
     51,   135.443726,   88.8193359,           0.
     52,   135.443726,   92.6810455,           0.
     53,   135.443726,   96.5427551,           0.
     54,   135.443726,   100.404472,           0.
     55,   135.443726,   104.266182,           0.
     56,   135.443726,   108.127892,           0.
     57,   135.443726,   111.989601,           0.
     58,     131.6418,   115.851311,           0.
     59,   127.839867,   115.851311,           0.
     60,   124.037941,   115.851311,           0.
     61,   120.236008,   115.851311,           0.
     62,   116.434082,   115.851311,           0.
     63,   112.632149,   115.851311,           0.
     64,   108.830223,   115.851311,           0.
     65,    105.02829,   115.851311,           0.
     66,   101.226364,   115.851311,           0.
     67,   97.4244308,   115.851311,           0.
     68,   93.6225052,   115.851311,           0.
     69,   89.8205719,   115.851311,           0.
     70,   86.0186462,   115.851311,           0.
     71,   82.2167206,   115.851311,           0.
     72,   78.4147873,   115.851311,           0.
     73,   74.6128616,   115.851311,           0.
     74,   70.8109283,   115.851311,           0.
     75,   67.0090027,   115.851311,           0.
     76,   59.2566299,   115.851311,           0.
     77,   55.3061867,   115.851311,           0.
     78,   51.3557472,   115.851311,           0.
     79,    47.405304,   115.851311,           0.
     80,   43.4548607,   115.851311,           0.
     81,   39.5044212,   115.851311,           0.
     82,    35.553978,   115.851311,           0.
     83,   31.6035366,   115.851311,           0.
     84,   27.6530933,   115.851311,           0.
     85,    23.702652,   115.851311,           0.
     86,   19.7522106,   115.851311,           0.
     87,   15.8017683,   115.851311,           0.
     88,    11.851326,   115.851311,           0.
     89,   7.90088415,   115.851311,           0.
     90,   3.95044208,   115.851311,           0.
     91,           0.,   111.989601,           0.
     92,           0.,   108.127892,           0.
     93,           0.,   104.266182,           0.
     94,           0.,   100.404472,           0.
     95,           0.,   96.5427551,           0.
     96,           0.,   92.6810455,           0.
     97,           0.,   88.8193359,           0.
     98,           0.,   84.9576263,           0.
     99,           0.,   81.0959167,           0.
    100,           0.,   77.2342072,           0.
    101,           0.,   73.3724976,           0.
    102,           0.,    69.510788,           0.
    103,           0.,   65.6490784,           0.
    104,           0.,    61.787365,           0.
    105,           0.,   57.9256554,           0.
    106,   4.00877857,   54.0639458,           0.
    107,   8.01755714,   54.0639458,           0.
    108,   12.0263357,   54.0639458,           0.
    109,   16.0351143,   54.0639458,           0.
    110,   20.0438938,   54.0639458,           0.
    111,   24.0526714,   54.0639458,           0.
    112,    28.061451,   54.0639458,           0.
    113,   32.0702286,   54.0639458,           0.
    114,     36.07901,   54.0639458,           0.
    115,   40.0877876,   54.0639458,           0.
    116,   44.0965652,   54.0639458,           0.
    117,   48.6199226,   57.9725609,           0.
    118,   50.1285934,   61.6148071,           0.
    119,   52.5285378,   64.7424774,           0.
    120,    55.656208,   67.1424255,           0.
    121,   59.2984581,   68.6510925,           0.
    122,   63.2070732,   35.0659943,           0.
    123,   63.2070732,   31.1697731,           0.
    124,   63.2070732,   27.2735519,           0.
    125,   63.2070732,   23.3773308,           0.
    126,   63.2070732,   19.4811077,           0.
    127,   63.2070732,   15.5848866,           0.
    128,   63.2070732,   11.6886654,           0.
    129,   63.2070732,   7.79244328,           0.
    130,   63.2070732,   3.89622164,           0.
    131,   67.0090027,           0.,           0.
    132,   70.8109283,           0.,           0.
    133,   74.6128616,           0.,           0.
    134,   78.4147873,           0.,           0.
    135,   82.2167206,           0.,           0.
    136,   86.0186462,           0.,           0.
    137,   89.8205719,           0.,           0.
    138,   93.6225052,           0.,           0.
    139,   97.4244308,           0.,           0.
    140,   101.226364,           0.,           0.
    141,    105.02829,           0.,           0.
    142,   108.830223,           0.,           0.
    143,   112.632149,           0.,           0.
    144,   116.434082,           0.,           0.
    145,   120.236008,           0.,           0.
    146,   124.037941,           0.,           0.
    147,   127.839867,           0.,           0.
    148,     131.6418,           0.,           0.
    149,   135.443726,   3.86171031,           0.
    150,   135.443726,   7.72342062,           0.
    151,   135.443726,   11.5851307,           0.
    152,   135.443726,   15.4468412,           0.
    153,   135.443726,   19.3085518,           0.
    154,   135.443726,   23.1702614,           0.
    155,   135.443726,   27.0319729,           0.
    156,   135.443726,   30.8936825,           0.
    157,   135.443726,    34.755394,           0.
    158,   135.443726,   38.6171036,           0.
    159,   135.443726,   42.4788132,           0.
    160,   135.443726,   46.3405228,           0.
    161,   135.443726,   50.2022362,           0.
    162,     77.79422,   50.1553307,           0.
    163,    76.285553,   46.5130806,           0.
    164,   73.8856049,   43.3854103,           0.
    165,   70.7579346,    40.985466,           0.
    166,   67.1156845,   39.4767952,           0.
    167,   59.2984581,   39.4767952,           0.
    168,    55.656208,    40.985466,           0.
    169,   52.5285378,   43.3854103,           0.
    170,   50.1285934,   46.5130806,           0.
    171,   48.6199226,   50.1553307,           0.
    172,           0.,   50.2022362,           0.
    173,           0.,   46.3405228,           0.
    174,           0.,   42.4788132,           0.
    175,           0.,   38.6171036,           0.
    176,           0.,    34.755394,           0.
    177,           0.,   30.8936825,           0.
    178,           0.,   27.0319729,           0.
    179,           0.,   23.1702614,           0.
    180,           0.,   19.3085518,           0.
    181,           0.,   15.4468412,           0.
    182,           0.,   11.5851307,           0.
    183,           0.,   7.72342062,           0.
    184,           0.,   3.86171031,           0.
    185,   3.95044208,           0.,           0.
    186,   7.90088415,           0.,           0.
    187,    11.851326,           0.,           0.
    188,   15.8017683,           0.,           0.
    189,   19.7522106,           0.,           0.
    190,    23.702652,           0.,           0.
    191,   27.6530933,           0.,           0.
    192,   31.6035366,           0.,           0.
    193,    35.553978,           0.,           0.
    194,   39.5044212,           0.,           0.
    195,   43.4548607,           0.,           0.
    196,    47.405304,           0.,           0.
    197,   51.3557472,           0.,           0.
    198,   55.3061867,           0.,           0.
    199,   59.2566299,           0.,           0.
    200,   77.3836212,   65.0909042,           0.
    201,   80.5317001,   56.9711266,           0.
    202,   66.5735626,   90.5632248,           0.
    203,   66.5763092,   86.6732407,           0.
    204,   66.6059494,   82.7465744,           0.
    205,   74.3626785,    68.179863,           0.
    206,   66.6587677,   78.7495499,           0.
    207,   66.6710129,    74.706459,           0.
    208,   66.1632462,   71.4309616,           0.
    209,   80.7172623,   61.2964363,           0.
    210,   70.5613708,   71.6326981,           0.
    211,    99.260231,   57.3686142,           0.
    212,   95.4509659,   57.3720856,           0.
    213,   91.6080933,   57.4027863,           0.
    214,   87.7064362,   57.4633446,           0.
    215,   83.7686234,    57.473938,           0.
    216,   132.102951,   94.6110382,           0.
    217,   132.102859,   90.7496643,           0.
    218,   132.102951,   86.8882904,           0.
    219,   132.103073,   83.0266266,           0.
    220,   132.103455,   79.1648941,           0.
    221,   132.103561,   75.3019104,           0.
    222,   132.100342,   71.4326172,           0.
    223,   132.043777,   67.4706421,           0.
    224,   131.931442,   63.3897896,           0.
    225,   131.937958,   59.1853752,           0.
    226,    68.408165,    112.35009,           0.
    227,   72.5573425,   112.381874,           0.
    228,   76.5011902,   112.509529,           0.
    229,   87.9192657,   112.553642,           0.
    230,   91.7213211,   112.554947,           0.
    231,   95.5236435,   112.555984,           0.
    232,     99.32547,    112.55658,           0.
    233,   103.127205,   112.556419,           0.
    234,     106.9291,   112.555763,           0.
    235,   110.731064,      112.555,           0.
    236,    114.53299,   112.554329,           0.
    237,   118.341187,   112.548775,           0.
    238,   122.232033,   112.483696,           0.
    239,   126.240189,   112.347168,           0.
    240,   130.380798,   112.324203,           0.
    241,   84.1184387,   112.551132,           0.
    242,   93.6226196,   109.257698,           0.
    243,   124.288055,   109.071388,           0.
    244,   101.226158,   109.260254,           0.
    245,   108.829407,   109.257088,           0.
    246,   116.441597,   109.246719,           0.
    247,   80.3193283,   112.542213,           0.
    248,   74.5478363,   108.970795,           0.
    249,   120.343018,   109.192657,           0.
    250,   89.8212814,   109.254181,           0.
    251,   105.027428,   109.258644,           0.
    252,   97.4249115,   109.259209,           0.
    253,   112.632706,   109.253471,           0.
    254,   103.068886,   57.3673286,           0.
    255,    110.68544,   57.3666191,           0.
    256,   106.877045,   57.3668442,           0.
    257,   97.3602448,   60.6819229,           0.
    258,   93.5283585,   60.7140923,           0.
    259,   85.5769043,   60.9758682,           0.
    260,   114.494209,   57.3671455,           0.
    261,   118.303139,   57.3676987,           0.
    262,    89.633316,   60.8100433,           0.
    263,   122.091843,   57.3513756,           0.
    264,   125.846649,   57.3478813,           0.
    265,   129.072128,    57.119812,           0.
    266,   132.107666,   98.4730835,           0.
    267,   128.649109,   65.3834991,           0.
    268,   128.766205,   77.2317123,           0.
    269,   128.765945,   81.0950089,           0.
    270,   128.765503,   84.9571762,           0.
    271,   128.733093,   69.3887482,           0.
    272,   128.765533,   92.6793518,           0.
    273,   132.144836,   102.326248,           0.
    274,   132.174042,   106.149368,           0.
    275,   128.761475,   73.3475037,           0.
    276,   128.765701,   88.8182526,           0.
    277,   69.9728012,    84.708374,           0.
    278,   66.5724411,   98.3444061,           0.
    279,   66.5708389,   94.4537125,           0.
    280,   70.2706985,   76.6068115,           0.
    281,    70.078476,   80.7455521,           0.
    282,   66.6233444,   106.111229,           0.
    283,   66.5805664,   102.239693,           0.
    284,   69.9456177,   88.6171341,           0.
    285,   70.2084427,   108.496628,           0.
    286,    128.15126,   60.9820366,           0.
    287,   82.2532959,   109.254242,           0.
    288,    99.326004,   105.961189,           0.
    289,   114.543777,   105.948235,           0.
    290,    110.73259,   105.953377,           0.
    291,   106.927452,   105.957581,           0.
    292,   103.125938,    105.96006,           0.
    293,   118.463654,   105.923752,           0.
    294,   91.7244949,   105.953453,           0.
    295,   95.5253754,   105.957909,           0.
    296,   122.415009,    105.89048,           0.
    297,   72.8849411,    105.88092,           0.
    298,   78.4316101,   109.072876,           0.
    299,   104.974648,   60.6717606,           0.
    300,   86.0306396,   109.252136,           0.
    301,   108.781677,   60.6719246,           0.
    302,   116.375992,   60.6879539,           0.
    303,   120.177353,   60.8024979,           0.
    304,    112.58268,   60.6775818,           0.
    305,   124.008553,   60.8265839,           0.
    306,    91.612587,    64.086853,           0.
    307,   95.4532242,   64.0197678,           0.
    308,   101.168449,   60.6756821,           0.
    309,   128.765137,   96.5290222,           0.
    310,   132.415756,   109.418205,           0.
    311,   128.764267,   104.314186,           0.
    312,   125.431496,   86.8865204,           0.
    313,   125.432014,   90.7462692,           0.
    314,   125.432449,   83.0254059,           0.
    315,   125.433716,   79.1624832,           0.
    316,   125.434189,   75.2943726,           0.
    317,   125.445534,   71.3075104,           0.
    318,   125.473297,   67.2922745,           0.
    319,   128.681656,   100.422348,           0.
    320,   69.9340591,    92.511795,           0.
    321,   69.9048157,   104.258263,           0.
    322,   69.9097824,   100.364311,           0.
    323,   73.3252792,   86.6779327,           0.
    324,   73.4163361,   82.7882538,           0.
    325,   69.9214859,   96.4252472,           0.
    326,   128.598969,   108.519287,           0.
    327,   73.1508179,   102.454636,           0.
    328,   80.4632645,   105.757294,           0.
    329,   84.1703033,   105.897118,           0.
    330,   97.4268417,   102.658157,           0.
    331,   120.560379,   102.586731,           0.
    332,   101.225471,   102.659431,           0.
    333,   116.592201,   102.524284,           0.
    334,   112.672226,   102.609177,           0.
    335,   108.835464,   102.643021,           0.
    336,   105.026237,   102.654655,           0.
    337,      93.6278,   102.650848,           0.
    338,   103.075722,   63.9818039,           0.
    339,   106.879341,   63.9799461,           0.
    340,   110.683472,   63.9899521,           0.
    341,   122.180527,   64.7604294,           0.
    342,   118.184113,    64.174675,           0.
    343,   114.464546,   64.0499344,           0.
    344,   87.9343491,   105.939003,           0.
    345,   93.5586777,   67.3584595,           0.
    346,   76.4379654,   105.048523,           0.
    347,   125.795738,   106.057953,           0.
    348,    99.270256,    63.993885,           0.
    349,   125.692551,   63.8489647,           0.
    350,   125.431114,   94.5819473,           0.
    351,   122.061745,   73.2057877,           0.
    352,   122.102402,    81.091011,           0.
    353,   122.086952,    77.187645,           0.
    354,   122.189537,    69.151619,           0.
    355,   122.102592,   84.9537964,           0.
    356,   122.075684,   88.8132706,           0.
    357,   124.850655,   102.492073,           0.
    358,   125.366631,   98.3784714,           0.
    359,   73.3005066,   90.5756073,           0.
    360,   76.7303238,   84.7819214,           0.
    361,   73.2191391,   98.4755096,           0.
    362,   73.2688599,   94.5040436,           0.
    363,   73.6400146,   78.8665619,           0.
    364,   66.3308182,   109.397827,           0.
    365,    86.066597,   102.584122,           0.
    366,   99.3263168,    99.355751,           0.
    367,   101.181564,   67.2990723,           0.
    368,   95.5292282,   99.3474121,           0.
    369,   82.3801651,   102.468201,           0.
    370,   118.684418,   98.7827606,           0.
    371,   103.123055,   99.3536606,           0.
    372,   114.510826,   99.2615738,           0.
    373,   110.712723,   99.3262939,           0.
    374,    106.91909,   99.3445435,           0.
    375,   76.4618607,   100.646431,           0.
    376,   104.980286,   67.2921524,           0.
    377,   108.784637,   67.3087845,           0.
    378,   112.550949,   67.3479309,           0.
    379,   116.251266,    67.425499,           0.
    380,    119.44857,   67.2985916,           0.
    381,   89.8373184,   102.631378,           0.
    382,   89.6981583,   67.5059128,           0.
    383,   97.3757706,   67.3222427,           0.
    384,   122.066689,   92.6598511,           0.
    385,   122.318283,   99.7419434,           0.
    386,   118.393745,   70.9273682,           0.
    387,   118.775497,   83.0180588,           0.
    388,   118.645172,   75.1498413,           0.
    389,   118.725906,   86.8518219,           0.
    390,   118.645332,   79.0692062,           0.
    391,   122.097412,   96.4585724,           0.
    392,     76.67453,   88.6504898,           0.
    393,   76.6247635,   96.5769806,           0.
    394,   76.8863297,   80.9555664,           0.
    395,   76.6320724,   92.5591965,           0.
    396,   74.0877838,   74.8569412,           0.
    397,   87.7271042,    64.283226,           0.
    398,   79.1953506,   102.553108,           0.
    399,   85.9469147,   67.7075577,           0.
    400,   99.2933426,   70.6241684,           0.
    401,   87.9389801,   99.2694244,           0.
    402,   97.4289322,   96.0422211,           0.
    403,   101.222023,   96.0488892,           0.
    404,   84.2250595,    99.230011,           0.
    405,   115.863136,   96.2796021,           0.
    406,   103.087242,   70.6092911,           0.
    407,   105.013992,   96.0447083,           0.
    408,   112.572647,   96.0623779,           0.
    409,   108.800079,    96.047699,           0.
    410,   106.879646,   70.5916367,           0.
    411,   110.634331,    70.542366,           0.
    412,    114.34713,    70.566452,           0.
    413,   91.7264328,    99.317131,           0.
    414,   95.4894943,   70.6558838,           0.
    415,   91.5481339,   70.7580032,           0.
    416,   118.631561,   90.7102585,           0.
    417,   80.1526794,   82.8770065,           0.
    418,   77.2390366,   77.1575394,           0.
    419,   115.334854,   84.8377075,           0.
    420,   115.365082,   81.0485611,           0.
    421,   114.857986,   76.9956207,           0.
    422,    80.085434,   86.7894897,           0.
    423,   79.9303436,   94.6581192,           0.
    424,   80.0342255,   90.7875366,           0.
    425,   83.8377533,   64.6954422,           0.
    426,   80.2227097,   98.9178543,           0.
    427,   78.4312134,   69.1408844,           0.
    428,   82.4042969,   68.3115311,           0.
    429,   77.8112717,   73.3662567,           0.
    430,   99.3450851,   92.7959442,           0.
    431,   101.202248,   73.9330292,           0.
    432,   97.4130173,   73.9580154,           0.
    433,   89.7285614,    95.826088,           0.
    434,   103.121529,    92.780014,           0.
    435,   85.8867416,   95.9144287,           0.
    436,   104.982918,   73.8777008,           0.
    437,   114.866371,   92.7317505,           0.
    438,   106.930115,    92.784729,           0.
    439,   110.732834,   92.8812103,           0.
    440,   108.762619,   73.7792053,           0.
    441,   93.6167526,    95.980072,           0.
    442,   87.6167679,   70.7995453,           0.
    443,    115.21907,   88.6248398,           0.
    444,   115.748947,   73.4491959,           0.
    445,   83.4778824,   84.7862473,           0.
    446,   118.701599,   94.6037979,           0.
    447,   93.4762802,   74.0100479,           0.
    448,   112.088409,   82.7871475,           0.
    449,   112.376549,   79.6714783,           0.
    450,   80.3152313,   79.1240921,           0.
    451,    83.514389,   89.0307541,           0.
    452,   83.2407761,   93.0790405,           0.
    453,   112.508774,   73.7106552,           0.
    454,   82.7011261,   96.3598862,           0.
    455,    80.813385,   75.4930496,           0.
    456,   84.4308167,   70.5550766,           0.
    457,   99.4328384,   77.4033813,           0.
    458,   101.181969,   89.6151428,           0.
    459,   103.266273,   77.2825546,           0.
    460,   91.7110291,   92.3544159,           0.
    461,    105.02861,   89.5380707,           0.
    462,   87.3025436,   91.6579437,           0.
    463,      106.973,   77.0791397,           0.
    464,   108.941521,   89.7292709,           0.
    465,   89.3458252,   74.1469116,           0.
    466,   95.5731125,   92.6929703,           0.
    467,   95.4198761,   77.4179916,           0.
    468,   111.446815,   86.6644287,           0.
    469,   86.8644562,   86.7385025,           0.
    470,   83.5054779,   80.7568665,           0.
    471,    108.90107,   80.5168152,           0.
    472,   81.4599457,   71.8105621,           0.
    473,   112.241325,    90.126297,           0.
    474,   80.5548248,   65.7070389,           0.
    475,   84.8604736,   74.0288696,           0.
    476,   101.830933,   81.2033615,           0.
    477,    94.062088,   89.1638794,           0.
    478,   102.736366,   85.8926086,           0.
    479,   97.3922195,   80.8203812,           0.
    480,   105.361755,   79.8315811,           0.
    481,   83.3044968,   77.4892349,           0.
    482,   107.177719,   86.4939804,           0.
    483,   97.6291122,   89.6533279,           0.
    484,   110.730003,   76.9588165,           0.
    485,   91.3391266,    77.567749,           0.
    486,   86.7337723,   82.5083389,           0.
    487,   90.4835129,   88.2372131,           0.
    488,   75.0508652,   71.4353256,           0.
    489,   86.9555054,   78.1532059,           0.
    490,   93.2802582,   85.4732971,           0.
    491,   98.8867645,   84.1894531,           0.
    492,   96.4875031,    86.532402,           0.
    493,   93.2438583,   81.3675537,           0.
    494,   109.090309,   83.9076767,           0.
    495,   89.6399536,   80.7495041,           0.
    496,   105.849693,   82.9743347,           0.
    497,   90.0409698,   84.1790695,           0.
    498,   95.8581161,   83.6766205,           0.
    499,    99.384346,     87.17659,           0.
    500,   52.2045593,   68.5253754,           0.
    501,   46.9692612,    61.364521,           0.
    502,   59.5904503,    110.61496,           0.
    503,   59.8323021,   90.5649033,           0.
    504,   59.8316116,   86.6738052,           0.
    505,   59.8430367,   82.7840271,           0.
    506,    59.764431,   78.7430801,           0.
    507,    56.439888,   71.4656143,           0.
    508,   25.6787682,   112.434242,           0.
    509,   29.6288662,   112.433685,           0.
    510,   33.5789452,   112.433357,           0.
    511,    37.529377,    112.43351,           0.
    512,   41.4799538,   112.434464,           0.
    513,   45.4298477,   112.436317,           0.
    514,    49.356926,   112.446762,           0.
    515,   53.2756729,   112.435013,           0.
    516,   3.57787371,   59.3425636,           0.
    517,   3.36960363,   67.5680084,           0.
    518,   3.35221934,   71.4391098,           0.
    519,   3.34913588,    75.302803,           0.
    520,   3.34847617,   79.1648636,           0.
    521,   3.34854198,   83.0266037,           0.
    522,   3.34913206,   86.8883362,           0.
    523,   3.35000467,   90.7500076,           0.
    524,   3.35103178,   94.6115952,           0.
    525,   3.35904121,   98.4798889,           0.
    526,   3.44494677,   102.434685,           0.
    527,   3.59959388,   106.502579,           0.
    528,    3.6261847,   110.706703,           0.
    529,    22.053072,   57.5185928,           0.
    530,   26.0598392,   57.5175285,           0.
    531,   30.0663853,   57.5165749,           0.
    532,   34.0723648,   57.5170746,           0.
    533,   37.9699821,   57.5164185,           0.
    534,   41.7542992,   57.5666656,           0.
    535,   45.4695435,    57.680191,           0.
    536,    60.428669,    71.429924,           0.
    537,   49.1617775,   65.0608521,           0.
    538,   59.8186302,   74.6500168,           0.
    539,   3.52656651,   63.5446129,           0.
    540,   6.93130922,   104.511314,           0.
    541,   6.71737576,   96.5498428,           0.
    542,   6.73459768,   69.4680405,           0.
    543,   6.70065832,   81.0954208,           0.
    544,   6.70827866,   73.3641434,           0.
    545,    6.7028451,   77.2325821,           0.
    546,   6.70189285,   84.9568939,           0.
    547,   6.70348835,   88.8184204,           0.
    548,   6.70781565,   92.6811066,           0.
    549,   6.78611946,   100.510468,           0.
    550,   59.8319511,   94.4550781,           0.
    551,   59.8141251,   98.3448334,           0.
    552,   56.4575882,   84.7240753,           0.
    553,   59.6286583,   106.344467,           0.
    554,   59.7611809,   102.273354,           0.
    555,   56.3158607,   80.7018204,           0.
    556,   56.4525681,   88.6207123,           0.
    557,   21.7280388,   112.436371,           0.
    558,    43.463295,   109.021957,           0.
    559,   35.5544357,   109.017845,           0.
    560,   51.4073486,    109.03067,           0.
    561,   13.8419228,   112.472687,           0.
    562,   17.7796841,   112.444008,           0.
    563,   9.94041634,   112.512123,           0.
    564,   6.59212399,   112.767654,           0.
    565,   27.6544209,   109.020203,           0.
    566,   31.6043587,   109.019081,           0.
    567,    39.506813,   109.019623,           0.
    568,   47.4647064,   109.024361,           0.
    569,   35.9538689,   60.9494095,           0.
    570,   13.9861689,   57.5572624,           0.
    571,   18.0308475,   57.5239639,           0.
    572,   9.98638725,   57.5523682,           0.
    573,   24.0619202,   60.9605293,           0.
    574,   28.0653534,   60.9581909,           0.
    575,   32.0467987,   60.9555206,           0.
    576,   7.51401281,   108.898209,           0.
    577,   55.6233597,   76.3233566,           0.
    578,   10.0554523,   75.3025436,           0.
    579,   10.0620031,   71.3800812,           0.
    580,   10.0642319,   90.7472916,           0.
    581,   10.0587511,   79.1643829,           0.
    582,   10.0614796,   86.8860397,           0.
    583,   10.0602179,   83.0251999,           0.
    584,   10.0727053,   94.6102448,           0.
    585,   10.1099815,   98.5858765,           0.
    586,   10.1668015,   102.595322,           0.
    587,    6.8726573,    65.545929,           0.
    588,   56.4256897,   96.3723221,           0.
    589,    56.260006,   100.276978,           0.
    590,   53.0100441,   82.7636795,           0.
    591,   53.0565681,   86.6723785,           0.
    592,   56.4470215,   92.5070114,           0.
    593,   55.6936531,   108.760429,           0.
    594,    23.705162,   109.023079,           0.
    595,   15.7849369,   108.959824,           0.
    596,   11.7993698,   109.017944,           0.
    597,   37.5327644,   105.607307,           0.
    598,   33.5804482,   105.606941,           0.
    599,   29.6296673,   105.609634,           0.
    600,   41.5036774,   105.613678,           0.
    601,   49.5678291,    105.69915,           0.
    602,   45.5377426,   105.650146,           0.
    603,   19.7636719,   109.009491,           0.
    604,   39.7305908,   60.9868355,           0.
    605,   20.0342407,   60.9763794,           0.
    606,   11.8456535,   61.0632477,           0.
    607,   33.9924545,   64.3762436,           0.
    608,   30.0515499,   64.3859787,           0.
    609,   26.0671024,   64.3880463,           0.
    610,   15.9226799,   61.0947189,           0.
    611,   56.1154823,   104.310608,           0.
    612,   7.48184872,   61.2038498,           0.
    613,   52.1847687,   102.338371,           0.
    614,   13.4339638,   92.6733551,           0.
    615,   13.5468206,    96.667099,           0.
    616,   13.3988323,   77.2547302,           0.
    617,   13.5502748,   100.714897,           0.
    618,    13.418973,   81.0981369,           0.
    619,   13.4764404,   73.3387909,           0.
    620,   13.4280653,   88.8133698,           0.
    621,   13.4245949,   84.9544296,           0.
    622,   10.1030684,   67.4688187,           0.
    623,   10.0118513,   106.025818,           0.
    624,   53.0049744,   94.4240723,           0.
    625,   52.8282089,   98.2273483,           0.
    626,   49.6552811,   84.7215652,           0.
    627,   53.0465317,   90.5644073,           0.
    628,   52.9938164,   106.027847,           0.
    629,   25.6826134,   105.614136,           0.
    630,   47.7229614,   102.327377,           0.
    631,   35.5596542,   102.199326,           0.
    632,   13.6558657,   105.056091,           0.
    633,   17.8631668,   105.565285,           0.
    634,    31.605505,   102.201561,           0.
    635,   43.6275177,   102.165733,           0.
    636,   39.5558739,    102.18679,           0.
    637,   21.7558861,    105.61441,           0.
    638,   52.8378677,   79.0311279,           0.
    639,     37.84412,   64.3987885,           0.
    640,   22.0117359,    64.411171,           0.
    641,   43.4776649,   61.1472588,           0.
    642,    28.065424,   67.8081512,           0.
    643,   32.0293274,   67.8072205,           0.
    644,   13.6375198,   65.0294495,           0.
    645,   17.9620285,   64.4980469,           0.
    646,   6.61448908,   57.2453346,           0.
    647,   56.6245193,   112.702606,           0.
    648,   45.4157867,   64.9340973,           0.
    649,   49.6232033,   99.5422668,           0.
    650,   16.8750858,   94.5613327,           0.
    651,   16.7705517,   79.1893311,           0.
    652,   17.4049206,   98.7695084,           0.
    653,   16.7882462,   83.0282059,           0.
    654,   16.8044815,   90.7118683,           0.
    655,   16.8651638,   75.3720703,           0.
    656,   16.7950726,    86.874054,           0.
    657,   9.98814964,   64.0622559,           0.
    658,   49.6124306,   92.4720688,           0.
    659,   13.4899988,   69.3534698,           0.
    660,   49.5373802,   96.2349472,           0.
    661,   49.6452904,   88.6135712,           0.
    662,   27.6530342,   102.184677,           0.
    663,    49.659996,   80.8884888,           0.
    664,   19.8097324,   102.242699,           0.
    665,   16.4567928,   102.469696,           0.
    666,   45.9446335,   98.4315491,           0.
    667,   33.5829391,   98.7963791,           0.
    668,   37.6170959,   98.6774521,           0.
    669,   41.6479187,   98.6562805,           0.
    670,   35.9379654,   67.8009872,           0.
    671,   23.7077732,   102.186172,           0.
    672,   23.9898376,   67.7991409,           0.
    673,   30.0638046,   71.2090073,           0.
    674,   16.4561996,   67.5985031,           0.
    675,   19.9384613,   67.7834854,           0.
    676,   47.6934471,   69.4980087,           0.
    677,   51.6681938,   73.4176636,           0.
    678,   17.4462852,   71.2152939,           0.
    679,   20.1706142,   81.0916443,           0.
    680,   19.9429626,   95.9134827,           0.
    681,   20.1489487,    92.589119,           0.
    682,    20.201273,   77.2825317,           0.
    683,   20.1666069,   84.9423523,           0.
    684,   20.1581612,   88.7750702,           0.
    685,    46.339447,   90.5113907,           0.
    686,   46.3204613,   94.2986755,           0.
    687,   46.3116302,   86.6566315,           0.
    688,   46.2869377,   82.7771835,           0.
    689,   50.0515785,   77.1972122,           0.
    690,   29.6482983,   98.7606812,           0.
    691,   34.0374489,   71.2367249,           0.
    692,   35.5583305,   95.3376007,           0.
    693,   39.7455788,   94.8052826,           0.
    694,   25.9886799,   71.2477188,           0.
    695,   25.6824532,   98.6884155,           0.
    696,   39.7410202,   67.9656601,           0.
    697,   21.8636017,   71.1605682,           0.
    698,   20.0329399,    74.002449,           0.
    699,   23.5112591,   79.1619186,           0.
    700,   23.5786686,   94.8887405,           0.
    701,   23.5225925,   82.9893875,           0.
    702,   23.4119625,    90.711319,           0.
    703,   23.4859848,   86.8744965,           0.
    704,   43.0640221,   88.5943527,           0.
    705,   46.5682373,    78.668045,           0.
    706,   43.0079269,    84.711853,           0.
    707,   21.6877518,   98.7815018,           0.
    708,   31.6826477,   95.2989655,           0.
    709,     43.37397,   95.7216949,           0.
    710,    28.105135,   74.7090454,           0.
    711,   32.2292595,   74.7547455,           0.
    712,   37.8747826,   71.3082275,           0.
    713,   27.7957783,   95.2190552,           0.
    714,   37.0201225,   92.3071976,           0.
    715,   43.1183014,   92.4163666,           0.
    716,   23.7460976,   75.0288696,           0.
    717,   26.8283005,   81.0231628,           0.
    718,   26.8084183,   84.9545822,           0.
    719,    26.646965,   88.8785095,           0.
    720,   39.7611923,   86.6186752,           0.
    721,   42.9844513,   80.4924774,           0.
    722,     47.31987,   74.4200287,           0.
    723,   30.3368912,   78.6972351,           0.
    724,    33.840065,   92.0072174,           0.
    725,   36.2648582,   74.6679001,           0.
    726,   41.4601326,   71.6038971,           0.
    727,   29.8390732,   91.3843002,           0.
    728,    26.505537,   77.7240448,           0.
    729,   26.2544899,   92.2163849,           0.
    730,    30.150135,   83.1944122,           0.
    731,   29.8850021,   87.1718674,           0.
    732,    34.717392,   78.1968765,           0.
    733,   39.6877594,   82.5789337,           0.
    734,   43.1072922,   75.6757736,           0.
    735,   36.1332741,   88.6451569,           0.
    736,   43.4311829,   68.4036713,           0.
    737,   39.5489388,   74.2921066,           0.
    738,   39.0094643,   78.1361618,           0.
    739,   33.1732597,   85.7007446,           0.
    740,   39.8070831,   90.5645065,           0.
    741,   41.6067276,   64.6393814,           0.
    742,   32.5741348,   88.9818573,           0.
    743,   44.6023865,   71.9202805,           0.
    744,   33.6188393,   81.8725281,           0.
    745,   36.5216484,   84.4108505,           0.
    746,   36.7110214,   81.0390701,           0.
    747,   52.5452499,   76.4923401,           0.
    748,   66.5845718,   25.3169441,           0.
    749,   77.4678268,   43.0504417,           0.
    750,   66.5946732,   17.5168438,           0.
    751,   66.5823822,   21.4235439,           0.
    752,   74.4298248,   39.4290314,           0.
    753,   66.6004562,   29.1261044,           0.
    754,   66.6487427,   32.8408051,           0.
    755,   130.326233,   3.53517556,           0.
    756,   110.732193,   3.29666233,           0.
    757,   106.929924,   3.29684448,           0.
    758,   103.127563,   3.29711795,           0.
    759,   99.3254776,   3.29755044,           0.
    760,   95.5235291,   3.29811311,           0.
    761,   91.7216415,   3.29881048,           0.
    762,   87.9197464,   3.29943895,           0.
    763,    84.117836,   3.30016565,           0.
    764,   80.3159866,   3.30116653,           0.
    765,   76.4976501,   3.33633018,           0.
    766,   72.5471497,   3.45858908,           0.
    767,   68.3907394,   3.49266458,           0.
    768,   131.943512,   48.8986626,           0.
    769,   132.099442,   32.8235359,           0.
    770,   132.100632,   28.9622288,           0.
    771,   132.101822,   25.1006565,           0.
    772,   132.103195,   21.2389469,           0.
    773,   132.105026,   17.3771744,           0.
    774,   132.115448,   13.5382366,           0.
    775,   132.104492,   9.70808411,           0.
    776,   125.865669,   50.7395935,           0.
    777,   122.098976,   50.7585869,           0.
    778,   118.299812,   50.7602921,           0.
    779,   114.493637,   50.7601166,           0.
    780,   110.685402,    50.759491,           0.
    781,   106.876724,   50.7582169,           0.
    782,   103.067856,   50.7561569,           0.
    783,   99.2587967,   50.7540054,           0.
    784,   95.4496841,   50.7516708,           0.
    785,   91.6074295,   50.7185936,           0.
    786,   87.6977386,   50.6610794,           0.
    787,   83.7458801,   50.6718102,           0.
    788,   80.5373306,   51.1742477,           0.
    789,   70.3628311,   37.7486572,           0.
    790,   80.7649918,   46.8573036,           0.
    791,   114.534904,    3.2995491,           0.
    792,   86.0194702,   6.60539818,           0.
    793,   108.832146,   6.59626722,           0.
    794,   93.6231079,   6.60087109,           0.
    795,   101.226929,    6.5972662,           0.
    796,   78.3853149,   6.64808464,           0.
    797,   126.152939,   3.49735928,           0.
    798,   122.175613,     3.366328,           0.
    799,   118.337379,   3.31720638,           0.
    800,   74.5017853,   6.76296997,           0.
    801,   89.8214111,   6.60413551,           0.
    802,   105.029617,    6.5967679,           0.
    803,   97.4251175,   6.59937954,           0.
    804,   82.2128372,   6.61504984,           0.
    805,    108.78241,   47.4509773,           0.
    806,   116.396744,   47.4533615,           0.
    807,   85.6165237,   47.1390114,           0.
    808,   97.3570328,   47.4341164,           0.
    809,   93.5325775,   47.3922234,           0.
    810,   124.049667,   47.4152336,           0.
    811,   120.247116,   47.4345169,           0.
    812,    112.59005,    47.452198,           0.
    813,   104.974304,   47.4469833,           0.
    814,   101.166016,   47.4409027,           0.
    815,   89.6600418,   47.2854767,           0.
    816,   132.084152,   36.6877441,           0.
    817,   132.045029,   40.6126862,           0.
    818,   128.767349,   19.2990208,           0.
    819,   128.759018,   30.8911114,           0.
    820,    131.95845,   44.6667099,           0.
    821,   128.761581,   27.0297756,           0.
    822,   128.764694,   23.1669292,           0.
    823,   128.770752,   15.4002638,           0.
    824,   128.776871,   11.5257568,           0.
    825,   66.7611237,   36.4177971,           0.
    826,   66.6169434,     13.59342,           0.
    827,   69.9983978,   30.9238548,           0.
    828,   66.6297226,   9.71197033,           0.
    829,   69.9716568,   27.2013016,           0.
    830,   69.9555511,   23.3587494,           0.
    831,   69.9698563,    19.475174,           0.
    832,   66.3455353,   6.43413019,           0.
    833,   70.1926727,   7.32518864,           0.
    834,   116.407722,   6.62587976,           0.
    835,   120.223907,   6.78868675,           0.
    836,    95.525856,   9.90537643,           0.
    837,    99.327507,   9.90188026,           0.
    838,   103.129997,   9.89918232,           0.
    839,   80.2489548,   9.94785213,           0.
    840,   91.7241974,   9.91068363,           0.
    841,   106.932762,   9.89955616,           0.
    842,   84.1035385,   9.92541504,           0.
    843,   87.9196854,   9.91721344,           0.
    844,   76.3758926,   9.97257614,           0.
    845,   72.9918594,    9.8163538,           0.
    846,   112.629318,   6.60275364,           0.
    847,   114.502098,   44.1421967,           0.
    848,   118.404816,    44.125145,           0.
    849,   91.6732407,   43.9764137,           0.
    850,   110.689217,   44.1412163,           0.
    851,   122.276329,   44.1433754,           0.
    852,   95.4719162,   44.0745773,           0.
    853,   99.2693634,   44.1142693,           0.
    854,   103.075172,   44.1291618,           0.
    855,   106.882111,   44.1366882,           0.
    856,   128.169983,   47.0980225,           0.
    857,    128.51355,   7.34283733,           0.
    858,   128.628601,   38.6529846,           0.
    859,   125.427567,   25.0955315,           0.
    860,   125.435677,   21.2156696,           0.
    861,   125.424461,   28.9567528,           0.
    862,   125.521194,   13.3321438,           0.
    863,   125.472969,   17.2733402,           0.
    864,   128.724442,   34.7441292,           0.
    865,   70.0737991,   15.5327902,           0.
    866,   73.4362793,   21.4677715,           0.
    867,   73.3405075,   25.3245182,           0.
    868,    73.354805,    29.094099,           0.
    869,   70.0694962,     11.56744,           0.
    870,   124.165344,    6.9305625,           0.
    871,   128.542953,   42.6832123,           0.
    872,   87.8379517,   43.7975121,           0.
    873,   73.9386444,    13.391758,           0.
    874,   122.237526,     10.77211,           0.
    875,   78.1956406,   13.1694574,           0.
    876,   114.501526,   9.96415138,           0.
    877,   118.219673,   10.1406336,           0.
    878,    93.629158,   13.2188311,           0.
    879,   89.8270111,   13.2280588,           0.
    880,   97.4303055,   13.2114544,           0.
    881,   86.0072937,   13.2335329,           0.
    882,   101.232079,    13.205555,           0.
    883,   82.1003342,   13.2086458,           0.
    884,    105.03067,   13.2109261,           0.
    885,   120.480743,   40.8090744,           0.
    886,   112.613861,   40.8149109,           0.
    887,   108.792007,   40.8243561,           0.
    888,   124.730255,   40.7612839,           0.
    889,   116.544052,   40.7196236,           0.
    890,   101.179588,   40.8068771,           0.
    891,    97.398674,    40.773468,           0.
    892,   104.985153,   40.8184052,           0.
    893,   93.6417999,   40.6958427,           0.
    894,   110.730309,   9.91825294,           0.
    895,   125.553841,   44.4202232,           0.
    896,   89.8942719,   40.5378494,           0.
    897,   125.842896,   9.98068237,           0.
    898,   125.406174,   32.7917862,           0.
    899,   122.067215,   27.0199337,           0.
    900,   122.226776,   15.1331005,           0.
    901,   122.090614,   23.1322098,           0.
    902,   125.298912,   36.6188469,           0.
    903,   122.066574,     19.13204,           0.
    904,    73.537262,   17.5804157,           0.
    905,   76.8123093,   23.5628281,           0.
    906,   76.7408066,    27.281641,           0.
    907,   73.3128891,   32.8032417,           0.
    908,   83.9429626,   43.4365273,           0.
    909,   129.087921,   50.9728355,           0.
    910,   132.366348,   6.43424559,           0.
    911,   91.8374481,   37.2814217,           0.
    912,   119.504982,   13.2726517,           0.
    913,   122.258659,    37.975174,           0.
    914,   112.548721,   13.3349676,           0.
    915,    80.006546,    16.363781,           0.
    916,   99.3373489,   16.5167217,           0.
    917,    103.08696,   16.5438995,           0.
    918,   116.241219,   13.3956327,           0.
    919,   87.9064484,   16.5404949,           0.
    920,    110.71032,   37.4954338,           0.
    921,   83.9768906,   16.4727497,           0.
    922,   91.7292633,    16.537138,           0.
    923,   95.5359955,   16.5276012,           0.
    924,   106.896049,    37.505497,           0.
    925,   99.3150711,   37.4700546,           0.
    926,   95.5639725,   37.4061852,           0.
    927,   118.635056,   36.9840279,           0.
    928,   114.487183,   37.4430542,           0.
    929,   103.098671,   37.4941139,           0.
    930,   108.794571,    13.275794,           0.
    931,   76.6092758,   16.0178566,           0.
    932,   122.045959,   30.8680687,           0.
    933,   86.1767578,   40.2093391,           0.
    934,   118.689888,   25.0191364,           0.
    935,   118.384789,   16.9429932,           0.
    936,   118.717163,   21.1792545,           0.
    937,   122.055885,   34.6742668,           0.
    938,   77.4564056,   19.5642834,           0.
    939,   80.1427536,   25.5384102,           0.
    940,   76.6352005,   31.0718517,           0.
    941,    93.712822,   33.9102898,           0.
    942,   82.5375977,   39.6679955,           0.
    943,   110.480293,   16.8045979,           0.
    944,   101.148872,   19.9794273,           0.
    945,    108.78846,   34.2007179,           0.
    946,   88.2325058,   36.9776001,           0.
    947,   81.8303223,   19.6567707,           0.
    948,   97.4620972,   34.0671082,           0.
    949,   97.4336243,   19.9599075,           0.
    950,   114.256523,   16.8276749,           0.
    951,   112.547119,   34.2349663,           0.
    952,   85.8570175,   19.8474979,           0.
    953,   89.8072662,   19.8587456,           0.
    954,   93.6396027,   19.9148655,           0.
    955,   101.227402,   34.1490211,           0.
    956,   105.004951,   34.1835632,           0.
    957,   115.842842,   34.4700317,           0.
    958,   106.729774,   16.6655083,           0.
    959,   118.606941,   28.9002304,           0.
    960,   115.471321,   23.0593834,           0.
    961,   115.801292,   19.7452145,           0.
    962,   80.0179443,   29.3514347,           0.
    963,   76.6815872,   35.2986908,           0.
    964,   95.5817184,   30.4813709,           0.
    965,   84.6813583,   36.4001503,           0.
    966,   89.9805984,   33.6622238,           0.
    967,    108.34713,   20.1847057,           0.
    968,   110.713707,   30.8955154,           0.
    969,   99.2955551,   23.5113087,           0.
    970,   99.3526764,   30.6287346,           0.
    971,   106.893509,   30.7148781,           0.
    972,   114.860977,   30.8920422,           0.
    973,   83.7065353,   23.4378166,           0.
    974,   95.5469208,   23.4165688,           0.
    975,   103.098785,    30.656498,           0.
    976,    87.947876,   23.1599026,           0.
    977,      91.7612,   23.2891903,           0.
    978,   104.786293,   20.0730267,           0.
    979,   115.367348,   26.8107414,           0.
    980,   118.674614,    32.798111,           0.
    981,   112.289467,   20.7001896,           0.
    982,   79.9896622,   22.3520222,           0.
    983,   83.5519485,   27.7458591,           0.
    984,   79.5270386,   32.7286491,           0.
    985,    109.65033,   23.2653389,           0.
    986,   80.9402237,   35.9560051,           0.
    987,   97.4513016,    27.004734,           0.
    988,   86.7452469,   33.8266068,           0.
    989,    109.02916,   26.9315529,           0.
    990,    101.16021,   27.0726128,           0.
    991,   91.7266922,   30.2360306,           0.
    992,   104.931114,   27.0733585,           0.
    993,   93.6686401,    26.829113,           0.
    994,   89.8627625,   26.5909843,           0.
    995,   102.971481,   23.5417633,           0.
    996,   83.2747421,   32.2837067,           0.
    997,   112.442841,   28.0787544,           0.
    998,    86.505722,   26.1823597,           0.
    999,   112.375076,   24.8076611,           0.
   1000,   87.3782425,   30.0753956,           0.
   1001,   106.619255,   23.5116234,           0.
   1002,   78.7932587,   39.3373184,           0.
   1003,   80.7013245,   42.4699173,           0.
   1004,   72.9625015,    35.938385,           0.
   1005,   70.0077438,   34.4454575,           0.
   1006,   48.1362648,   42.7917557,           0.
   1007,    45.811264,   51.2462082,           0.
   1008,   59.6336441,    5.2313385,           0.
   1009,   59.8275032,   21.4280186,           0.
   1010,   59.7991447,   25.3612194,           0.
   1011,    51.974617,   39.8073578,           0.
   1012,   59.7482224,    29.365593,           0.
   1013,   59.7365837,   33.4135818,           0.
   1014,   60.2460022,   36.6925735,           0.
   1015,   45.5948677,   47.4316025,           0.
   1016,    55.842659,   36.4629059,           0.
   1017,   26.0601082,   50.6032639,           0.
   1018,   30.0724964,   50.6017456,           0.
   1019,   34.1343002,   50.5734711,           0.
   1020,   38.3107071,   50.5803528,           0.
   1021,    42.453083,    50.746006,           0.
   1022,   3.52886796,   5.27200651,           0.
   1023,   3.49502349,   9.47582817,           0.
   1024,   3.37882972,   13.4823055,           0.
   1025,    3.3575933,    17.372057,           0.
   1026,   3.35256886,   21.2385349,           0.
   1027,   3.35158181,   25.1008739,           0.
   1028,   3.35268831,   28.9625015,           0.
   1029,   3.35485291,   32.8239212,           0.
   1030,   3.36101389,   36.6844711,           0.
   1031,   3.40135765,   40.5604362,           0.
   1032,   3.53306246,   44.5685883,           0.
   1033,   3.57952285,   48.7907791,           0.
   1034,   53.3251266,   3.40570903,           0.
   1035,   45.4276428,   3.41569495,           0.
   1036,   41.4791298,   3.41886091,           0.
   1037,   37.5290833,   3.41935325,           0.
   1038,   33.5785255,   3.41893792,           0.
   1039,   29.6279697,   3.41793752,           0.
   1040,   25.6775055,   3.41636324,           0.
   1041,    21.727026,    3.4144783,           0.
   1042,    17.776516,   3.41246438,           0.
   1043,   13.7804174,   3.45621061,           0.
   1044,   9.84335804,   3.46816564,           0.
   1045,   6.72474623,   34.7501144,           0.
   1046,   6.86014652,   42.4556122,           0.
   1047,   6.70822716,   23.1702309,           0.
   1048,   6.70997953,   27.0307713,           0.
   1049,   6.71201992,   19.3086662,           0.
   1050,   6.73024511,   15.3988056,           0.
   1051,    6.8339138,   11.4673843,           0.
   1052,   6.71565247,   30.8905392,           0.
   1053,   6.75992393,   38.5848846,           0.
   1054,   56.1263657,   31.5080643,           0.
   1055,   59.8323288,   17.5355511,           0.
   1056,   56.4169044,   23.3974781,           0.
   1057,   59.8092613,    13.595644,           0.
   1058,   56.3131561,   27.3653355,           0.
   1059,   49.3988914,   3.41772389,           0.
   1060,   56.6688652,   3.15518069,           0.
   1061,    27.651268,   6.83115149,           0.
   1062,   43.4537354,   6.83503771,           0.
   1063,   31.6020222,   6.83415413,           0.
   1064,   23.7005787,   6.82645798,           0.
   1065,   19.7498951,   6.82148027,           0.
   1066,   15.7128668,   6.94273329,           0.
   1067,   39.5039177,   6.83668184,           0.
   1068,   35.5532112,   6.83601189,           0.
   1069,   11.6871386,   6.97962856,           0.
   1070,   22.0454617,   50.5949669,           0.
   1071,   36.3356934,   47.1118469,           0.
   1072,   13.9516859,   50.4757233,           0.
   1073,   18.0026245,   50.5227089,           0.
   1074,   28.0747662,   47.1485634,           0.
   1075,   9.95682716,   50.5004501,           0.
   1076,   6.60218954,   50.8518219,           0.
   1077,   32.1327782,   47.1362801,           0.
   1078,   40.7342606,   47.1779633,           0.
   1079,   7.46686125,   46.8239212,           0.
   1080,   55.7979393,   7.12690878,           0.
   1081,   9.99941254,   43.8827858,           0.
   1082,   10.0781536,   28.9567795,           0.
   1083,   10.0722322,   21.2385941,           0.
   1084,   10.0746756,   25.0982819,           0.
   1085,   10.0903416,   32.8135071,           0.
   1086,    10.063448,     17.30303,           0.
   1087,   10.0554209,   13.3770943,           0.
   1088,   10.1163397,   36.6458511,           0.
   1089,   10.1708727,   40.5164871,           0.
   1090,   7.39435816,   7.12468338,           0.
   1091,   56.4598618,   15.5628519,           0.
   1092,   59.6833534,   9.51246643,           0.
   1093,   52.9491081,   25.3182888,           0.
   1094,   56.4472046,   19.4838791,           0.
   1095,    47.489418,    6.9639163,           0.
   1096,   37.5276375,    10.252284,           0.
   1097,   41.4790039,   10.2512531,           0.
   1098,   33.5755615,   10.2491817,           0.
   1099,    25.672163,   10.2374468,           0.
   1100,   21.7055855,   10.2322168,           0.
   1101,   29.6232471,   10.2438583,           0.
   1102,   17.7609768,   10.3243771,           0.
   1103,   13.5161562,    10.903966,           0.
   1104,   51.5179596,   7.00182343,           0.
   1105,   24.0564899,   47.1375694,           0.
   1106,   11.8396387,   46.9069138,           0.
   1107,   15.9481783,    46.908577,           0.
   1108,   34.2046165,   43.6793098,           0.
   1109,   30.1052895,   43.7011032,           0.
   1110,   20.0395508,   47.0608673,           0.
   1111,   13.7496939,   42.9707527,           0.
   1112,   13.6060896,   34.7721558,           0.
   1113,   13.4779358,   19.2425327,           0.
   1114,   13.4820251,   30.8831215,           0.
   1115,   13.4360151,    23.172327,           0.
   1116,   13.4328461,   15.2363329,           0.
   1117,   13.6435823,    38.707592,           0.
   1118,   13.4510393,    27.027071,           0.
   1119,   6.52358198,   3.17297101,           0.
   1120,   9.89739704,   9.97055149,           0.
   1121,   53.0391998,   17.4667091,           0.
   1122,   56.3712234,   11.5760469,           0.
   1123,   52.9992867,   21.3993015,           0.
   1124,   52.7334404,   29.2512817,           0.
   1125,   45.3961411,   10.3731174,           0.
   1126,   27.6415882,   13.6485376,           0.
   1127,   23.6573772,   13.6299906,           0.
   1128,   16.3241577,   13.4491425,           0.
   1129,   49.6063843,   10.9802084,           0.
   1130,   19.7220612,   13.6228943,           0.
   1131,   39.4893875,   13.6571264,           0.
   1132,   31.5948391,   13.6574459,           0.
   1133,   35.5463066,    13.661828,           0.
   1134,   26.0749378,   43.7008018,           0.
   1135,   32.0900688,   40.2647743,           0.
   1136,   18.0941467,    43.552742,           0.
   1137,   22.0795212,   43.6638031,           0.
   1138,   53.2846985,    10.051918,           0.
   1139,   53.0627556,   13.4984865,           0.
   1140,   16.9619484,   32.7108574,           0.
   1141,   16.8232365,   21.2548332,           0.
   1142,   17.5671902,   36.8233604,           0.
   1143,   16.8249683,   25.0704441,           0.
   1144,   17.3119755,   17.0787659,           0.
   1145,   16.8594055,     28.89361,           0.
   1146,   49.5097656,    19.364624,           0.
   1147,   49.5459785,   23.3109932,           0.
   1148,   49.4446983,   27.1631737,           0.
   1149,   43.3674049,   13.6736536,           0.
   1150,   25.4786339,   17.0482082,           0.
   1151,   21.5111561,   16.9222069,           0.
   1152,   29.5040302,   17.0893059,           0.
   1153,   37.5053215,   17.0516262,           0.
   1154,   46.7351646,   13.5203419,           0.
   1155,   33.5318909,   17.0762062,           0.
   1156,   28.0645962,    40.252636,           0.
   1157,   36.2926216,   40.1397591,           0.
   1158,   20.0620041,   40.2658844,           0.
   1159,   24.0307007,    40.242939,           0.
   1160,    52.310585,   33.2552032,           0.
   1161,   16.6233234,   40.4640656,           0.
   1162,   46.0843086,   25.2793808,           0.
   1163,   20.0895767,   34.0216026,           0.
   1164,   20.2047386,   22.9769917,           0.
   1165,   20.2831955,   30.7233162,           0.
   1166,   20.3957081,   26.8177013,           0.
   1167,    45.976902,    21.465332,           0.
   1168,   49.6073341,   15.3419857,           0.
   1169,   49.1265335,   30.9909496,           0.
   1170,   41.4182281,   16.9906921,           0.
   1171,   23.1081448,    20.297224,           0.
   1172,    19.791851,   19.7060032,           0.
   1173,   27.2156963,   20.5682831,           0.
   1174,   45.6526947,   17.1860504,           0.
   1175,   31.4158936,   20.5292187,           0.
   1176,   35.5027275,   20.4731483,           0.
   1177,   38.6179008,   43.5675163,           0.
   1178,   34.0430908,   36.8221054,           0.
   1179,   30.0506134,   36.8164749,           0.
   1180,   21.9195271,   36.8467216,           0.
   1181,   25.9936333,   36.7554893,           0.
   1182,   43.1953163,   43.4951134,           0.
   1183,   48.3085098,   38.4619408,           0.
   1184,   48.5773506,   34.7317047,           0.
   1185,   42.1612816,    23.607275,           0.
   1186,   23.8256969,   33.0151024,           0.
   1187,   24.5039349,   24.4228821,           0.
   1188,   23.8739986,   28.8429222,           0.
   1189,   45.9524994,      28.9445,           0.
   1190,   39.5214386,   20.3214931,           0.
   1191,   31.9639263,   33.5259781,           0.
   1192,   37.9956512,    36.610218,           0.
   1193,   29.2949009,   24.0114269,           0.
   1194,   41.0062637,   39.5172157,           0.
   1195,   33.4902039,   23.8630905,           0.
   1196,   28.0628242,   33.4980469,           0.
   1197,   45.0643272,   40.1564178,           0.
   1198,   42.9461098,   19.9141693,           0.
   1199,   44.6300735,   36.4641151,           0.
   1200,   45.5059052,    32.571312,           0.
   1201,   43.2083855,   27.0882549,           0.
   1202,   37.6648865,   23.7607746,           0.
   1203,   35.8450584,   33.5329208,           0.
   1204,   31.6072063,   27.1961651,           0.
   1205,   29.9387341,    30.441761,           0.
   1206,   27.6419868,   27.5838947,           0.
   1207,   26.6686478,   30.6763458,           0.
   1208,   33.7782402,   30.3769722,           0.
   1209,   42.0483093,   30.4900913,           0.
   1210,   35.6671562,   27.1191807,           0.
   1211,   39.5702972,   33.4726524,           0.
   1212,   51.4027443,   36.5438232,           0.
   1213,    37.773304,   30.3530293,           0.
   1214,   39.7538872,    27.069767,           0.
   1215,   41.1676407,   35.9754066,           0.
   1216,    42.584446,   33.7947159,           0.
*Element, type=S3
  1, 285, 227, 226
  2, 321, 297, 285
  3, 233,  66, 232
  4, 364,  13,  14
  5, 262, 259, 214
  6, 201,   3,  29
  7, 248, 228, 227
  8, 279,  18, 202
  9, 202,  18,  19
 10, 242, 231, 230
 11, 203, 202,  19
 12, 204, 203,  20
 13, 281, 204, 206
 14, 205,  26, 200
 15, 206, 204,  21
 16, 207, 206,  22
 17, 208,   2,  24
 18, 209,  27,  28
 19, 280, 207, 210
 20,  42,   4,  43
 21, 225,  43,  44
 22, 303, 302, 261
 23, 275, 271, 222
 24, 301, 299, 256
 25, 336, 292, 332
 26, 270, 269, 219
 27, 260,  37,  38
 28, 353, 315, 352
 29, 254,  34,  35
 30, 212,  33, 211
 31, 489, 470, 481
 32, 213,  32, 212
 33, 215,  29,  30
 34,  58,  57,   5
 35, 240,  58,  59
 36, 243, 239, 238
 37, 246, 237, 236
 38, 347, 311, 326
 39, 266,  53,  54
 40, 217,  52, 216
 41, 218,  51, 217
 42, 219,  50, 218
 43, 220,  49, 219
 44, 221,  48, 220
 45, 222,  47, 221
 46, 223,  46, 222
 47, 224,  45, 223
 48, 225,  44, 224
 49,  75,   1,  13
 50, 226,  75,  13
 51, 227,  74, 226
 52, 227,  73,  74
 53, 228,  72,  73
 54, 241, 229,  70
 55, 247,  71,  72
 56, 323, 284, 277
 57, 230,  69, 229
 58, 231,  68, 230
 59, 232,  67, 231
 60, 234,  65, 233
 61, 235,  64, 234
 62, 236,  63, 235
 63, 237,  62, 236
 64, 238,  61, 237
 65, 239,  60, 238
 66, 240,  59, 239
 67, 200,  26,  27
 68, 209,  28, 201
 69, 201,  28,   3
 70, 215,  30, 214
 71, 241,  70,  71
 72, 203,  19,  20
 73, 204,  20,  21
 74, 382, 306, 345
 75, 206,  21,  22
 76, 280, 206, 207
 77, 205,  25,  26
 78, 250, 242, 230
 79, 207,  22,  23
 80, 210, 208,  24
 81, 208, 207,  23
 82, 210,  25, 205
 83, 208,  23,   2
 84, 210,  24,  25
 85, 214,  31, 213
 86, 209, 200,  27
 87, 324, 323, 277
 88, 210, 207, 208
 89, 211,  33,  34
 90, 251, 233, 244
 91, 258, 212, 257
 92, 212,  32,  33
 93, 262, 213, 258
 94, 213,  31,  32
 95, 259, 215, 214
 96, 214,  30,  31
 97, 215, 209, 201
 98, 215, 201,  29
 99, 216,  52,  53
100, 251, 245, 234
101, 244, 233, 232
102, 217,  51,  52
103, 355, 352, 314
104, 218,  50,  51
105, 260, 255,  37
106, 219,  49,  50
107, 261, 260,  38
108, 220,  48,  49
109, 263, 261,  39
110, 221,  47,  48
111, 275, 222, 221
112, 222,  46,  47
113, 264, 263,  40
114, 223,  45,  46
115, 267, 224, 223
116, 224,  44,  45
117, 265,  42, 225
118, 225,  42,  43
119, 226,  74,  75
120, 282,  14,  15
121, 283,  16, 278
122, 228,  73, 227
123, 278,  16,  17
124, 247,  72, 228
125, 229,  69,  70
126, 344, 250, 300
127, 307, 306, 258
128, 230,  68,  69
129, 252, 231, 242
130, 231,  67,  68
131, 276, 217, 272
132, 232,  66,  67
133, 319, 273, 311
134, 233,  65,  66
135, 245, 235, 234
136, 234,  64,  65
137, 253, 235, 245
138, 235,  63,  64
139, 253, 246, 236
140, 236,  62,  63
141, 273, 266,  54
142, 237,  61,  62
143, 274, 273,  55
144, 238,  60,  61
145, 326, 239, 243
146, 239,  59,  60
147, 310,  57, 240
148, 240,  57,  58
149, 247, 241,  71
150, 298, 287, 247
151, 250, 230, 229
152, 338, 308, 299
153, 249, 238, 237
154, 296, 249, 293
155, 252, 244, 232
156, 414, 383, 400
157, 309, 216, 266
158, 251, 234, 233
159, 293, 246, 289
160, 253, 236, 235
161, 298, 228, 248
162, 375, 346, 327
163, 321, 285, 282
164, 327, 297, 321
165, 249, 243, 238
166, 249, 237, 246
167, 300, 229, 241
168, 284, 203, 277
169, 292, 244, 288
170, 339, 338, 299
171, 252, 232, 231
172, 337, 330, 295
173, 437, 405, 408
174, 289, 246, 253
175, 254, 211,  34
176, 256,  35,  36
177, 255,  36,  37
178, 268, 221, 220
179, 256, 254,  35
180, 256,  36, 255
181, 257, 212, 211
182, 308, 211, 254
183, 397, 262, 306
184, 258, 213, 212
185, 474, 427, 200
186, 259, 209, 215
187, 261,  38,  39
188, 378, 377, 340
189, 263,  39,  40
190, 305, 264, 286
191, 262, 214, 213
192, 306, 262, 258
193, 264,  40,  41
194, 305, 303, 263
195, 265, 264,  41
196, 286, 225, 224
197, 265,  41,  42
198, 286, 265, 225
199, 266, 216,  53
200, 273,  54,  55
201, 271, 223, 222
202, 275, 221, 268
203, 269, 220, 219
204, 269, 268, 220
205, 270, 219, 218
206, 314, 270, 312
207, 276, 218, 217
208, 290, 289, 253
209, 303, 261, 263
210, 271, 267, 223
211, 272, 217, 216
212, 405, 370, 372
213, 274,  55,  56
214, 370, 331, 333
215, 310, 274,  56
216, 326, 274, 310
217, 315, 269, 314
218, 316, 268, 315
219, 313, 312, 276
220, 276, 270, 218
221, 277, 203, 204
222, 424, 392, 422
223, 279, 278,  17
224, 327, 321, 322
225, 279,  17,  18
226, 320, 202, 284
227, 488, 210, 205
228, 469, 462, 451
229, 281, 277, 204
230, 281, 206, 280
231, 364, 282, 285
232, 283, 282,  15
233, 283,  15,  16
234, 322, 321, 283
235, 362, 361, 325
236, 284, 202, 203
237, 285, 248, 227
238, 364, 285, 226
239, 286, 264, 265
240, 286, 224, 267
241, 329, 287, 328
242, 287, 241, 247
243, 288, 244, 252
244, 295, 252, 242
245, 290, 253, 245
246, 291, 245, 251
247, 291, 290, 245
248, 313, 276, 272
249, 292, 291, 251
250, 335, 334, 290
251, 292, 251, 244
252, 332, 288, 330
253, 331, 296, 293
254, 293, 249, 246
255, 415, 345, 414
256, 294, 242, 250
257, 295, 288, 252
258, 295, 242, 294
259, 391, 385, 370
260, 296, 243, 249
261, 297, 248, 285
262, 325, 279, 320
263, 298, 247, 228
264, 346, 248, 297
265, 299, 254, 256
266, 301, 256, 255
267, 300, 250, 229
268, 300, 241, 287
269, 304, 255, 260
270, 377, 376, 339
271, 302, 260, 261
272, 317, 275, 316
273, 305, 263, 264
274, 318, 271, 317
275, 304, 301, 255
276, 304, 260, 302
277, 349, 286, 267
278, 351, 317, 316
279, 399, 397, 382
280, 307, 258, 257
281, 348, 257, 308
282, 406, 400, 367
283, 308, 257, 211
284, 308, 254, 299
285, 309, 272, 216
286, 357, 311, 347
287, 310,  56,  57
288, 326, 310, 240
289, 311, 273, 274
290, 326, 311, 274
291, 312, 270, 276
292, 356, 355, 312
293, 350, 272, 309
294, 333, 331, 293
295, 340, 339, 301
296, 314, 269, 270
297, 354, 341, 318
298, 315, 268, 269
299, 354, 318, 317
300, 316, 275, 268
301, 349, 341, 305
302, 317, 271, 275
303, 349, 318, 341
304, 318, 267, 271
305, 319, 309, 266
306, 319, 266, 273
307, 320, 279, 202
308, 359, 284, 323
309, 321, 282, 283
310, 322, 283, 278
311, 325, 322, 278
312, 362, 320, 359
313, 324, 277, 281
314, 363, 281, 280
315, 363, 324, 281
316, 368, 366, 330
317, 325, 278, 279
318, 369, 365, 329
319, 326, 240, 239
320, 347, 326, 243
321, 346, 328, 298
322, 361, 322, 325
323, 395, 359, 392
324, 328, 287, 298
325, 365, 344, 329
326, 329, 300, 287
327, 330, 288, 295
328, 337, 295, 294
329, 358, 319, 357
330, 333, 293, 289
331, 376, 367, 338
332, 332, 292, 288
333, 334, 289, 290
334, 334, 333, 289
335, 335, 290, 291
336, 410, 406, 376
337, 336, 335, 291
338, 374, 336, 371
339, 336, 291, 292
340, 371, 332, 366
341, 381, 294, 344
342, 360, 323, 324
343, 367, 348, 338
344, 339, 299, 301
345, 340, 301, 304
346, 387, 352, 355
347, 343, 304, 302
348, 379, 378, 343
349, 342, 303, 341
350, 341, 303, 305
351, 386, 379, 380
352, 342, 302, 303
353, 343, 340, 304
354, 343, 302, 342
355, 344, 294, 250
356, 344, 300, 329
357, 345, 306, 307
358, 383, 307, 348
359, 346, 298, 248
360, 346, 297, 327
361, 347, 243, 296
362, 357, 347, 296
363, 348, 307, 257
364, 348, 308, 338
365, 349, 305, 286
366, 349, 267, 318
367, 350, 313, 272
368, 385, 357, 331
369, 353, 316, 315
370, 352, 315, 314
371, 355, 314, 312
372, 389, 387, 355
373, 390, 352, 387
374, 353, 351, 316
375, 380, 341, 354
376, 354, 317, 351
377, 356, 312, 313
378, 409, 374, 407
379, 384, 313, 350
380, 372, 370, 333
381, 357, 319, 311
382, 357, 296, 331
383, 358, 350, 309
384, 358, 309, 319
385, 359, 320, 284
386, 392, 323, 360
387, 394, 324, 363
388, 455, 450, 418
389, 426, 398, 375
390, 361, 327, 322
391, 362, 325, 320
392, 404, 401, 365
393, 396, 280, 210
394, 442, 382, 415
395, 364, 226,  13
396, 364,  14, 282
397, 401, 381, 365
398, 369, 329, 328
399, 366, 332, 330
400, 368, 330, 337
401, 400, 383, 367
402, 376, 338, 339
403, 413, 337, 381
404, 450, 394, 418
405, 398, 346, 375
406, 395, 393, 362
407, 391, 358, 385
408, 372, 333, 334
409, 371, 336, 332
410, 403, 366, 402
411, 373, 334, 335
412, 373, 372, 334
413, 374, 373, 335
414, 434, 403, 430
415, 374, 335, 336
416, 407, 371, 403
417, 375, 327, 361
418, 393, 361, 362
419, 377, 339, 340
420, 390, 388, 353
421, 378, 340, 343
422, 448, 420, 419
423, 379, 343, 342
424, 412, 379, 386
425, 380, 379, 342
426, 386, 354, 351
427, 380, 342, 341
428, 386, 380, 354
429, 381, 337, 294
430, 381, 344, 365
431, 425, 397, 399
432, 432, 400, 431
433, 383, 345, 307
434, 383, 348, 367
435, 384, 356, 313
436, 391, 350, 358
437, 385, 358, 357
438, 385, 331, 370
439, 388, 351, 353
440, 390, 353, 352
441, 389, 355, 356
442, 443, 389, 416
443, 411, 410, 377
444, 388, 386, 351
445, 416, 356, 384
446, 482, 468, 464
447, 436, 431, 406
448, 420, 387, 419
449, 446, 370, 405
450, 391, 384, 350
451, 392, 359, 323
452, 422, 360, 417
453, 426, 404, 369
454, 393, 375, 361
455, 394, 360, 324
456, 418, 363, 396
457, 395, 362, 359
458, 435, 433, 401
459, 396, 363, 280
460, 456, 399, 442
461, 397, 259, 262
462, 397, 306, 382
463, 398, 369, 328
464, 398, 328, 346
465, 474, 428, 427
466, 474, 209, 425
467, 406, 367, 376
468, 430, 403, 402
469, 433, 413, 401
470, 404, 365, 369
471, 402, 366, 368
472, 441, 368, 413
473, 480, 463, 471
474, 403, 371, 366
475, 426, 369, 398
476, 423, 393, 395
477, 446, 391, 370
478, 408, 372, 373
479, 410, 376, 377
480, 440, 436, 410
481, 473, 437, 439
482, 407, 374, 371
483, 408, 405, 372
484, 409, 408, 373
485, 409, 373, 374
486, 438, 407, 434
487, 411, 377, 378
488, 496, 476, 480
489, 412, 411, 378
490, 421, 390, 420
491, 412, 378, 379
492, 444, 386, 388
493, 413, 368, 337
494, 413, 381, 401
495, 447, 414, 432
496, 414, 345, 383
497, 489, 475, 465
498, 415, 382, 345
499, 416, 389, 356
500, 446, 416, 384
501, 497, 493, 490
502, 417, 360, 394
503, 418, 394, 363
504, 488, 429, 396
505, 419, 387, 389
506, 473, 464, 468
507, 453, 412, 444
508, 420, 390, 387
509, 453, 444, 421
510, 421, 388, 390
511, 451, 422, 445
512, 422, 392, 360
513, 454, 426, 423
514, 424, 423, 395
515, 424, 395, 392
516, 462, 435, 452
517, 425, 209, 259
518, 425, 259, 397
519, 426, 375, 393
520, 426, 393, 423
521, 488, 427, 429
522, 427, 205, 200
523, 428, 425, 399
524, 472, 455, 429
525, 429, 418, 396
526, 472, 428, 456
527, 466, 402, 441
528, 457, 432, 431
529, 431, 400, 406
530, 436, 406, 410
531, 479, 457, 476
532, 432, 414, 400
533, 462, 433, 435
534, 435, 401, 404
535, 434, 407, 403
536, 480, 476, 459
537, 454, 435, 404
538, 452, 423, 424
539, 440, 410, 411
540, 484, 471, 463
541, 446, 437, 416
542, 439, 408, 409
543, 438, 409, 407
544, 461, 434, 458
545, 439, 437, 408
546, 439, 409, 438
547, 453, 411, 412
548, 449, 421, 420
549, 441, 402, 368
550, 441, 413, 433
551, 442, 399, 382
552, 465, 415, 447
553, 443, 419, 389
554, 443, 416, 437
555, 444, 412, 386
556, 444, 388, 421
557, 445, 422, 417
558, 470, 417, 450
559, 446, 384, 391
560, 446, 405, 437
561, 447, 415, 414
562, 467, 432, 457
563, 463, 459, 436
564, 468, 419, 443
565, 484, 453, 421
566, 449, 420, 448
567, 450, 417, 394
568, 455, 418, 429
569, 462, 460, 433
570, 451, 424, 422
571, 454, 452, 435
572, 452, 424, 451
573, 484, 421, 449
574, 453, 440, 411
575, 454, 404, 426
576, 454, 423, 452
577, 475, 472, 456
578, 495, 489, 485
579, 456, 428, 399
580, 475, 442, 465
581, 459, 431, 436
582, 492, 477, 490
583, 458, 434, 430
584, 483, 430, 466
585, 459, 457, 431
586, 463, 436, 440
587, 490, 477, 487
588, 460, 441, 433
589, 496, 494, 482
590, 461, 438, 434
591, 462, 452, 451
592, 469, 451, 445
593, 484, 463, 440
594, 471, 449, 448
595, 464, 439, 438
596, 464, 438, 461
597, 465, 442, 415
598, 485, 447, 467
599, 466, 430, 402
600, 466, 441, 460
601, 497, 495, 493
602, 467, 447, 432
603, 468, 448, 419
604, 473, 468, 443
605, 487, 462, 469
606, 486, 445, 470
607, 470, 445, 417
608, 481, 455, 475
609, 494, 468, 482
610, 496, 482, 478
611, 472, 429, 427
612, 472, 427, 428
613, 473, 443, 437
614, 473, 439, 464
615, 474, 200, 209
616, 474, 425, 428
617, 475, 455, 472
618, 475, 456, 442
619, 491, 479, 476
620, 476, 457, 459
621, 477, 466, 460
622, 487, 477, 460
623, 478, 461, 458
624, 499, 492, 491
625, 479, 467, 457
626, 491, 476, 478
627, 480, 459, 463
628, 496, 471, 494
629, 481, 470, 450
630, 481, 450, 455
631, 482, 464, 461
632, 482, 461, 478
633, 483, 458, 430
634, 483, 466, 477
635, 484, 449, 471
636, 484, 440, 453
637, 485, 465, 447
638, 493, 467, 479
639, 486, 469, 445
640, 489, 486, 470
641, 487, 460, 462
642, 497, 487, 469
643, 488, 396, 210
644, 488, 205, 427
645, 489, 481, 475
646, 489, 465, 485
647, 497, 469, 486
648, 498, 491, 492
649, 499, 478, 458
650, 499, 491, 478
651, 492, 483, 477
652, 498, 490, 493
653, 493, 485, 467
654, 498, 493, 479
655, 494, 471, 448
656, 494, 448, 468
657, 495, 486, 489
658, 495, 485, 493
659, 496, 478, 476
660, 496, 480, 471
661, 497, 490, 487
662, 497, 486, 495
663, 498, 479, 491
664, 498, 492, 490
665, 499, 458, 483
666, 499, 483, 492
 667, 538,  22, 506
 668, 507, 120, 121
 669, 510,  83, 509
 670, 646, 612, 516
 671, 521,  99, 520
 672, 646, 106, 107
 673,  13,   1,  76
 674, 502,  13,  76
 675, 553,  14, 502
 676, 560, 515, 514
 677, 628, 611, 593
 678, 551, 550,  17
 679, 550,  18,  17
 680, 504,  19, 503
 681, 505,  20, 504
 682, 506,  21, 505
 683, 538, 536,  23
 684,  90,   6,  91
 685, 528,  91,  92
 686, 540, 527, 526
 687, 541, 525, 524
 688, 596, 563, 576
 689, 563,  88,  89
 690, 557,  85,  86
 691, 566, 509, 565
 692, 509,  84, 508
 693, 511,  82, 510
 694, 512,  81, 511
 695, 513,  80, 512
 696, 589, 551, 554
 697, 515,  78, 514
 698, 647,  76,  77
 699, 106, 105,   7
 700, 516, 105, 106
 701, 539, 517, 103
 702, 573, 529, 530
 703, 518, 102, 517
 704, 587, 517, 539
 705, 519, 101, 518
 706, 520, 100, 519
 707, 522,  98, 521
 708, 523,  97, 522
 709, 524,  96, 523
 710, 525,  95, 524
 711, 526,  94, 525
 712, 527,  93, 526
 713, 528,  92, 527
 714, 606, 572, 570
 715, 570, 108, 109
 716, 571, 110, 529
 717, 529, 110, 111
 718, 530, 111, 112
 719, 530, 529, 111
 720, 532, 531, 113
 721, 533, 532, 114
 722, 535, 534, 116
 723, 641, 535, 501
 724, 535,   8, 117
 725, 536,   2,  23
 726, 537, 119, 500
 727, 500, 119, 120
 728, 565, 509, 508
 729, 501, 117, 118
 730, 537, 118, 119
 731, 514,  79, 513
 732, 502,  14,  13
 733, 503,  19,  18
 734, 556, 552, 504
 735, 552, 505, 504
 736, 504,  20,  19
 737, 555, 505, 552
 738, 505,  21,  20
 739, 590, 555, 552
 740, 506,  22,  21
 741, 507, 500, 120
 742, 536, 507, 121
 743, 508,  84,  85
 744, 619, 578, 579
 745, 591, 590, 552
 746, 509,  83,  84
 747, 649, 613, 630
 748, 510,  82,  83
 749, 567, 511, 559
 750, 511,  81,  82
 751, 589, 588, 551
 752, 512,  80,  81
 753, 558, 513, 512
 754, 513,  79,  80
 755, 568, 513, 558
 756, 514,  78,  79
 757, 647, 515, 593
 758, 515,  77,  78
 759, 516, 104, 105
 760, 572, 108, 570
 761, 517, 102, 103
 762, 539, 103, 104
 763, 544, 518, 542
 764, 518, 101, 102
 765, 579, 578, 544
 766, 519, 100, 101
 767, 584, 548, 580
 768, 520,  99, 100
 769, 546, 521, 543
 770, 521,  98,  99
 771, 546, 522, 521
 772, 522,  97,  98
 773, 548, 524, 523
 774, 523,  96,  97
 775, 549, 526, 525
 776, 524,  95,  96
 777, 707, 664, 652
 778, 525,  94,  95
 779, 563, 561,  88
 780, 526,  93,  94
 781, 576, 527, 540
 782, 527,  92,  93
 783, 564,  90, 528
 784, 528,  90,  91
 785, 531, 112, 113
 786, 579, 544, 542
 787, 531, 530, 112
 788, 608, 575, 607
 789, 532, 113, 114
 790, 569, 532, 533
 791, 533, 114, 115
 792, 604, 533, 534
 793, 534, 533, 115
 794, 639, 607, 569
 795, 534, 115, 116
 796, 604, 569, 533
 797, 535, 116,   8
 798, 535, 117, 501
 799, 536, 121,   2
 800, 538,  23,  22
 801, 537, 501, 118
 802, 583, 543, 581
 803, 577, 506, 555
 804, 538, 507, 536
 805, 539, 104, 516
 806, 610, 606, 570
 807, 681, 680, 650
 808, 562,  87, 561
 809, 547, 522, 546
 810, 585, 541, 584
 811, 542, 518, 517
 812, 574, 573, 530
 813, 543, 521, 520
 814, 545, 520, 519
 815, 544, 519, 518
 816, 644, 606, 610
 817, 545, 543, 520
 818, 545, 519, 544
 819, 665, 664, 633
 820, 688, 626, 687
 821, 667, 631, 634
 822, 547, 523, 522
 823, 548, 541, 524
 824, 548, 523, 547
 825, 549, 540, 526
 826, 549, 525, 541
 827, 550, 503,  18
 828, 551,  17,  16
 829, 554,  16,  15
 830, 602, 601, 568
 831, 747, 577, 638
 832, 556, 504, 503
 833, 553,  15,  14
 834, 593, 515, 560
 835, 554, 551,  16
 836, 554,  15, 553
 837, 638, 555, 590
 838, 555, 506, 505
 839, 592, 503, 550
 840, 602, 558, 600
 841, 557, 508,  85
 842, 562,  86,  87
 843, 567, 512, 511
 844, 559, 511, 510
 845, 566, 510, 509
 846, 631, 597, 598
 847, 611, 553, 593
 848, 568, 560, 514
 849, 561,  87,  88
 850, 615, 584, 614
 851, 586, 549, 585
 852, 562, 557,  86
 853, 564, 563,  89
 854, 576, 564, 528
 855, 564,  89,  90
 856, 576, 528, 527
 857, 594, 508, 557
 858, 580, 548, 547
 859, 599, 598, 566
 860, 566, 559, 510
 861, 600, 567, 597
 862, 567, 558, 512
 863, 568, 514, 513
 864, 636, 597, 631
 865, 575, 532, 569
 866, 673, 642, 643
 867, 571, 570, 109
 868, 610, 571, 605
 869, 571, 109, 110
 870, 605, 529, 573
 871, 646, 572, 612
 872, 572, 107, 108
 873, 574, 530, 531
 874, 575, 531, 532
 875, 575, 574, 531
 876, 609, 574, 608
 877, 655, 651, 616
 878, 607, 575, 569
 879, 623, 596, 576
 880, 576, 563, 564
 881, 577, 507, 538
 882, 577, 538, 506
 883, 581, 545, 578
 884, 578, 545, 544
 885, 622, 542, 587
 886, 643, 642, 608
 887, 582, 547, 546
 888, 656, 621, 653
 889, 621, 583, 618
 890, 581, 543, 545
 891, 582, 580, 547
 892, 583, 582, 546
 893, 583, 546, 543
 894, 642, 609, 608
 895, 707, 652, 680
 896, 584, 541, 548
 897, 596, 561, 563
 898, 585, 549, 541
 899, 596, 595, 561
 900, 586, 540, 549
 901, 587, 542, 517
 902, 612, 587, 539
 903, 625, 624, 588
 904, 588, 550, 551
 905, 628, 593, 560
 906, 601, 560, 568
 907, 663, 590, 626
 908, 591, 552, 556
 909, 627, 556, 592
 910, 597, 567, 559
 911, 592, 556, 503
 912, 592, 550, 588
 913, 593, 553, 502
 914, 647, 593, 502
 915, 594, 565, 508
 916, 603, 557, 562
 917, 595, 562, 561
 918, 617, 585, 615
 919, 623, 576, 540
 920, 632, 596, 623
 921, 598, 559, 566
 922, 598, 597, 559
 923, 599, 566, 565
 924, 636, 635, 600
 925, 629, 565, 594
 926, 614, 584, 580
 927, 630, 601, 602
 928, 600, 558, 567
 929, 628, 613, 611
 930, 602, 568, 558
 931, 658, 627, 624
 932, 666, 630, 635
 933, 603, 594, 557
 934, 603, 562, 595
 935, 641, 534, 535
 936, 641, 604, 534
 937, 605, 571, 529
 938, 640, 573, 609
 939, 657, 612, 606
 940, 610, 570, 571
 941, 639, 569, 604
 942, 722, 689, 705
 943, 619, 616, 578
 944, 608, 574, 575
 945, 674, 659, 644
 946, 609, 573, 574
 947, 645, 644, 610
 948, 657, 644, 622
 949, 611, 589, 554
 950, 611, 554, 553
 951, 612, 539, 516
 952, 612, 572, 606
 953, 625, 589, 613
 954, 613, 589, 611
 955, 620, 580, 582
 956, 707, 700, 695
 957, 633, 595, 632
 958, 615, 585, 584
 959, 618, 581, 616
 960, 616, 581, 578
 961, 665, 632, 617
 962, 617, 586, 585
 963, 747, 689, 677
 964, 618, 583, 581
 965, 659, 579, 622
 966, 697, 678, 675
 967, 620, 614, 580
 968, 621, 620, 582
 969, 621, 582, 583
 970, 653, 618, 651
 971, 622, 579, 542
 972, 657, 622, 587
 973, 623, 540, 586
 974, 632, 623, 586
 975, 660, 624, 625
 976, 624, 592, 588
 977, 625, 588, 589
 978, 630, 613, 601
 979, 626, 590, 591
 980, 661, 591, 627
 981, 627, 591, 556
 982, 627, 592, 624
 983, 628, 560, 601
 984, 628, 601, 613
 985, 629, 599, 565
 986, 637, 594, 603
 987, 635, 602, 600
 988, 636, 600, 597
 989, 634, 598, 599
 990, 634, 631, 598
 991, 632, 595, 596
 992, 632, 586, 617
 993, 633, 603, 595
 994, 652, 615, 650
 995, 662, 599, 629
 996, 731, 718, 730
 997, 660, 658, 624
 998, 635, 630, 602
 999, 715, 686, 709
1000, 668, 631, 667
1001, 637, 629, 594
1002, 637, 603, 633
1003, 677, 507, 577
1004, 638, 577, 555
1005, 741, 604, 641
1006, 743, 734, 726
1007, 640, 605, 573
1008, 672, 609, 642
1009, 648, 501, 537
1010, 648, 641, 501
1011, 655, 616, 619
1012, 643, 608, 607
1013, 670, 607, 639
1014, 682, 679, 651
1015, 645, 610, 605
1016, 674, 644, 645
1017, 645, 605, 640
1018, 675, 674, 645
1019, 646, 516, 106
1020, 646, 107, 572
1021, 647, 502,  76
1022, 647,  77, 515
1023, 676, 537, 500
1024, 741, 648, 736
1025, 660, 625, 649
1026, 649, 625, 613
1027, 650, 615, 614
1028, 654, 614, 620
1029, 682, 651, 655
1030, 651, 618, 616
1031, 665, 652, 664
1032, 652, 617, 615
1033, 703, 683, 701
1034, 653, 621, 618
1035, 654, 650, 614
1036, 656, 654, 620
1037, 678, 619, 659
1038, 716, 699, 682
1039, 656, 620, 621
1040, 683, 653, 679
1041, 657, 587, 612
1042, 657, 606, 644
1043, 686, 660, 666
1044, 693, 668, 692
1045, 659, 619, 579
1046, 659, 622, 644
1047, 666, 649, 630
1048, 666, 660, 649
1049, 661, 626, 591
1050, 661, 627, 658
1051, 662, 634, 599
1052, 671, 629, 637
1053, 663, 638, 590
1054, 740, 720, 704
1055, 664, 637, 633
1056, 680, 652, 650
1057, 665, 633, 632
1058, 665, 617, 652
1059, 669, 635, 636
1060, 668, 636, 631
1061, 692, 668, 667
1062, 690, 634, 662
1063, 686, 685, 658
1064, 669, 636, 668
1065, 714, 693, 692
1066, 669, 666, 635
1067, 670, 643, 607
1068, 741, 696, 639
1069, 671, 662, 629
1070, 671, 637, 664
1071, 672, 640, 609
1072, 694, 642, 673
1073, 691, 643, 670
1074, 738, 732, 725
1075, 675, 645, 640
1076, 678, 659, 674
1077, 675, 640, 672
1078, 716, 698, 697
1079, 676, 648, 537
1080, 677, 676, 500
1081, 677, 500, 507
1082, 689, 638, 663
1083, 678, 655, 619
1084, 678, 674, 675
1085, 715, 685, 686
1086, 679, 653, 651
1087, 695, 690, 662
1088, 681, 650, 654
1089, 684, 654, 656
1090, 713, 695, 700
1091, 698, 678, 697
1092, 716, 682, 698
1093, 683, 656, 653
1094, 728, 716, 710
1095, 684, 681, 654
1096, 684, 656, 683
1097, 687, 661, 685
1098, 685, 661, 658
1099, 686, 658, 660
1100, 709, 666, 669
1101, 701, 679, 699
1102, 687, 626, 661
1103, 737, 726, 734
1104, 688, 663, 626
1105, 705, 663, 688
1106, 722, 677, 689
1107, 690, 667, 634
1108, 695, 662, 671
1109, 691, 673, 643
1110, 712, 670, 696
1111, 708, 667, 690
1112, 723, 710, 711
1113, 715, 709, 693
1114, 693, 669, 668
1115, 694, 672, 642
1116, 710, 694, 673
1117, 707, 695, 671
1118, 700, 680, 681
1119, 696, 670, 639
1120, 736, 726, 696
1121, 697, 675, 672
1122, 697, 672, 694
1123, 698, 682, 655
1124, 698, 655, 678
1125, 706, 687, 704
1126, 699, 679, 682
1127, 702, 681, 684
1128, 729, 727, 713
1129, 719, 703, 718
1130, 701, 683, 679
1131, 702, 700, 681
1132, 703, 702, 684
1133, 703, 684, 683
1134, 718, 701, 717
1135, 704, 687, 685
1136, 740, 715, 693
1137, 705, 689, 663
1138, 721, 688, 706
1139, 739, 731, 730
1140, 706, 688, 687
1141, 707, 671, 664
1142, 707, 680, 700
1143, 708, 692, 667
1144, 713, 708, 690
1145, 709, 686, 666
1146, 709, 669, 693
1147, 711, 673, 691
1148, 711, 710, 673
1149, 725, 691, 712
1150, 738, 737, 734
1151, 712, 691, 670
1152, 734, 722, 705
1153, 713, 690, 695
1154, 729, 700, 702
1155, 724, 692, 708
1156, 744, 723, 732
1157, 740, 693, 714
1158, 715, 704, 685
1159, 716, 697, 694
1160, 716, 694, 710
1161, 717, 701, 699
1162, 728, 717, 699
1163, 742, 739, 735
1164, 718, 703, 701
1165, 729, 719, 727
1166, 719, 702, 703
1167, 720, 706, 704
1168, 735, 714, 724
1169, 721, 705, 688
1170, 733, 706, 720
1171, 743, 726, 736
1172, 722, 676, 677
1173, 728, 723, 717
1174, 732, 711, 725
1175, 724, 714, 692
1176, 727, 724, 708
1177, 725, 711, 691
1178, 738, 734, 721
1179, 726, 712, 696
1180, 741, 736, 696
1181, 727, 708, 713
1182, 731, 727, 719
1183, 728, 699, 716
1184, 728, 710, 723
1185, 729, 713, 700
1186, 729, 702, 719
1187, 730, 718, 717
1188, 730, 717, 723
1189, 742, 727, 731
1190, 731, 719, 718
1191, 746, 745, 744
1192, 732, 723, 711
1193, 733, 721, 706
1194, 745, 739, 744
1195, 734, 705, 721
1196, 738, 721, 733
1197, 740, 735, 720
1198, 742, 735, 724
1199, 736, 648, 676
1200, 743, 736, 676
1201, 737, 725, 712
1202, 737, 712, 726
1203, 746, 744, 732
1204, 738, 725, 737
1205, 744, 739, 730
1206, 745, 735, 739
1207, 740, 714, 735
1208, 740, 704, 715
1209, 741, 639, 604
1210, 741, 641, 648
1211, 742, 724, 727
1212, 742, 731, 739
1213, 743, 676, 722
1214, 743, 722, 734
1215, 744, 730, 723
1216, 746, 732, 738
1217, 745, 733, 720
1218, 745, 720, 735
1219, 746, 738, 733
1220, 746, 733, 745
1221, 747, 677, 577
1222, 747, 638, 689
1223,  825,    9,  122
1224,  748,  124,  125
1225,  762,  137,  761
1226,  859,  822,  821
1227,  909,   42,   41
1228,  758,  141,  757
1229,  130,   10,  131
1230,  767,  131,  132
1231,  800,  765,  796
1232,  828,  826,  128
1233,  826,  127,  128
1234,  792,  763,  762
1235,  825,  789,  166
1236,  753,  124,  748
1237,  754,  123,  753
1238,  148,   11,  149
1239,  755,  148,  149
1240,  797,  147,  755
1241,  857,  775,  824
1242,  824,  774,  823
1243,  863,  862,  823
1244,  791,  143,  144
1245,  846,  756,  791
1246,  757,  142,  756
1247,  759,  140,  758
1248,  760,  139,  759
1249,  761,  138,  760
1250,  794,  761,  760
1251,  840,  794,  836
1252,  764,  135,  763
1253,  765,  134,  764
1254,  766,  133,  765
1255,  767,  132,  766
1256,   42,  161,    4
1257,  768,  161,   42
1258,  776,   41,   40
1259,  820,  817,  159
1260,  817,  816,  158
1261,  814,  782,  783
1262,  770,  156,  769
1263,  771,  155,  770
1264,  772,  154,  771
1265,  773,  153,  772
1266,  835,  799,  798
1267,  775,  151,  774
1268,  910,  149,  150
1269,  777,   40,   39
1270,  909,  776,  856
1271,  779,   38,   37
1272,  778,  777,   39
1273,  779,  778,   38
1274,  780,  779,   37
1275,  781,  780,   36
1276,  782,  781,   35
1277,  783,  782,   34
1278,  785,  784,   32
1279,  786,  785,   31
1280,  807,  787,  790
1281,  787,  786,   30
1282,  788,    3,  162
1283,  829,  753,  748
1284,  790,  788,  162
1285,  752,  749,  164
1286,  751,  125,  126
1287,  749,  163,  164
1288,  752,  164,  165
1289,  750,  126,  127
1290,  763,  136,  762
1291,  751,  748,  125
1292,  751,  126,  750
1293,  827,  754,  753
1294,  831,  830,  751
1295, 1005,  754,  827
1296,  753,  123,  124
1297, 1005,  825,  754
1298,  754,  122,  123
1299,  774,  152,  773
1300,  755,  147,  148
1301,  756,  142,  143
1302,  847,  806,  812
1303,  802,  757,  793
1304,  757,  141,  142
1305,  802,  795,  758
1306,  758,  140,  141
1307,  803,  759,  795
1308,  759,  139,  140
1309,  843,  801,  840
1310,  760,  138,  139
1311,  801,  762,  761
1312,  761,  137,  138
1313,  804,  796,  764
1314,  762,  136,  137
1315,  804,  763,  792
1316,  763,  135,  136
1317,  796,  765,  764
1318,  764,  134,  135
1319,  869,  833,  845
1320,  765,  133,  134
1321,  833,  766,  800
1322,  766,  132,  133
1323,  832,  130,  767
1324,  767,  130,  131
1325,  820,  160,  768
1326,  768,  160,  161
1327,  769,  156,  157
1328,  816,  157,  158
1329,  937,  932,  898
1330,  770,  155,  156
1331,  863,  818,  860
1332,  771,  154,  155
1333,  835,  834,  799
1334,  772,  153,  154
1335,  818,  773,  772
1336,  773,  152,  153
1337,  823,  773,  818
1338,  774,  151,  152
1339,  910,  775,  857
1340,  775,  150,  151
1341,  777,  776,   40
1342,  856,  776,  810
1343,  778,   39,   38
1344,  811,  810,  777
1345,  780,   37,   36
1346,  811,  778,  806
1347,  781,   36,   35
1348,  806,  778,  779
1349,  782,   35,   34
1350,  812,  780,  805
1351,  783,   34,   33
1352,  814,  783,  808
1353,  784,   33,   32
1354,  814,  813,  782
1355,  784,  783,   33
1356,  852,  809,  849
1357,  785,   32,   31
1358,  893,  891,  852
1359,  786,   31,   30
1360,  815,  809,  785
1361,  787,   30,   29
1362,  807,  786,  787
1363,  788,  787,   29
1364,  790,  163,  749
1365,  788,   29,    3
1366,  790,  162,  163
1367,  789,  752,  165
1368,  789,  165,  166
1369, 1003,  908,  790
1370,  790,  787,  788
1371,  791,  756,  143
1372,  799,  144,  145
1373,  867,  829,  830
1374,  830,  829,  748
1375,  793,  757,  756
1376,  864,  769,  816
1377,  803,  760,  759
1378,  896,  893,  849
1379,  795,  759,  758
1380,  802,  758,  757
1381,  839,  796,  804
1382,  804,  764,  763
1383,  798,  146,  797
1384,  797,  146,  147
1385,  901,  859,  899
1386,  798,  145,  146
1387,  799,  791,  144
1388,  799,  145,  798
1389,  904,  865,  873
1390,  800,  766,  765
1391,  801,  792,  762
1392,  801,  761,  794
1393,  841,  838,  802
1394,  838,  837,  795
1395,  837,  836,  803
1396,  803,  794,  760
1397,  919,  881,  879
1398,  875,  873,  844
1399,  805,  780,  781
1400,  813,  781,  782
1401,  871,  858,  817
1402,  812,  806,  779
1403,  906,  868,  867
1404,  809,  808,  784
1405,  808,  783,  784
1406,  809,  784,  785
1407,  815,  785,  786
1408,  872,  849,  815
1409,  851,  811,  848
1410,  810,  776,  777
1411,  811,  777,  778
1412,  848,  806,  847
1413,  812,  779,  780
1414,  850,  847,  812
1415,  924,  920,  887
1416,  813,  805,  781
1417,  853,  808,  852
1418,  854,  814,  853
1419,  815,  786,  807
1420,  996,  988,  965
1421,  816,  769,  157
1422,  817,  158,  159
1423,  820,  159,  160
1424,  927,  913,  885
1425,  822,  772,  771
1426,  821,  770,  819
1427,  819,  770,  769
1428,  899,  859,  861
1429,  856,  820,  768
1430,  895,  856,  810
1431,  822,  771,  821
1432,  821,  771,  770
1433,  860,  822,  859
1434,  822,  818,  772
1435,  870,  797,  857
1436,  823,  774,  773
1437,  897,  870,  857
1438,  824,  775,  774
1439,  825,  166,    9
1440,  825,  122,  754
1441,  826,  750,  127
1442,  828,  128,  129
1443,  907,  827,  868
1444,  829,  827,  753
1445,  832,  828,  129
1446,  833,  832,  767
1447,  830,  748,  751
1448,  938,  931,  915
1449,  831,  751,  750
1450,  904,  831,  865
1451,  865,  750,  826
1452,  844,  796,  839
1453,  832,  129,  130
1454,  833,  767,  766
1455,  845,  800,  844
1456,  833,  828,  832
1457,  877,  876,  834
1458,  834,  791,  799
1459,  897,  857,  824
1460,  862,  824,  823
1461,  836,  794,  803
1462,  837,  803,  795
1463,  838,  795,  802
1464,  891,  890,  853
1465,  841,  802,  793
1466,  970,  948,  964
1467,  842,  804,  792
1468,  879,  843,  840
1469,  982,  947,  973
1470,  840,  801,  794
1471,  894,  793,  846
1472,  884,  882,  838
1473,  842,  839,  804
1474,  843,  842,  792
1475,  843,  792,  801
1476,  879,  840,  878
1477,  873,  845,  844
1478,  844,  800,  796
1479,  873,  869,  845
1480,  845,  833,  800
1481,  846,  793,  756
1482,  846,  791,  834
1483,  861,  859,  821
1484,  850,  812,  805
1485,  902,  858,  888
1486,  848,  811,  806
1487,  849,  809,  815
1488,  872,  815,  807
1489,  855,  805,  813
1490,  999,  997,  989
1491,  895,  888,  871
1492,  851,  810,  811
1493,  880,  878,  836
1494,  852,  808,  809
1495,  882,  880,  837
1496,  853,  814,  808
1497,  955,  925,  948
1498,  854,  813,  814
1499,  855,  850,  805
1500,  855,  813,  854
1501,  909,  856,  768
1502,  895,  871,  856
1503,  857,  797,  755
1504,  910,  857,  755
1505,  864,  816,  858
1506,  858,  816,  817
1507,  912,  874,  900
1508,  861,  821,  819
1509,  900,  862,  863
1510,  860,  818,  822
1511,  898,  819,  864
1512,  928,  886,  920
1513,  897,  874,  870
1514,  863,  823,  818
1515,  903,  860,  901
1516,  935,  900,  903
1517,  864,  819,  769
1518,  913,  902,  888
1519,  865,  831,  750
1520,  869,  865,  826
1521,  867,  830,  866
1522,  866,  830,  831
1523,  938,  904,  931
1524,  868,  829,  867
1525,  940,  868,  906
1526,  868,  827,  829
1527,  869,  826,  828
1528,  869,  828,  833
1529,  870,  835,  798
1530,  870,  798,  797
1531,  871,  817,  820
1532,  871,  820,  856
1533,  908,  807,  790
1534,  962,  906,  939
1535,  873,  865,  869
1536,  875,  844,  839
1537,  877,  835,  874
1538,  874,  835,  870
1539,  883,  839,  842
1540,  881,  843,  879
1541,  918,  876,  877
1542,  876,  846,  834
1543,  877,  834,  835
1544,  900,  874,  862
1545,  878,  840,  836
1546,  880,  836,  837
1547,  938,  866,  904
1548,  923,  922,  878
1549,  882,  837,  838
1550,  948,  926,  941
1551,  952,  947,  921
1552,  881,  842,  843
1553,  884,  838,  841
1554,  917,  916,  882
1555,  883,  875,  839
1556,  883,  842,  881
1557,  930,  841,  894
1558,  887,  886,  850
1559,  885,  851,  848
1560,  889,  848,  847
1561,  886,  847,  850
1562,  887,  850,  855
1563,  892,  855,  854
1564,  999,  989,  985
1565,  888,  858,  871
1566,  888,  851,  885
1567,  889,  885,  848
1568,  889,  847,  886
1569,  890,  854,  853
1570,  891,  853,  852
1571,  893,  852,  849
1572,  922,  919,  879
1573,  892,  887,  855
1574,  892,  854,  890
1575,  896,  849,  872
1576,  926,  893,  911
1577,  894,  841,  793
1578,  894,  846,  876
1579,  895,  810,  851
1580,  895,  851,  888
1581,  933,  872,  908
1582,  946,  896,  933
1583,  897,  824,  862
1584,  897,  862,  874
1585,  898,  861,  819
1586,  902,  898,  864
1587,  914,  894,  876
1588,  932,  861,  898
1589,  903,  863,  860
1590,  901,  860,  859
1591,  960,  936,  934
1592,  950,  918,  935
1593,  902,  864,  858
1594,  913,  888,  885
1595,  918,  914,  876
1596,  903,  900,  863
1597,  904,  866,  831
1598,  931,  873,  875
1599,  906,  867,  905
1600,  905,  867,  866
1601,  973,  947,  952
1602,  940,  907,  868
1603, 1004,  907,  963
1604, 1005,  907, 1004
1605,  908,  872,  807
1606, 1002,  749,  752
1607,  909,  768,   42
1608,  909,   41,  776
1609,  910,  755,  149
1610,  910,  150,  775
1611,  923,  880,  916
1612,  911,  893,  896
1613,  918,  877,  912
1614,  912,  877,  874
1615,  927,  885,  889
1616,  937,  902,  913
1617,  936,  901,  934
1618,  950,  943,  914
1619,  915,  875,  883
1620,  921,  883,  881
1621,  916,  880,  882
1622,  917,  882,  884
1623,  958,  884,  930
1624,  975,  955,  970
1625,  935,  912,  900
1626,  936,  935,  903
1627,  982,  938,  947
1628,  922,  879,  878
1629,  920,  886,  887
1630,  924,  887,  892
1631,  921,  915,  883
1632,  921,  881,  919
1633,  954,  923,  949
1634,  953,  952,  919
1635,  923,  878,  880
1636,  995,  992,  990
1637,  929,  892,  890
1638, 1001,  967,  985
1639,  925,  890,  891
1640,  926,  925,  891
1641,  926,  891,  893
1642,  941,  926,  911
1643,  928,  927,  889
1644,  957,  928,  951
1645,  928,  889,  886
1646,  951,  920,  945
1647,  929,  924,  892
1648,  929,  890,  925
1649,  930,  884,  841
1650,  930,  894,  914
1651,  931,  904,  873
1652,  931,  875,  915
1653,  932,  899,  861
1654,  937,  898,  902
1655,  986,  965,  942
1656,  933,  896,  872
1657,  934,  901,  899
1658,  959,  899,  932
1659,  935,  918,  912
1660,  936,  903,  901
1661,  968,  951,  945
1662,  981,  967,  943
1663,  937,  913,  927
1664,  980,  927,  957
1665,  947,  938,  915
1666,  938,  905,  866
1667,  983,  939,  973
1668,  939,  906,  905
1669, 1002,  963,  986
1670,  963,  907,  940
1671,  966,  911,  946
1672,  949,  916,  944
1673,  942,  933,  908
1674, 1003,  942,  908
1675,  967,  958,  943
1676,  943,  930,  914
1677,  944,  916,  917
1678,  978,  917,  958
1679,  945,  920,  924
1680,  956,  924,  929
1681,  946,  911,  896
1682,  965,  933,  942
1683,  947,  915,  921
1684,  952,  921,  919
1685,  948,  925,  926
1686,  987,  974,  969
1687,  977,  954,  974
1688,  949,  923,  916
1689,  950,  914,  918
1690,  961,  935,  936
1691,  972,  957,  951
1692,  951,  928,  920
1693,  953,  919,  922
1694,  994,  993,  991
1695,  954,  953,  922
1696, 1000,  998,  994
1697,  954,  922,  923
1698,  974,  949,  969
1699,  999,  981,  960
1700,  955,  929,  925
1701,  956,  945,  924
1702,  956,  929,  955
1703,  980,  937,  927
1704,  957,  927,  928
1705,  958,  917,  884
1706,  958,  930,  943
1707,  959,  934,  899
1708,  980,  959,  932
1709,  981,  950,  961
1710,  979,  934,  959
1711,  961,  950,  935
1712,  961,  936,  960
1713,  962,  940,  906
1714,  998,  973,  976
1715, 1004,  963,  752
1716,  984,  940,  962
1717,  964,  948,  941
1718,  991,  941,  966
1719,  965,  946,  933
1720,  996,  986,  984
1721,  966,  941,  911
1722,  988,  946,  965
1723,  981,  943,  950
1724,  995,  990,  969
1725,  997,  972,  968
1726,  971,  945,  956
1727,  969,  949,  944
1728, 1001,  995,  978
1729,  970,  955,  948
1730,  987,  970,  964
1731,  971,  968,  945
1732,  975,  971,  956
1733,  980,  972,  959
1734,  972,  951,  968
1735,  982,  973,  939
1736,  976,  952,  953
1737,  994,  977,  993
1738,  974,  954,  949
1739,  975,  956,  955
1740,  990,  970,  987
1741,  976,  973,  952
1742,  977,  976,  953
1743,  977,  953,  954
1744,  993,  974,  987
1745,  978,  944,  917
1746,  978,  958,  967
1747,  979,  960,  934
1748,  979,  959,  972
1749,  980,  932,  937
1750,  980,  957,  972
1751,  981,  961,  960
1752,  999,  979,  997
1753,  982,  939,  905
1754,  982,  905,  938
1755, 1000,  996,  983
1756,  983,  962,  939
1757,  984,  963,  940
1758,  996,  962,  983
1759, 1001,  989,  992
1760,  985,  967,  981
1761, 1002,  986,  942
1762,  986,  963,  984
1763,  993,  987,  964
1764,  990,  987,  969
1765,  988,  966,  946
1766,  996,  965,  986
1767,  989,  968,  971
1768,  992,  971,  975
1769,  995,  969,  944
1770,  990,  975,  970
1771,  991,  964,  941
1772, 1000,  966,  988
1773,  992,  989,  971
1774,  992,  975,  990
1775,  993,  964,  991
1776,  993,  977,  974
1777, 1000,  991,  966
1778,  994,  976,  977
1779,  995,  944,  978
1780, 1001,  978,  967
1781,  996,  984,  962
1782, 1000,  983,  998
1783,  997,  979,  972
1784,  997,  968,  989
1785,  998,  983,  973
1786,  998,  976,  994
1787,  999,  985,  981
1788,  999,  960,  979
1789, 1000,  994,  991
1790, 1000,  988,  996
1791, 1001,  985,  989
1792, 1001,  992,  995
1793, 1003, 1002,  942
1794, 1002,  752,  963
1795, 1003,  790,  749
1796, 1003,  749, 1002
1797, 1004,  752,  789
1798, 1005, 1004,  789
1799, 1005,  789,  825
1800, 1005,  827,  907
1801, 1122, 1092, 1057
1802, 1060,  199, 1008
1803, 1061, 1040, 1039
1804, 1007,    8,  116
1805, 1078, 1021, 1020
1806, 1008,  130,  129
1807, 1055,  126, 1009
1808, 1009,  126,  125
1809, 1039,  192, 1038
1810, 1010, 1009,  125
1811, 1098, 1068, 1096
1812, 1011,  169, 1006
1813, 1012, 1010,  124
1814, 1013, 1012,  123
1815, 1014,    9,  167
1816, 1015,  170,  171
1817, 1054, 1013, 1016
1818,  106,    7,  172
1819, 1033,  172,  173
1820, 1053, 1030, 1045
1821, 1045, 1030, 1029
1822, 1106, 1079, 1081
1823, 1088, 1045, 1085
1824, 1070,  111,  110
1825, 1018,  112, 1017
1826, 1047, 1027, 1026
1827, 1019,  113, 1018
1828, 1021,  116,  115
1829,  185,  184,   12
1830, 1022,  184,  185
1831, 1044,  187, 1043
1832, 1023,  182,  183
1833, 1024,  181,  182
1834, 1025,  180,  181
1835, 1027,  179, 1026
1836, 1028,  178, 1027
1837, 1029,  177, 1028
1838, 1030,  176, 1029
1839, 1031,  175, 1030
1840, 1032,  174, 1031
1841, 1033,  173, 1032
1842,  199,   10,  130
1843, 1008,  199,  130
1844, 1060, 1034,  198
1845, 1091, 1057, 1055
1846, 1059,  197, 1034
1847, 1095, 1035, 1059
1848, 1036,  195, 1035
1849, 1037,  194, 1036
1850, 1038,  193, 1037
1851, 1063, 1061, 1039
1852, 1086, 1083, 1049
1853, 1041,  190, 1040
1854, 1064, 1040, 1061
1855, 1101, 1099, 1061
1856, 1119,  185,  186
1857, 1006,  169,  170
1858, 1015,  171, 1007
1859, 1007,  171,    8
1860, 1021,  115, 1020
1861, 1092,  128, 1057
1862, 1057,  127, 1055
1863, 1059, 1035,  196
1864, 1010,  125,  124
1865, 1012,  124,  123
1866, 1054, 1012, 1013
1867, 1011,  168,  169
1868, 1067, 1036, 1062
1869, 1013,  123,  122
1870, 1016, 1014,  167
1871, 1014, 1013,  122
1872, 1016,  168, 1011
1873, 1014,  122,    9
1874, 1016,  167,  168
1875, 1020,  114, 1019
1876, 1015, 1006,  170
1877, 1212, 1016, 1011
1878, 1016, 1013, 1014
1879, 1017,  112,  111
1880, 1085, 1052, 1082
1881, 1077, 1019, 1018
1882, 1018,  113,  112
1883, 1071, 1020, 1019
1884, 1019,  114,  113
1885, 1078, 1020, 1071
1886, 1020,  115,  114
1887, 1021, 1015, 1007
1888, 1021, 1007,  116
1889, 1023,  183, 1022
1890, 1022,  183,  184
1891, 1043,  188, 1042
1892, 1024,  182, 1023
1893, 1042,  189, 1041
1894, 1025,  181, 1024
1895, 1040,  191, 1039
1896, 1026,  180, 1025
1897, 1105, 1017, 1070
1898, 1026,  179,  180
1899, 1116, 1086, 1087
1900, 1027,  178,  179
1901, 1052, 1029, 1028
1902, 1028,  177,  178
1903, 1073,  109, 1072
1904, 1029,  176,  177
1905, 1075, 1072,  108
1906, 1030,  175,  176
1907, 1046, 1032, 1031
1908, 1031,  174,  175
1909, 1079, 1032, 1046
1910, 1032,  173,  174
1911, 1076,  106, 1033
1912, 1033,  106,  172
1913, 1034,  197,  198
1914, 1121, 1091, 1094
1915, 1035,  195,  196
1916, 1097, 1067, 1062
1917, 1068, 1037, 1067
1918, 1036,  194,  195
1919, 1067, 1037, 1036
1920, 1037,  193,  194
1921, 1086, 1049, 1050
1922, 1038,  192,  193
1923, 1049, 1047, 1026
1924, 1039,  191,  192
1925, 1050, 1049, 1025
1926, 1040,  190,  191
1927, 1051, 1050, 1024
1928, 1041,  189,  190
1929, 1119, 1090, 1022
1930, 1042,  188,  189
1931, 1066, 1042, 1065
1932, 1043,  187,  188
1933, 1119, 1044, 1090
1934, 1044,  186,  187
1935, 1048, 1027, 1047
1936, 1111, 1106, 1081
1937, 1075,  108,  107
1938, 1053, 1046, 1031
1939, 1049, 1026, 1025
1940, 1109, 1108, 1077
1941, 1152, 1150, 1126
1942, 1048, 1028, 1027
1943, 1050, 1025, 1024
1944, 1065, 1041, 1064
1945, 1051, 1024, 1023
1946, 1099, 1064, 1061
1947, 1090, 1051, 1023
1948, 1069, 1044, 1043
1949, 1052, 1045, 1029
1950, 1052, 1028, 1048
1951, 1053, 1031, 1030
1952, 1136, 1107, 1111
1953, 1058, 1010, 1012
1954, 1058, 1056, 1010
1955, 1055,  127,  126
1956, 1094, 1009, 1056
1957, 1104, 1059, 1034
1958, 1056, 1009, 1010
1959, 1122, 1057, 1091
1960, 1057,  128,  127
1961, 1058, 1012, 1054
1962, 1147, 1146, 1123
1963, 1059,  196,  197
1964, 1104, 1034, 1080
1965, 1060,  198,  199
1966, 1080, 1060, 1008
1967, 1063, 1039, 1038
1968, 1144, 1113, 1116
1969, 1133, 1132, 1098
1970, 1062, 1036, 1035
1971, 1068, 1038, 1037
1972, 1101, 1063, 1098
1973, 1087, 1086, 1050
1974, 1064, 1041, 1040
1975, 1100, 1064, 1099
1976, 1065, 1042, 1041
1977, 1102, 1065, 1100
1978, 1066, 1043, 1042
1979, 1168, 1139, 1121
1980, 1097, 1096, 1067
1981, 1093, 1056, 1058
1982, 1068, 1063, 1038
1983, 1120, 1090, 1069
1984, 1069, 1043, 1066
1985, 1070, 1017,  111
1986, 1073,  110,  109
1987, 1177, 1071, 1108
1988, 1180, 1142, 1163
1989, 1072,  109,  108
1990, 1111, 1081, 1089
1991, 1107, 1072, 1106
1992, 1073, 1070,  110
1993, 1074, 1018, 1017
1994, 1082, 1052, 1048
1995, 1076, 1075,  107
1996, 1079, 1076, 1033
1997, 1076,  107,  106
1998, 1079, 1033, 1032
1999, 1077, 1071, 1019
2000, 1077, 1018, 1074
2001, 1182, 1015, 1078
2002, 1078, 1015, 1021
2003, 1081, 1079, 1046
2004, 1079, 1075, 1076
2005, 1080, 1034, 1060
2006, 1092, 1080, 1008
2007, 1089, 1046, 1053
2008, 1181, 1159, 1180
2009, 1084, 1048, 1047
2010, 1133, 1096, 1131
2011, 1083, 1047, 1049
2012, 1150, 1127, 1126
2013, 1084, 1082, 1048
2014, 1084, 1047, 1083
2015, 1142, 1112, 1140
2016, 1085, 1045, 1052
2017, 1087, 1050, 1051
2018, 1130, 1128, 1102
2019, 1120, 1087, 1051
2020, 1103, 1069, 1066
2021, 1161, 1136, 1111
2022, 1088, 1053, 1045
2023, 1089, 1081, 1046
2024, 1089, 1053, 1088
2025, 1090, 1023, 1022
2026, 1090, 1044, 1069
2027, 1094, 1091, 1055
2028, 1146, 1121, 1123
2029, 1092, 1008,  129
2030, 1092,  129,  128
2031, 1124, 1058, 1054
2032, 1124, 1093, 1058
2033, 1094, 1055, 1009
2034, 1123, 1056, 1093
2035, 1095, 1062, 1035
2036, 1104, 1095, 1059
2037, 1157, 1108, 1135
2038, 1096, 1068, 1067
2039, 1125, 1062, 1095
2040, 1149, 1097, 1125
2041, 1215, 1194, 1192
2042, 1098, 1063, 1068
2043, 1127, 1099, 1126
2044, 1101, 1061, 1063
2045, 1116, 1113, 1086
2046, 1100, 1065, 1064
2047, 1133, 1098, 1096
2048, 1172, 1144, 1151
2049, 1130, 1100, 1127
2050, 1102, 1066, 1065
2051, 1120, 1103, 1087
2052, 1103, 1066, 1102
2053, 1138, 1080, 1122
2054, 1139, 1138, 1122
2055, 1105, 1074, 1017
2056, 1110, 1070, 1073
2057, 1106, 1072, 1075
2058, 1106, 1075, 1079
2059, 1111, 1107, 1106
2060, 1107, 1073, 1072
2061, 1108, 1071, 1077
2062, 1109, 1077, 1074
2063, 1134, 1074, 1105
2064, 1126, 1099, 1101
2065, 1110, 1105, 1070
2066, 1110, 1073, 1107
2067, 1117, 1089, 1088
2068, 1180, 1158, 1142
2069, 1112, 1088, 1085
2070, 1114, 1085, 1082
2071, 1115, 1083, 1113
2072, 1113, 1083, 1086
2073, 1114, 1112, 1085
2074, 1118, 1082, 1084
2075, 1115, 1084, 1083
2076, 1172, 1164, 1141
2077, 1116, 1087, 1103
2078, 1128, 1103, 1102
2079, 1117, 1111, 1089
2080, 1117, 1088, 1112
2081, 1118, 1114, 1082
2082, 1118, 1084, 1115
2083, 1119, 1022,  185
2084, 1119,  186, 1044
2085, 1120, 1051, 1090
2086, 1120, 1069, 1103
2087, 1123, 1121, 1094
2088, 1174, 1168, 1146
2089, 1139, 1091, 1121
2090, 1122, 1080, 1092
2091, 1123, 1094, 1056
2092, 1167, 1147, 1162
2093, 1160, 1054, 1016
2094, 1148, 1147, 1093
2095, 1125, 1097, 1062
2096, 1129, 1125, 1095
2097, 1132, 1101, 1098
2098, 1186, 1181, 1180
2099, 1144, 1116, 1128
2100, 1127, 1100, 1099
2101, 1128, 1116, 1103
2102, 1130, 1102, 1100
2103, 1129, 1095, 1104
2104, 1138, 1129, 1104
2105, 1171, 1151, 1150
2106, 1144, 1141, 1113
2107, 1214, 1209, 1213
2108, 1131, 1096, 1097
2109, 1155, 1133, 1153
2110, 1132, 1126, 1101
2111, 1162, 1147, 1148
2112, 1176, 1175, 1155
2113, 1134, 1109, 1074
2114, 1137, 1105, 1110
2115, 1135, 1108, 1109
2116, 1156, 1109, 1134
2117, 1136, 1110, 1107
2118, 1161, 1158, 1136
2119, 1137, 1134, 1105
2120, 1137, 1110, 1136
2121, 1138, 1104, 1080
2122, 1139, 1122, 1091
2123, 1168, 1154, 1129
2124, 1139, 1129, 1138
2125, 1140, 1112, 1114
2126, 1145, 1114, 1118
2127, 1143, 1115, 1141
2128, 1141, 1115, 1113
2129, 1161, 1142, 1158
2130, 1142, 1117, 1112
2131, 1206, 1204, 1205
2132, 1143, 1118, 1115
2133, 1144, 1128, 1130
2134, 1151, 1127, 1150
2135, 1145, 1140, 1114
2136, 1145, 1118, 1143
2137, 1147, 1123, 1093
2138, 1148, 1093, 1124
2139, 1169, 1124, 1160
2140, 1198, 1185, 1190
2141, 1199, 1197, 1194
2142, 1212, 1183, 1184
2143, 1149, 1131, 1097
2144, 1154, 1149, 1125
2145, 1152, 1126, 1132
2146, 1173, 1171, 1150
2147, 1151, 1144, 1130
2148, 1151, 1130, 1127
2149, 1155, 1132, 1133
2150, 1179, 1178, 1135
2151, 1153, 1133, 1131
2152, 1170, 1131, 1149
2153, 1154, 1125, 1129
2154, 1168, 1129, 1139
2155, 1175, 1173, 1152
2156, 1155, 1152, 1132
2157, 1156, 1135, 1109
2158, 1159, 1134, 1137
2159, 1194, 1177, 1157
2160, 1213, 1209, 1211
2161, 1158, 1137, 1136
2162, 1163, 1142, 1140
2163, 1159, 1156, 1134
2164, 1159, 1137, 1158
2165, 1160, 1124, 1054
2166, 1183, 1011, 1006
2167, 1161, 1111, 1117
2168, 1161, 1117, 1142
2169, 1202, 1190, 1185
2170, 1189, 1148, 1169
2171, 1165, 1140, 1145
2172, 1187, 1171, 1173
2173, 1166, 1143, 1164
2174, 1164, 1143, 1141
2175, 1165, 1163, 1140
2176, 1166, 1165, 1145
2177, 1166, 1145, 1143
2178, 1187, 1164, 1171
2179, 1198, 1174, 1167
2180, 1167, 1146, 1147
2181, 1168, 1121, 1146
2182, 1174, 1146, 1167
2183, 1216, 1211, 1209
2184, 1169, 1148, 1124
2185, 1170, 1153, 1131
2186, 1174, 1170, 1149
2187, 1172, 1171, 1164
2188, 1173, 1150, 1152
2189, 1172, 1141, 1144
2190, 1172, 1151, 1171
2191, 1175, 1152, 1155
2192, 1207, 1205, 1196
2193, 1174, 1149, 1154
2194, 1174, 1154, 1168
2195, 1176, 1155, 1153
2196, 1196, 1191, 1179
2197, 1190, 1153, 1170
2198, 1213, 1211, 1203
2199, 1177, 1078, 1071
2200, 1177, 1108, 1157
2201, 1178, 1157, 1135
2202, 1179, 1135, 1156
2203, 1181, 1156, 1159
2204, 1196, 1181, 1186
2205, 1180, 1159, 1158
2206, 1186, 1180, 1163
2207, 1186, 1163, 1165
2208, 1181, 1179, 1156
2209, 1182, 1006, 1015
2210, 1182, 1078, 1177
2211, 1212, 1184, 1160
2212, 1197, 1006, 1182
2213, 1216, 1215, 1211
2214, 1184, 1169, 1160
2215, 1185, 1167, 1162
2216, 1201, 1162, 1189
2217, 1188, 1165, 1166
2218, 1206, 1187, 1193
2219, 1187, 1166, 1164
2220, 1193, 1187, 1173
2221, 1188, 1186, 1165
2222, 1188, 1166, 1187
2223, 1189, 1162, 1148
2224, 1200, 1169, 1184
2225, 1190, 1176, 1153
2226, 1198, 1190, 1170
2227, 1195, 1193, 1175
2228, 1191, 1178, 1179
2229, 1192, 1157, 1178
2230, 1203, 1178, 1191
2231, 1193, 1173, 1175
2232, 1195, 1175, 1176
2233, 1194, 1182, 1177
2234, 1194, 1157, 1192
2235, 1202, 1176, 1190
2236, 1210, 1204, 1195
2237, 1196, 1179, 1181
2238, 1207, 1186, 1188
2239, 1197, 1183, 1006
2240, 1197, 1182, 1194
2241, 1198, 1170, 1174
2242, 1198, 1167, 1185
2243, 1199, 1184, 1183
2244, 1199, 1183, 1197
2245, 1200, 1189, 1169
2246, 1200, 1184, 1199
2247, 1201, 1185, 1162
2248, 1209, 1189, 1200
2249, 1202, 1195, 1176
2250, 1214, 1185, 1201
2251, 1203, 1192, 1178
2252, 1208, 1191, 1205
2253, 1208, 1205, 1204
2254, 1204, 1193, 1195
2255, 1205, 1191, 1196
2256, 1207, 1206, 1205
2257, 1206, 1188, 1187
2258, 1206, 1193, 1204
2259, 1207, 1196, 1186
2260, 1207, 1188, 1206
2261, 1210, 1208, 1204
2262, 1208, 1203, 1191
2263, 1209, 1201, 1189
2264, 1216, 1199, 1215
2265, 1210, 1195, 1202
2266, 1214, 1202, 1185
2267, 1211, 1192, 1203
2268, 1213, 1203, 1208
2269, 1212, 1160, 1016
2270, 1212, 1011, 1183
2271, 1213, 1208, 1210
2272, 1214, 1213, 1210
2273, 1214, 1210, 1202
2274, 1214, 1201, 1209
2275, 1215, 1199, 1194
2276, 1215, 1192, 1211
2277, 1216, 1209, 1200
2278, 1216, 1200, 1199
*Orientation, name=Ori-1
1., 0., 0., 0., 1., 0.
3, 0.
** Region: (CompositeLayup-1-1: Generated From Layup)
*Elset, elset=CompositeLayup-1-1, generate
    1,  2278,     1
** Section: CompositeLayup-1-1
*Shell Section, elset=CompositeLayup-1-1, composite, orientation=Ori-1, layup=CompositeLayup-1
0.25, 1, ABQ_PLY_FABRIC, 45., Ply-1
0.25, 1, ABQ_PLY_FABRIC, -45., Ply-2
0.25, 1, ABQ_PLY_FABRIC, -45., Ply-3
0.25, 1, ABQ_PLY_FABRIC, 45., Ply-4
*End Part
**  
**
** ASSEMBLY
**
*Assembly, name=Assembly
**  
*Instance, name=Plate-1, part=PLATE
*End Instance
**  
*Nset, nset=Set-1, instance=Plate-1
   6,   7,  12,  91,  92,  93,  94,  95,  96,  97,  98,  99, 100, 101, 102, 103
 104, 105, 172, 173, 174, 175, 176, 177, 178, 179, 180, 181, 182, 183, 184
*Elset, elset=Set-1, instance=Plate-1
  684,  685,  699,  759,  761,  762,  764,  766,  768,  770,  772,  774,  776,  778,  780,  782
 1818, 1819, 1829, 1832, 1833, 1834, 1890, 1898, 1900, 1902, 1904, 1906, 1908, 1910
*Nset, nset=Set-2, instance=Plate-1
   4,   5,  11,  43,  44,  45,  46,  47,  48,  49,  50,  51,  52,  53,  54,  55
  56,  57, 149, 150, 151, 152, 153, 154, 155, 156, 157, 158, 159, 160, 161
*Elset, elset=Set-2, instance=Plate-1
   20,   21,   34,   39,   99,  102,  104,  106,  108,  110,  112,  114,  116,  200,  213,  287
 1238, 1256, 1268, 1326, 1327, 1328, 1330, 1332, 1334, 1336, 1338, 1340, 1422, 1423
*End Assembly
*Amplitude, name=Ramp, time=TOTAL TIME
             0.,              0.,            0.01,              1.
** 
** MATERIALS
** 
*Material, name=ABQ_PLY_FABRIC
*Density
 1.594e-09,
*Depvar, delete=16
     16,
*User Material, constants=40
27500., 27500.,   0.11,  2900., 27500., 27500.,   0.11,     0.
   604.,   291.,   604.,   291.,    75.,     0.,     0.,     0.
 20.438, 4.6257, 20.438, 4.6257, 0.3221,     1.,     0.,     0.
    75., 0.0008,  0.552,     0.,     0.,     0.,     0.,     0.
     0.,     1.,  1e+09,  1e+09, -1e+09,     0.,     0.,     0.
** ----------------------------------------------------------------
** 
** STEP: Step-1
** 
*Step, name=Step-1, nlgeom=NO
*Dynamic, Explicit
, 0.01
*Bulk Viscosity
0.06, 1.2
** 
** BOUNDARY CONDITIONS
** 
** Name: BC-1 Type: Symmetry/Antisymmetry/Encastre
*Boundary
Set-1, ENCASTRE
** Name: BC-2 Type: Displacement/Rotation
*Boundary, amplitude=Ramp
Set-2, 1, 1, 1.10526
** 
** OUTPUT REQUESTS
** 
*Restart, write, number interval=1, time marks=NO
** 
** FIELD OUTPUT: F-Output-1
** 
*Output, field, number interval=1
*Element Output, position=NODES, directions=YES
LE, PEEQ, SDV
** 
** HISTORY OUTPUT: H-Output-1
** 
*Output, history, variable=PRESELECT
*End Step
