*Heading
** Job name: Plate_nonlinear_142 Model name: Model-1
** Generated by: Abaqus/CAE 2024.HF3
*Preprint, echo=NO, model=NO, history=NO, contact=NO
**
** PARTS
**
*Part, name=PLATE
*Node
      1,   77.5675583,   124.878708,           0.
      2,   77.5675583,    64.587471,           0.
      3,   90.1222382,    52.032795,           0.
      4,    186.16214,    52.032795,           0.
      5,    186.16214,   124.878708,           0.
      6,           0.,   124.878708,           0.
      7,           0.,    52.032795,           0.
      8,    65.012886,    52.032795,           0.
      9,   77.5675583,   39.4781189,           0.
     10,   77.5675583,           0.,           0.
     11,    186.16214,           0.,           0.
     12,           0.,           0.,           0.
     13,   77.5675583,   120.240921,           0.
     14,   77.5675583,   115.603134,           0.
     15,   77.5675583,   110.965347,           0.
     16,   77.5675583,    106.32756,           0.
     17,   77.5675583,   101.689766,           0.
     18,   77.5675583,   97.0519791,           0.
     19,   77.5675583,   92.4141922,           0.
     20,   77.5675583,   87.7764053,           0.
     21,   77.5675583,   83.1386185,           0.
     22,   77.5675583,   78.5008316,           0.
     23,   77.5675583,   73.8630447,           0.
     24,   77.5675583,   69.2252579,           0.
     25,   82.3720245,   63.6318016,           0.
     26,   86.4450531,   60.9102898,           0.
     27,   89.1665649,   56.8372612,           0.
     28,   94.9242325,    52.032795,           0.
     29,   99.7262268,    52.032795,           0.
     30,   104.528221,    52.032795,           0.
     31,   109.330215,    52.032795,           0.
     32,    114.13221,    52.032795,           0.
     33,   118.934212,    52.032795,           0.
     34,   123.736206,    52.032795,           0.
     35,   128.538193,    52.032795,           0.
     36,   133.340195,    52.032795,           0.
     37,   138.142197,    52.032795,           0.
     38,   142.944183,    52.032795,           0.
     39,   147.746185,    52.032795,           0.
     40,   152.548172,    52.032795,           0.
     41,   157.350174,    52.032795,           0.
     42,   162.152176,    52.032795,           0.
     43,   166.954163,    52.032795,           0.
     44,   171.756165,    52.032795,           0.
     45,   176.558151,    52.032795,           0.
     46,   181.360153,    52.032795,           0.
     47,    186.16214,   56.8891869,           0.
     48,    186.16214,   61.7455826,           0.
     49,    186.16214,   66.6019745,           0.
     50,    186.16214,    71.458374,           0.
     51,    186.16214,   76.3147659,           0.
     52,    186.16214,   81.1711578,           0.
     53,    186.16214,   86.0275497,           0.
     54,    186.16214,   90.8839493,           0.
     55,    186.16214,   95.7403412,           0.
     56,    186.16214,   100.596733,           0.
     57,    186.16214,   105.453133,           0.
     58,    186.16214,   110.309525,           0.
     59,    186.16214,   115.165916,           0.
     60,    186.16214,   120.022316,           0.
     61,   181.440643,   124.878708,           0.
     62,   176.719131,   124.878708,           0.
     63,   171.997635,   124.878708,           0.
     64,   167.276138,   124.878708,           0.
     65,   162.554626,   124.878708,           0.
     66,    157.83313,   124.878708,           0.
     67,   153.111618,   124.878708,           0.
     68,   148.390121,   124.878708,           0.
     69,    143.66861,   124.878708,           0.
     70,   138.947113,   124.878708,           0.
     71,   134.225601,   124.878708,           0.
     72,   129.504105,   124.878708,           0.
     73,     124.7826,   124.878708,           0.
     74,   120.061096,   124.878708,           0.
     75,   115.339592,   124.878708,           0.
     76,   110.618088,   124.878708,           0.
     77,   105.896584,   124.878708,           0.
     78,   101.175079,   124.878708,           0.
     79,   96.4535751,   124.878708,           0.
     80,   91.7320709,   124.878708,           0.
     81,   87.0105667,   124.878708,           0.
     82,   82.2890625,   124.878708,           0.
     83,   72.7195892,   124.878708,           0.
     84,   67.8716125,   124.878708,           0.
     85,   63.0236435,   124.878708,           0.
     86,   58.1756706,   124.878708,           0.
     87,   53.3276978,   124.878708,           0.
     88,   48.4797249,   124.878708,           0.
     89,    43.631752,   124.878708,           0.
     90,   38.7837791,   124.878708,           0.
     91,   33.9358063,   124.878708,           0.
     92,   29.0878353,   124.878708,           0.
     93,   24.2398624,   124.878708,           0.
     94,   19.3918896,   124.878708,           0.
     95,   14.5439177,   124.878708,           0.
     96,   9.69594479,   124.878708,           0.
     97,   4.84797239,   124.878708,           0.
     98,           0.,   120.022316,           0.
     99,           0.,   115.165916,           0.
    100,           0.,   110.309525,           0.
    101,           0.,   105.453133,           0.
    102,           0.,   100.596733,           0.
    103,           0.,   95.7403412,           0.
    104,           0.,   90.8839493,           0.
    105,           0.,   86.0275497,           0.
    106,           0.,   81.1711578,           0.
    107,           0.,   76.3147659,           0.
    108,           0.,    71.458374,           0.
    109,           0.,   66.6019745,           0.
    110,           0.,   61.7455826,           0.
    111,           0.,   56.8891869,           0.
    112,   4.64377737,    52.032795,           0.
    113,   9.28755474,    52.032795,           0.
    114,   13.9313326,    52.032795,           0.
    115,   18.5751095,    52.032795,           0.
    116,   23.2188873,    52.032795,           0.
    117,   27.8626652,    52.032795,           0.
    118,    32.506443,    52.032795,           0.
    119,    37.150219,    52.032795,           0.
    120,   41.7939987,    52.032795,           0.
    121,   46.4377747,    52.032795,           0.
    122,   51.0815544,    52.032795,           0.
    123,   55.7253304,    52.032795,           0.
    124,   60.3691101,    52.032795,           0.
    125,   65.9685516,   56.8372612,           0.
    126,   68.6900635,   60.9102898,           0.
    127,    72.763092,   63.6318016,           0.
    128,   77.5675583,    34.543354,           0.
    129,   77.5675583,   29.6085892,           0.
    130,   77.5675583,   24.6738243,           0.
    131,   77.5675583,   19.7390594,           0.
    132,   77.5675583,   14.8042946,           0.
    133,   77.5675583,   9.86952972,           0.
    134,   77.5675583,   4.93476486,           0.
    135,   82.2890625,           0.,           0.
    136,   87.0105667,           0.,           0.
    137,   91.7320709,           0.,           0.
    138,   96.4535751,           0.,           0.
    139,   101.175079,           0.,           0.
    140,   105.896584,           0.,           0.
    141,   110.618088,           0.,           0.
    142,   115.339592,           0.,           0.
    143,   120.061096,           0.,           0.
    144,     124.7826,           0.,           0.
    145,   129.504105,           0.,           0.
    146,   134.225601,           0.,           0.
    147,   138.947113,           0.,           0.
    148,    143.66861,           0.,           0.
    149,   148.390121,           0.,           0.
    150,   153.111618,           0.,           0.
    151,    157.83313,           0.,           0.
    152,   162.554626,           0.,           0.
    153,   167.276138,           0.,           0.
    154,   171.997635,           0.,           0.
    155,   176.719131,           0.,           0.
    156,   181.440643,           0.,           0.
    157,    186.16214,   4.73025417,           0.
    158,    186.16214,   9.46050835,           0.
    159,    186.16214,   14.1907625,           0.
    160,    186.16214,   18.9210167,           0.
    161,    186.16214,   23.6512699,           0.
    162,    186.16214,    28.381525,           0.
    163,    186.16214,   33.1117783,           0.
    164,    186.16214,   37.8420334,           0.
    165,    186.16214,   42.5722847,           0.
    166,    186.16214,   47.3025398,           0.
    167,   89.1665649,   47.2283287,           0.
    168,   86.4450531,   43.1553001,           0.
    169,   82.3720245,   40.4337883,           0.
    170,    72.763092,   40.4337883,           0.
    171,   68.6900635,   43.1553001,           0.
    172,   65.9685516,   47.2283287,           0.
    173,           0.,   47.3025398,           0.
    174,           0.,   42.5722847,           0.
    175,           0.,   37.8420334,           0.
    176,           0.,   33.1117783,           0.
    177,           0.,    28.381525,           0.
    178,           0.,   23.6512699,           0.
    179,           0.,   18.9210167,           0.
    180,           0.,   14.1907625,           0.
    181,           0.,   9.46050835,           0.
    182,           0.,   4.73025417,           0.
    183,   4.84797239,           0.,           0.
    184,   9.69594479,           0.,           0.
    185,   14.5439177,           0.,           0.
    186,   19.3918896,           0.,           0.
    187,   24.2398624,           0.,           0.
    188,   29.0878353,           0.,           0.
    189,   33.9358063,           0.,           0.
    190,   38.7837791,           0.,           0.
    191,    43.631752,           0.,           0.
    192,   48.4797249,           0.,           0.
    193,   53.3276978,           0.,           0.
    194,   58.1756706,           0.,           0.
    195,   63.0236435,           0.,           0.
    196,   67.8716125,           0.,           0.
    197,   72.7195892,           0.,           0.
    198,    135.74086,   56.1883354,           0.
    199,    81.868866,   118.649605,           0.
    200,   81.5971451,   94.7362289,           0.
    201,   81.6000214,   90.0999451,           0.
    202,   81.6101913,   85.4684601,           0.
    203,   81.6295013,   80.8566742,           0.
    204,   87.1421356,   65.0888824,           0.
    205,   81.6883087,   76.2898331,           0.
    206,   81.8200073,   71.7831879,           0.
    207,   82.1026993,   67.3515472,           0.
    208,   90.5084381,   60.8001175,           0.
    209,   150.146255,   56.1916656,           0.
    210,   145.344376,   56.1901512,           0.
    211,   140.542587,   56.1889229,           0.
    212,   130.938828,   56.1874847,           0.
    213,    126.13678,   56.1865845,           0.
    214,   121.334953,   56.1858253,           0.
    215,   116.533501,   56.1859741,           0.
    216,   111.732506,   56.1894646,           0.
    217,   106.940979,    56.217186,           0.
    218,   102.149803,   56.2713585,           0.
    219,   97.4057007,   56.3370667,           0.
    220,   181.961166,   93.3120575,           0.
    221,    181.96524,   88.4549179,           0.
    222,   181.965042,   83.5985718,           0.
    223,   181.962524,   78.7388077,           0.
    224,   181.941895,   73.8359222,           0.
    225,   181.889099,   68.8731537,           0.
    226,   181.757141,     63.78442,           0.
    227,   181.758194,   58.5113945,           0.
    228,   94.0727158,   120.765175,           0.
    229,   108.256432,   120.791862,           0.
    230,   112.978119,   120.789795,           0.
    231,   117.699844,    120.78817,           0.
    232,   122.421532,   120.787018,           0.
    233,   127.143181,   120.786369,           0.
    234,   131.864761,   120.786118,           0.
    235,   136.586243,   120.785828,           0.
    236,   141.307602,   120.785187,           0.
    237,   146.028885,   120.784264,           0.
    238,   150.750122,     120.7827,           0.
    239,   155.471069,   120.780067,           0.
    240,   160.191254,   120.776276,           0.
    241,   164.910751,   120.762039,           0.
    242,   169.660614,   120.708969,           0.
    243,   174.567139,   120.552605,           0.
    244,   179.743179,   120.500237,           0.
    245,   81.6269608,   104.035431,           0.
    246,   85.6502914,   87.7997665,           0.
    247,   85.8956146,    74.131485,           0.
    248,   81.6048965,   99.3772812,           0.
    249,    85.762085,   78.6212234,           0.
    250,    81.691925,    108.75074,           0.
    251,   85.6905975,   83.1934967,           0.
    252,   85.6383591,   92.4283066,           0.
    253,   103.532814,   120.791565,           0.
    254,    89.398613,    120.78817,           0.
    255,    85.417244,   121.127922,           0.
    256,   134.225174,   116.691032,           0.
    257,   167.258514,   116.614243,           0.
    258,   162.539185,   116.654671,           0.
    259,   98.7966461,    120.76326,           0.
    260,   115.337379,   116.698532,           0.
    261,   120.059555,   116.695122,           0.
    262,   129.503632,   116.691505,           0.
    263,   110.614929,   116.703209,           0.
    264,   148.387833,   116.684929,           0.
    265,   124.781685,   116.692657,           0.
    266,    138.94635,   116.689751,           0.
    267,   143.667084,   116.687439,           0.
    268,   153.107941,   116.679726,           0.
    269,   157.826096,   116.670746,           0.
    270,   172.022125,   116.480438,           0.
    271,   154.948196,   56.1934471,           0.
    272,    164.53923,   56.2252731,           0.
    273,   118.934189,   60.3364716,           0.
    274,   109.337929,   60.3597336,           0.
    275,   99.7513199,   60.4971924,           0.
    276,   169.332397,   56.2532883,           0.
    277,   128.536942,   60.3390579,           0.
    278,   138.140686,   60.3425903,           0.
    279,   147.743256,    60.348114,           0.
    280,   114.134834,   60.3412018,           0.
    281,   159.743439,   56.2068939,           0.
    282,    123.73513,   60.3368111,           0.
    283,   142.941772,   60.3446465,           0.
    284,   104.539619,   60.4059525,           0.
    285,   174.084686,   56.2467117,           0.
    286,   178.147293,   55.9123039,           0.
    287,   133.338882,   60.3404961,           0.
    288,   181.922653,   98.1741104,           0.
    289,    177.63887,   66.2872772,           0.
    290,   177.759094,   76.2525635,           0.
    291,   177.769516,   81.1586151,           0.
    292,   181.811844,   107.943695,           0.
    293,   181.855042,   103.049072,           0.
    294,   177.768433,   90.8810349,           0.
    295,   177.772827,   86.0238724,           0.
    296,    177.73761,   71.2751617,           0.
    297,   181.856018,   112.765175,           0.
    298,   182.249878,   116.851105,           0.
    299,   92.8595505,    56.447979,           0.
    300,   81.8424759,   113.598801,           0.
    301,   177.370743,   115.766563,           0.
    302,   86.5032501,   116.421722,           0.
    303,   177.003006,    60.804615,           0.
    304,   85.6701965,   101.735748,           0.
    305,   85.7193604,   106.448921,           0.
    306,   89.6946564,   90.1313858,           0.
    307,   89.9094849,    76.372406,           0.
    308,   89.7283401,   85.5167542,           0.
    309,   89.8022385,   80.9182968,           0.
    310,   85.6478882,   97.0718155,           0.
    311,   86.1803818,   69.7494049,           0.
    312,   173.803009,   112.681953,           0.
    313,   91.6295776,   116.566536,           0.
    314,   96.4054871,   116.526482,           0.
    315,   105.892311,   116.700539,           0.
    316,   141.305161,   112.589233,           0.
    317,   136.584625,   112.591301,           0.
    318,   131.863556,   112.593086,           0.
    319,   127.141602,     112.5952,           0.
    320,   122.418694,   112.598579,           0.
    321,   117.695274,   112.604012,           0.
    322,   155.465454,    112.55645,           0.
    323,   146.024658,   112.584312,           0.
    324,   150.744492,    112.57238,           0.
    325,   112.973312,   112.612114,           0.
    326,   160.183456,   112.513268,           0.
    327,   164.922226,   112.467369,           0.
    328,   169.664413,   112.446541,           0.
    329,   101.173981,   116.650436,           0.
    330,   157.336563,   60.3795586,           0.
    331,    130.93634,   64.4892654,           0.
    332,   166.935959,   60.6152992,           0.
    333,   171.782196,   60.6267166,           0.
    334,   162.114075,   60.4641876,           0.
    335,     135.7379,   64.4920349,           0.
    336,   145.338943,   64.5008087,           0.
    337,   140.538361,   64.4954987,           0.
    338,   116.534645,   64.4843674,           0.
    339,   126.134377,   64.4857712,           0.
    340,   121.333679,   64.4833527,           0.
    341,     102.1269,    64.599762,           0.
    342,   106.945602,   64.5265656,           0.
    343,   111.742867,   64.4936447,           0.
    344,   152.542816,   60.3598137,           0.
    345,   177.725922,   95.7295685,           0.
    346,   177.479202,     110.4767,           0.
    347,   177.451935,   105.525963,           0.
    348,   173.581085,    83.584938,           0.
    349,   173.567383,   78.6592102,           0.
    350,   173.581345,     73.66539,           0.
    351,   173.629166,   68.6807251,           0.
    352,   173.579132,   88.4479752,           0.
    353,   177.629944,   100.586761,           0.
    354,   85.8356247,   111.178558,           0.
    355,   90.0536804,   68.1697922,           0.
    356,   172.666275,   108.142525,           0.
    357,   89.7620773,   108.873688,           0.
    358,   93.7593765,   87.8458557,           0.
    359,   89.7418594,   99.4324188,           0.
    360,   93.8239365,   83.2159195,           0.
    361,    89.776741,    104.15728,           0.
    362,   89.7073135,   94.7671814,           0.
    363,   93.8969193,   78.6063232,           0.
    364,   162.582184,   108.219673,           0.
    365,   157.798859,   108.371399,           0.
    366,    143.66124,   108.482033,           0.
    367,   98.9274445,   112.496117,           0.
    368,   148.378937,   108.468658,           0.
    369,   167.417679,   108.240479,           0.
    370,   93.9102936,   111.838539,           0.
    371,   138.942352,   108.486633,           0.
    372,   129.500809,   108.493774,           0.
    373,   134.222137,   108.489769,           0.
    374,   124.777077,   108.498093,           0.
    375,   120.051857,   108.504875,           0.
    376,   153.086655,   108.437218,           0.
    377,   108.258644,   112.617126,           0.
    378,   115.324585,   108.509102,           0.
    379,   103.574326,   112.594551,           0.
    380,   118.932762,   68.6251602,           0.
    381,   150.137527,   64.5195923,           0.
    382,   114.146561,   68.6189423,           0.
    383,   97.2473068,   64.7602692,           0.
    384,   133.334106,   68.6373291,           0.
    385,   138.134186,   68.6420898,           0.
    386,   159.670258,   64.6324692,           0.
    387,    169.44812,   65.5355682,           0.
    388,   164.359909,   64.8004684,           0.
    389,   142.933167,    68.648735,           0.
    390,   104.547462,   68.7635498,           0.
    391,   123.731674,   68.6278305,           0.
    392,   154.909149,   64.5635529,           0.
    393,   109.374275,   68.6431198,           0.
    394,   128.532425,   68.6318817,           0.
    395,   173.547165,   93.2977295,           0.
    396,   173.900269,   64.3869781,           0.
    397,   169.311996,   76.0659332,           0.
    398,   169.445816,   70.9889145,           0.
    399,   169.376038,   81.0859985,           0.
    400,   169.385696,   85.9955826,           0.
    401,   173.354736,    102.92775,           0.
    402,   173.488495,   98.1321487,           0.
    403,   89.5281677,   112.975807,           0.
    404,   92.4069901,   64.7846985,           0.
    405,   97.8478317,   85.5829391,           0.
    406,   93.7783585,   97.1012497,           0.
    407,   93.8991089,   101.841484,           0.
    408,   97.9064026,   80.8975983,           0.
    409,   93.7388916,   92.4666443,           0.
    410,   93.9838943,   74.1183319,           0.
    411,   165.116135,   103.497093,           0.
    412,   160.044922,   104.165382,           0.
    413,   146.011642,   104.364784,           0.
    414,   150.711075,   104.340935,           0.
    415,   141.296707,   104.375244,           0.
    416,   101.267685,   108.540085,           0.
    417,   155.390411,   104.289101,           0.
    418,   90.0805511,   71.9637833,           0.
    419,   136.578964,   104.381439,           0.
    420,   131.858429,   104.386612,           0.
    421,   127.134598,     104.3927,           0.
    422,   122.407349,   104.399879,           0.
    423,     97.27668,   108.775726,           0.
    424,    105.89135,   108.509499,           0.
    425,   110.590462,   108.494431,           0.
    426,    117.67363,   104.393105,           0.
    427,   99.6758041,   68.8387756,           0.
    428,   147.722076,   68.6765976,           0.
    429,   116.535133,   72.7416763,           0.
    430,    111.78051,   72.7162552,           0.
    431,   121.327744,   72.7580261,           0.
    432,   107.097565,   72.7728882,           0.
    433,   135.733139,   72.7458954,           0.
    434,   140.486252,   72.7407913,           0.
    435,   161.921448,   68.8858795,           0.
    436,   165.972534,   68.7008286,           0.
    437,   152.480682,   68.7473068,           0.
    438,   157.221954,   68.8365402,           0.
    439,   130.936417,   72.7599258,           0.
    440,   126.130379,   72.7630997,           0.
    441,   169.354599,   90.8700943,           0.
    442,   169.337326,   100.533218,           0.
    443,   164.702316,   73.3160248,           0.
    444,   165.238083,   83.5127792,           0.
    445,    165.23674,   78.6393509,           0.
    446,   169.331619,   95.7318344,           0.
    447,    169.57843,   104.668213,           0.
    448,   94.4399643,    69.279541,           0.
    449,   97.6910019,   94.8256454,           0.
    450,   102.045502,   83.3433914,           0.
    451,   97.7618713,   99.3814392,           0.
    452,   97.7515182,   90.2591019,           0.
    453,   93.8429794,   106.643005,           0.
    454,   97.9033203,   76.2967987,           0.
    455,   161.692474,   100.408981,           0.
    456,   157.665619,   100.208717,           0.
    457,   143.644684,   100.256981,           0.
    458,   148.349014,   100.247597,           0.
    459,    153.03363,   100.243668,           0.
    460,   138.926682,   100.269447,           0.
    461,   103.416931,   104.414917,           0.
    462,   98.3979492,   104.372192,           0.
    463,   134.190948,   100.284149,           0.
    464,   129.448914,   100.301178,           0.
    465,   108.129227,   104.273842,           0.
    466,   124.721085,   100.319077,           0.
    467,   112.920967,   104.337708,           0.
    468,   119.987114,   100.292961,           0.
    469,   102.034317,   73.4174347,           0.
    470,   145.214066,   72.8107834,           0.
    471,   114.165276,   76.8449173,           0.
    472,   109.470306,   76.7637177,           0.
    473,   118.963013,   76.8871918,           0.
    474,   138.002167,   76.6175079,           0.
    475,   123.762161,   76.8689194,           0.
    476,   149.972992,   72.9224396,           0.
    477,   133.346832,    76.725235,           0.
    478,   154.784805,   73.1163025,           0.
    479,   159.569519,   73.1466217,           0.
    480,    128.56427,   76.8004456,           0.
    481,   165.165268,   88.3861542,           0.
    482,    161.60376,   76.8124695,           0.
    483,   161.241547,   80.9687347,           0.
    484,   165.060516,   93.3187332,           0.
    485,   101.588905,   92.8293457,           0.
    486,   101.399155,    97.187294,           0.
    487,   101.914131,   88.2287903,           0.
    488,   101.987595,   78.5477371,           0.
    489,   160.434647,   95.9725342,           0.
    490,    155.36235,   96.2656479,           0.
    491,   146.045593,   96.1987762,           0.
    492,   150.730484,   96.2620544,           0.
    493,   141.343765,     96.16745,           0.
    494,   136.551636,    96.190033,           0.
    495,   105.394577,   99.7426834,           0.
    496,    131.73613,   96.2537689,           0.
    497,   126.987625,   96.3125534,           0.
    498,   110.495346,    100.09465,           0.
    499,     97.60746,   72.3901749,           0.
    500,   122.269623,   96.2893372,           0.
    501,    115.24337,   100.220993,           0.
    502,   111.834648,   80.9640884,           0.
    503,   142.512772,   76.8015594,           0.
    504,   116.693466,    81.079277,           0.
    505,   121.511703,   80.9339752,           0.
    506,    147.27832,   77.0648499,           0.
    507,   135.777603,   80.3554306,           0.
    508,   152.119232,   77.1329498,           0.
    509,   126.285667,   80.8070831,           0.
    510,   131.073425,   80.6223602,           0.
    511,   165.162125,   98.2437363,           0.
    512,   160.951828,   85.8096085,           0.
    513,   160.819168,   90.7287979,           0.
    514,   101.274101,   101.019707,           0.
    515,   106.188805,   91.3724365,           0.
    516,   106.140526,   86.1486435,           0.
    517,   143.977127,   92.2035828,           0.
    518,   148.541061,   92.4438019,           0.
    519,   153.115555,   92.4081879,           0.
    520,   139.130875,   92.0405655,           0.
    521,   106.673553,   80.9505768,           0.
    522,    134.10376,   92.2007751,           0.
    523,   108.338379,   95.8842697,           0.
    524,   129.250443,    92.347229,           0.
    525,   112.811783,   96.0739517,           0.
    526,   124.530792,   92.3998718,           0.
    527,   117.497116,    96.106514,           0.
    528,   139.819855,   79.8146057,           0.
    529,   114.416206,   85.7502823,           0.
    530,   119.479523,    84.975853,           0.
    531,   144.002045,   81.6082535,           0.
    532,   149.553879,   81.0645905,           0.
    533,   157.165405,   77.8486481,           0.
    534,   124.145844,   84.7534943,           0.
    535,   133.732025,   84.2825775,           0.
    536,   128.899582,   84.5619888,           0.
    537,   156.955688,   83.0040359,           0.
    538,   156.041977,   88.2445908,           0.
    539,   157.154739,   92.7239532,           0.
    540,   105.452667,   76.4904709,           0.
    541,   110.304726,   88.6415787,           0.
    542,   146.657059,   89.2156448,           0.
    543,   150.752625,   88.6970749,           0.
    544,   142.383453,   87.4517517,           0.
    545,   136.592667,   88.0021362,           0.
    546,   110.485916,   92.6892929,           0.
    547,   114.785812,   91.4563751,           0.
    548,   119.881882,   92.2534637,           0.
    549,   153.659225,   80.7070312,           0.
    550,   109.873932,   84.4910355,           0.
    551,   104.581963,   95.4032059,           0.
    552,    152.43692,   84.5171051,           0.
    553,   147.630997,   85.4257355,           0.
    554,   95.0298843,   60.6045532,           0.
    555,   138.717941,   83.5857925,           0.
    556,   131.543777,    88.322319,           0.
    557,    118.13427,   88.6118546,           0.
    558,   126.746399,   88.5013657,           0.
    559,   122.153122,   88.5826492,           0.
    560,   73.5179291,   80.8442307,           0.
    561,   73.2111664,    118.55825,           0.
    562,   73.2711105,   113.480431,           0.
    563,   73.4344025,   108.666374,           0.
    564,   73.5185852,   90.1029892,           0.
    565,    73.513916,   85.4704971,           0.
    566,   73.5537643,   76.2561874,           0.
    567,   73.6273117,   71.8040619,           0.
    568,   39.4638634,   56.0933228,           0.
    569,   53.3011017,   56.1780777,           0.
    570,   57.8093719,   56.3073654,           0.
    571,   30.1811829,   56.0955009,           0.
    572,   44.1022263,   56.1040382,           0.
    573,   48.7152519,    56.132473,           0.
    574,   36.3610229,   120.686905,           0.
    575,    26.665472,   120.639183,           0.
    576,   31.5134144,   120.677666,           0.
    577,   41.2091789,   120.690231,           0.
    578,   46.0574722,   120.694038,           0.
    579,   50.9058952,   120.698868,           0.
    580,   55.7831116,   120.662254,           0.
    581,   60.6741333,   120.614326,           0.
    582,   65.4897461,   120.646042,           0.
    583,   16.9518356,   120.476555,           0.
    584,   4.17157602,    69.038475,           0.
    585,   4.19687557,   88.4559021,           0.
    586,   4.19909048,   93.3120728,           0.
    587,   4.20119524,   98.1677475,           0.
    588,   4.21437025,   103.026917,           0.
    589,   4.26022625,   107.923485,           0.
    590,   4.39527178,   112.978584,           0.
    591,   4.41313505,   118.297089,           0.
    592,   64.3459854,    61.636734,           0.
    593,   68.4207916,   65.8060455,           0.
    594,   73.3466187,   67.5066223,           0.
    595,    73.519043,   94.7370758,           0.
    596,   69.4538193,   87.7995605,           0.
    597,   73.4945145,   104.004791,           0.
    598,   69.2238846,   110.999977,           0.
    599,   69.6486359,   73.8939285,           0.
    600,   73.5136032,    99.369606,           0.
    601,   69.4509735,   83.1714401,           0.
    602,   69.4992447,   78.5199509,           0.
    603,   34.8218231,   56.0929375,           0.
    604,   62.2177849,   56.5830421,           0.
    605,   55.4502258,   60.3925781,           0.
    606,   11.3611937,   56.5264282,           0.
    607,   20.9111176,   56.2737579,           0.
    608,   25.5501938,   56.1602745,           0.
    609,   41.7654495,   60.1728325,           0.
    610,   46.3784599,   60.2078857,           0.
    611,     50.95298,   60.2775841,           0.
    612,   21.8122635,   120.544777,           0.
    613,   12.1488247,   120.492882,           0.
    614,    38.788578,   116.502899,           0.
    615,   33.9409065,   116.495575,           0.
    616,   48.4818764,    116.52282,           0.
    617,   53.3475876,   116.477127,           0.
    618,    58.289135,   116.314301,           0.
    619,   29.0985088,   116.436333,           0.
    620,   43.6363754,   116.512733,           0.
    621,   63.2306976,   116.344078,           0.
    622,   8.05934048,   120.880432,           0.
    623,   4.14584255,   64.2404633,           0.
    624,   4.19303465,   83.5987701,           0.
    625,   3.80253577,   60.1331329,           0.
    626,   8.39140987,   90.8827972,           0.
    627,    4.1881814,   78.7420425,           0.
    628,   4.17828417,    73.889473,           0.
    629,   8.40372276,   100.597481,           0.
    630,   8.39549446,   95.7402802,           0.
    631,   8.42780876,   105.470909,           0.
    632,   8.52727985,    110.39196,           0.
    633,   68.4930344,   116.252464,           0.
    634,   9.18950939,   115.893211,           0.
    635,   70.1387711,    69.939003,           0.
    636,   37.1304626,   60.1621399,           0.
    637,   69.4158478,   101.680244,           0.
    638,   69.4398193,   97.0537415,           0.
    639,   23.3487911,   60.4251251,           0.
    640,   65.3757782,   85.4995728,           0.
    641,   65.3965836,   80.8356934,           0.
    642,   65.4626846,   76.0322037,           0.
    643,   6.27707434,   56.4932785,           0.
    644,   16.2136536,   56.4337006,           0.
    645,   53.1797256,   64.4464951,           0.
    646,   44.0449257,   64.2700958,           0.
    647,   48.6286621,   64.3510361,           0.
    648,   69.3488693,   106.330391,           0.
    649,   27.9080238,   60.2334251,           0.
    650,   32.5016441,   60.1723938,           0.
    651,   69.4534454,   92.4275894,           0.
    652,    59.788166,   60.6396103,           0.
    653,   24.2635937,   116.293259,           0.
    654,   31.5418339,   112.256897,           0.
    655,   41.2192917,   112.330872,           0.
    656,   36.3784866,   112.307243,           0.
    657,    46.064949,   112.349869,           0.
    658,   50.9050064,   112.338837,           0.
    659,   55.7081947,   112.238098,           0.
    660,   60.9161835,   111.591721,           0.
    661,   14.4626818,   116.039589,           0.
    662,   8.38350201,   86.0249863,           0.
    663,   19.3714523,   116.058403,           0.
    664,   8.24617386,   66.6552887,           0.
    665,   8.29366779,   71.4766235,           0.
    666,   12.5673952,   107.982018,           0.
    667,   12.6048841,   103.103676,           0.
    668,   12.6150904,    98.207962,           0.
    669,   12.5938787,   93.3227386,           0.
    670,   8.37208176,    81.168541,           0.
    671,   8.51716423,   61.3981209,           0.
    672,   8.34157753,   76.3214645,           0.
    673,   12.3091021,   112.278893,           0.
    674,   69.5570297,   121.042831,           0.
    675,   61.2395554,   64.3349457,           0.
    676,   65.6273422,   70.6101532,           0.
    677,   65.2320251,   103.998215,           0.
    678,   34.7855721,   64.2614975,           0.
    679,   65.3488464,   94.7200546,           0.
    680,   65.2736893,   99.3305206,           0.
    681,    61.303093,   83.1817703,           0.
    682,   61.3334808,   78.4682846,           0.
    683,   30.1668777,   64.2993698,           0.
    684,    46.279911,   68.4163513,           0.
    685,   16.8150921,   111.136642,           0.
    686,   50.8848839,   68.6053696,           0.
    687,   25.7549419,   64.3041687,           0.
    688,   18.6997108,    60.800499,           0.
    689,   39.4238472,   64.2522736,           0.
    690,   65.2026138,     108.6717,           0.
    691,   65.3706818,   90.1144333,           0.
    692,   65.4132843,   112.771988,           0.
    693,   26.7390327,   112.133873,           0.
    694,   12.5743093,   88.4532318,           0.
    695,   38.8228226,   108.138222,           0.
    696,   34.0027504,   108.061356,           0.
    697,   57.4498215,   108.494156,           0.
    698,   43.6705666,   108.175415,           0.
    699,   53.3094101,   108.247101,           0.
    700,   21.9849968,   111.921188,           0.
    701,   48.5197601,   108.224617,           0.
    702,   12.4413366,   73.9090576,           0.
    703,   11.8781891,   64.7924271,           0.
    704,   12.3055954,   69.0371399,           0.
    705,   16.7954216,   105.740753,           0.
    706,   16.9136124,   100.751839,           0.
    707,   16.8217793,   95.7815628,           0.
    708,   12.5531807,   83.5948334,           0.
    709,   12.5084343,   78.7573853,           0.
    710,   64.0096054,   66.2010956,           0.
    711,   61.2103004,   92.3870316,           0.
    712,   37.0785217,   68.3761063,           0.
    713,   61.1107597,   96.9595642,           0.
    714,   60.9648209,    101.63546,           0.
    715,   57.2772446,   80.7650375,           0.
    716,   13.8535681,   60.9763374,           0.
    717,   61.0058975,    106.40332,           0.
    718,   32.3444824,   68.4962387,           0.
    719,   27.7248306,   68.2454453,           0.
    720,   48.4827652,   72.5924988,           0.
    721,    21.471077,   64.7323608,           0.
    722,   41.6951294,   68.3619385,           0.
    723,   61.2583771,   87.8030396,           0.
    724,   61.2866325,   73.6603012,           0.
    725,   55.4886322,   68.5884933,           0.
    726,   57.5934448,   64.5032883,           0.
    727,   29.1945305,   107.958351,           0.
    728,   16.7735367,   90.8897247,           0.
    729,   36.4696121,   103.872635,           0.
    730,   41.3297844,   103.961601,           0.
    731,   56.2459106,    104.13414,           0.
    732,   24.4388943,   107.864731,           0.
    733,   46.2581406,   104.078545,           0.
    734,   51.0822105,   104.282578,           0.
    735,   16.6127167,    76.352562,           0.
    736,   16.4757214,    65.865387,           0.
    737,   21.5839825,   103.464012,           0.
    738,   16.5165062,   71.4015884,           0.
    739,   16.6890411,   81.1818771,           0.
    740,   21.0148335,   98.1822128,           0.
    741,   16.7344856,   86.0234375,           0.
    742,    60.400444,    68.567543,           0.
    743,   57.0102272,   90.0779648,           0.
    744,   39.3896294,   72.4979095,           0.
    745,   56.9050484,   94.6631699,           0.
    746,   34.7343826,   72.5751877,           0.
    747,   56.8339043,   99.2134399,           0.
    748,   29.5327644,   73.1286469,           0.
    749,     43.99086,   72.5342712,           0.
    750,   24.0235825,   67.6009674,           0.
    751,   57.1399879,   85.4191895,           0.
    752,   53.3261871,   73.2143784,           0.
    753,    57.361763,   76.0790482,           0.
    754,   31.6341896,   103.657173,           0.
    755,     20.93927,   93.3210831,           0.
    756,   20.3236771,   108.025459,           0.
    757,   38.9710236,   99.5907516,           0.
    758,    20.824604,   78.7359924,           0.
    759,   44.0834732,    99.654747,           0.
    760,   53.1744041,   100.961868,           0.
    761,   20.8971405,    83.576149,           0.
    762,   26.7923012,   103.627335,           0.
    763,   20.6882839,   73.8995514,           0.
    764,   24.7104874,   99.9706955,           0.
    765,    49.115284,   100.170723,           0.
    766,   20.9226856,   88.4413681,           0.
    767,   52.8840942,   87.5321426,           0.
    768,   41.8187904,   76.8431854,           0.
    769,   52.5639534,   92.3130722,           0.
    770,   37.0892563,   76.7396469,           0.
    771,    57.572731,   72.0219498,           0.
    772,   32.9867554,   76.4144516,           0.
    773,   53.1836777,   82.8095245,           0.
    774,   46.4300156,   76.6557083,           0.
    775,   24.5962448,   71.3825531,           0.
    776,   53.4581375,   78.1910019,           0.
    777,   34.1693153,   99.4868927,           0.
    778,   24.9833679,   95.7817993,           0.
    779,   25.1146603,   81.1015091,           0.
    780,   41.4793472,   94.9560623,           0.
    781,   25.0223885,   76.1365891,           0.
    782,   25.1212444,   86.0286636,           0.
    783,   47.4526863,   94.8593903,           0.
    784,   20.6285686,   69.1470718,           0.
    785,   25.0426788,    90.953064,           0.
    786,   48.5221672,   89.3761978,           0.
    787,   49.0356445,   84.6585846,           0.
    788,   39.4551468,   81.1529922,           0.
    789,    44.742794,   81.6575699,           0.
    790,   34.2006073,   81.1256027,           0.
    791,   52.6742134,   97.0302811,           0.
    792,   50.2282181,   76.1485291,           0.
    793,   49.5130806,   80.0201569,           0.
    794,   36.3957863,   95.2095642,           0.
    795,   29.1014423,   98.8275146,           0.
    796,   29.4500809,    83.670311,           0.
    797,   29.3845425,   78.5961838,           0.
    798,   43.7796516,   90.2138367,           0.
    799,   29.2366409,   88.7280045,           0.
    800,    28.985239,   93.6043549,           0.
    801,   45.5208054,   86.3302689,           0.
    802,   41.5196495,   85.6814651,           0.
    803,   37.4014549,   84.8861008,           0.
    804,   38.1934738,   89.8756943,           0.
    805,   32.3612137,   95.7457199,           0.
    806,   33.6060905,   86.6476669,           0.
    807,   33.1297417,     91.63517,           0.
    808,   81.9439774,   36.3508873,           0.
    809,   91.3381042,    42.541275,           0.
    810,   164.553452,   47.8792496,           0.
    811,   145.345184,   47.8777771,           0.
    812,   81.8481216,   22.1806698,           0.
    813,   81.7939529,   27.0965347,           0.
    814,   81.6936188,   31.7973919,           0.
    815,   164.927841,   4.17525434,           0.
    816,   160.196396,   4.10595703,           0.
    817,   174.111679,    47.856823,           0.
    818,   178.159149,   48.1958961,           0.
    819,   169.361191,   47.8678741,           0.
    820,   155.472916,   4.09480381,           0.
    821,   154.949173,   47.8778839,           0.
    822,   141.307861,   4.09258223,           0.
    823,   140.543182,   47.8780365,           0.
    824,   130.939194,   47.8777809,           0.
    825,    117.70034,   4.09267521,           0.
    826,    108.25782,   4.09486961,           0.
    827,   103.536591,   4.09785938,           0.
    828,   98.8164291,   4.10549498,           0.
    829,   94.0792389,   4.15571833,           0.
    830,   89.1824265,   4.32481098,           0.
    831,   84.0198822,   4.39336061,           0.
    832,    182.04982,   26.0186367,           0.
    833,   182.058609,   21.2866039,           0.
    834,    182.02269,   16.5293198,           0.
    835,   181.899597,   11.6003265,           0.
    836,   181.891129,   6.42977953,           0.
    837,   159.751312,   47.8787651,           0.
    838,   150.750992,   4.09307146,           0.
    839,   146.029388,    4.0929594,           0.
    840,   150.147186,   47.8782463,           0.
    841,   136.586365,    4.0927248,           0.
    842,   131.864853,   4.09268284,           0.
    843,   135.741196,    47.878273,           0.
    844,   127.143349,   4.09289551,           0.
    845,   122.421844,    4.0930934,           0.
    846,   126.137199,   47.8779678,           0.
    847,   121.335205,   47.8779716,           0.
    848,   112.979095,   4.09410954,           0.
    849,    116.53344,   47.8772659,           0.
    850,   111.731911,   47.8750687,           0.
    851,   106.927605,   47.8735924,           0.
    852,   102.142265,   47.9100189,           0.
    853,   97.4966736,   47.9616165,           0.
    854,    93.087822,   47.6880836,           0.
    855,   87.0211029,   38.0994682,           0.
    856,   169.658798,   4.28712463,           0.
    857,   91.6514816,   8.43231297,           0.
    858,    174.34549,   4.28495359,           0.
    859,   162.544983,   8.33119106,           0.
    860,   148.390228,   8.18850899,           0.
    861,   134.225616,   8.18850327,           0.
    862,   129.504105,    8.1891222,           0.
    863,   120.061256,   8.18918896,           0.
    864,   105.900047,   8.20013142,           0.
    865,    157.83287,   8.21448326,           0.
    866,   101.181641,   8.21441936,           0.
    867,   96.4170074,   8.28668785,           0.
    868,    178.32637,   3.89297056,           0.
    869,   153.111862,   8.19361496,           0.
    870,   143.668671,   8.18902206,           0.
    871,   138.947128,   8.18923855,           0.
    872,   124.782654,   8.18967819,           0.
    873,   115.340332,   8.19100666,           0.
    874,    110.62027,   8.19520473,           0.
    875,   181.962387,   30.7685795,           0.
    876,   177.842926,    14.157629,           0.
    877,   181.810471,   35.5736542,           0.
    878,    181.75946,   45.6807594,           0.
    879,   177.925751,   23.6520023,           0.
    880,   181.713364,   40.5034523,           0.
    881,   177.919846,   18.9244251,           0.
    882,   138.142197,   43.7265282,           0.
    883,   176.916611,    43.412487,           0.
    884,    157.35051,   43.7271843,           0.
    885,    118.93502,    43.724987,           0.
    886,   109.326111,    43.718235,           0.
    887,   166.972702,   43.7194786,           0.
    888,   147.746185,   43.7266121,           0.
    889,   128.538223,   43.7263641,           0.
    890,   99.6460495,   43.8705292,           0.
    891,   152.548264,   43.7274017,           0.
    892,   171.702118,   43.7423363,           0.
    893,   142.944183,   43.7271538,           0.
    894,   162.156158,   43.7278481,           0.
    895,   133.340195,   43.7270317,           0.
    896,   123.736465,   43.7267036,           0.
    897,   114.133621,   43.7220497,           0.
    898,   104.483192,    43.751606,           0.
    899,   81.8702011,   17.1900253,           0.
    900,   86.0490341,   24.6878109,           0.
    901,   81.8621597,   12.2615871,           0.
    902,   81.4868927,   8.11814022,           0.
    903,   85.8189774,    29.596117,           0.
    904,   86.3030777,   9.20091629,           0.
    905,   177.207443,   8.78882217,           0.
    906,   85.2629089,   33.7626915,           0.
    907,   95.5726852,    44.356514,           0.
    908,   96.3999786,   39.6974335,           0.
    909,   89.9020615,   32.9787407,           0.
    910,   89.7996902,    12.317091,           0.
    911,   172.069946,   8.66356754,           0.
    912,   136.586395,   12.2891188,           0.
    913,   122.422333,   12.2903461,           0.
    914,   112.983162,   12.2973614,           0.
    915,   131.864868,   12.2896118,           0.
    916,   127.143517,   12.2905102,           0.
    917,   117.702385,   12.2937765,           0.
    918,   141.307953,   12.2897673,           0.
    919,   150.751312,   12.2892504,           0.
    920,   146.029587,   12.2899914,           0.
    921,   155.474487,   12.2930984,           0.
    922,   160.172897,   12.4115677,           0.
    923,   98.7680435,   12.3788738,           0.
    924,   108.265884,   12.3076439,           0.
    925,   103.535149,   12.3319693,           0.
    926,   93.9958038,   12.4667587,           0.
    927,    167.29834,   8.59092331,           0.
    928,   177.479187,   33.1528206,           0.
    929,   177.314621,   38.0438995,           0.
    930,   173.901459,   16.5361748,           0.
    931,   173.848709,   21.2617912,           0.
    932,    177.75621,   28.3677502,           0.
    933,    174.15947,    12.324295,           0.
    934,   130.939255,   39.5794029,           0.
    935,   116.538086,   39.5730324,           0.
    936,   121.337112,   39.5777397,           0.
    937,   126.137711,   39.5797234,           0.
    938,   135.741211,   39.5799866,           0.
    939,   154.949844,   39.5806885,           0.
    940,   140.543198,   39.5801697,           0.
    941,   145.345215,   39.5804558,           0.
    942,     150.1474,   39.5810623,           0.
    943,   159.753937,   39.5833168,           0.
    944,   164.564438,   39.6112289,           0.
    945,   169.362839,   39.7175217,           0.
    946,   111.734184,    39.565258,           0.
    947,   101.913803,   39.6080704,           0.
    948,   173.557907,   40.1044998,           0.
    949,   106.888847,   39.5707283,           0.
    950,   86.2058411,   19.6390839,           0.
    951,    90.289917,    27.355547,           0.
    952,   86.1734848,   14.5796604,           0.
    953,   91.0286407,   16.8591003,           0.
    954,   169.808838,   13.4481573,           0.
    955,   96.3024368,   16.4915047,           0.
    956,   110.632462,   16.4166698,           0.
    957,    105.91317,   16.4399529,           0.
    958,   129.504364,   16.3952522,           0.
    959,   124.783501,   16.3965302,           0.
    960,   134.225723,   16.3953571,           0.
    961,   148.390823,   16.3943157,           0.
    962,   120.064247,   16.3997612,           0.
    963,   115.347801,   16.4072113,           0.
    964,   138.947266,   16.3954468,           0.
    965,   143.668961,   16.3958359,           0.
    966,   153.150116,   16.3676853,           0.
    967,   157.981567,   16.4037743,           0.
    968,   101.103867,    16.468298,           0.
    969,   173.392792,    30.606348,           0.
    970,     169.8909,   18.6056023,           0.
    971,   164.814835,   12.6631269,           0.
    972,   173.671921,   25.9694328,           0.
    973,   114.160522,   35.6003532,           0.
    974,   109.355942,   35.6038284,           0.
    975,   152.434677,   35.5078392,           0.
    976,   157.280991,   35.4915123,           0.
    977,   128.540558,   35.6286125,           0.
    978,   133.305542,   35.6101646,           0.
    979,   123.747559,   35.6779556,           0.
    980,   138.030624,   35.5517349,           0.
    981,   118.958633,   35.6973038,           0.
    982,   142.763428,   35.5102959,           0.
    983,   147.538284,   35.5273323,           0.
    984,   104.462776,   35.5941734,           0.
    985,   162.224197,   35.4195442,           0.
    986,   167.194458,   35.5733643,           0.
    987,   172.537308,   35.6290665,           0.
    988,   90.5404587,   22.2373409,           0.
    989,   94.5992355,   29.9672565,           0.
    990,   108.432953,   20.5157719,           0.
    991,   113.175117,   20.5087414,           0.
    992,   103.600243,   20.4819527,           0.
    993,   98.6485214,    20.445385,           0.
    994,   122.607002,   20.4961185,           0.
    995,   117.943329,   20.4987583,           0.
    996,   127.361168,   20.4896889,           0.
    997,   132.061417,   20.4532337,           0.
    998,   136.718857,   20.3756142,           0.
    999,   141.395493,   20.3218651,           0.
   1000,   146.110687,   20.3274364,           0.
   1001,   150.957291,   20.2768192,           0.
   1002,   155.922958,   20.2695751,           0.
   1003,   169.293198,   28.0566654,           0.
   1004,   162.654282,   16.4377651,           0.
   1005,   169.455872,   23.1923218,           0.
   1006,    111.69857,   31.8924236,           0.
   1007,    106.83004,   31.8677521,           0.
   1008,   116.467407,   31.9460106,           0.
   1009,   121.245659,   31.9867287,           0.
   1010,   130.757858,   31.8792057,           0.
   1011,   125.991882,   31.9664078,           0.
   1012,   135.408478,   31.7644176,           0.
   1013,   140.064087,   31.6676121,           0.
   1014,   149.646454,   31.5804939,           0.
   1015,   144.781387,   31.6267262,           0.
   1016,   154.593628,   31.5473328,           0.
   1017,   159.498413,   31.4473057,           0.
   1018,   164.739471,   30.7821941,           0.
   1019,   99.6079559,   35.4856834,           0.
   1020,   95.0428619,    34.588501,           0.
   1021,   95.5521011,   24.7089596,           0.
   1022,   94.4144287,   20.1484585,           0.
   1023,   91.9408188,   37.5810852,           0.
   1024,   111.156509,   24.4483337,           0.
   1025,   106.299026,   24.3766079,           0.
   1026,   101.267159,   24.4405441,           0.
   1027,   115.915062,   24.4403419,           0.
   1028,   120.657967,   24.4412174,           0.
   1029,    125.39254,   24.4370461,           0.
   1030,   130.074234,   24.3599148,           0.
   1031,   134.707916,    24.238018,           0.
   1032,   139.343445,   24.1281834,           0.
   1033,   144.020569,   24.0802555,           0.
   1034,   148.886551,    24.028614,           0.
   1035,   164.246185,   24.9305935,           0.
   1036,    153.83844,    24.021225,           0.
   1037,   166.545029,   16.2711639,           0.
   1038,   165.610092,   19.9695606,           0.
   1039,   160.865463,   20.3664913,           0.
   1040,   169.431442,    32.129528,           0.
   1041,   102.048317,   31.8982334,           0.
   1042,   156.571686,   27.7753048,           0.
   1043,   160.766678,   27.8246155,           0.
   1044,   98.1104736,   32.0711365,           0.
   1045,   99.3043976,   28.5500813,           0.
   1046,    104.14817,   28.2307339,           0.
   1047,   151.712524,   27.7840805,           0.
   1048,   158.701904,   24.1979675,           0.
   1049,   146.830872,   27.8038807,           0.
   1050,    109.00856,   28.1842136,           0.
   1051,   113.823059,   28.2036171,           0.
   1052,   142.080399,   27.8825531,           0.
   1053,   118.593597,   28.2236404,           0.
   1054,   137.401001,   27.9652576,           0.
   1055,   123.348145,   28.2261753,           0.
   1056,    128.06105,   28.1632519,           0.
   1057,   132.735092,   28.0616779,           0.
   1058,   44.1136093,   47.9923706,           0.
   1059,   62.1612968,   47.6439705,           0.
   1060,   73.3044434,   22.2095699,           0.
   1061,   64.0608749,   42.4793701,           0.
   1062,   68.6659698,   38.9293823,           0.
   1063,   73.3590164,   27.0985718,           0.
   1064,   73.3236618,   31.9205627,           0.
   1065,   73.1422653,   36.5871849,           0.
   1066,   6.25423431,    47.701828,           0.
   1067,   25.5395603,   48.0012894,           0.
   1068,   30.1832581,   48.0019913,           0.
   1069,    34.827919,   48.0013962,           0.
   1070,   39.4709282,   47.9969635,           0.
   1071,   48.7565079,   47.9802399,           0.
   1072,   53.3973961,   47.9594879,           0.
   1073,   57.8381424,    47.978344,           0.
   1074,   4.35115862,   6.46380043,           0.
   1075,   4.30725145,   11.6131306,           0.
   1076,   4.15265417,   16.5179482,           0.
   1077,   4.11213684,   21.2804203,           0.
   1078,   4.10069275,    26.016325,           0.
   1079,    4.0946846,   30.7473984,           0.
   1080,   4.08008862,   35.4502678,           0.
   1081,   4.08944368,   40.1424561,           0.
   1082,   70.9482193,   4.43150806,           0.
   1083,   65.6699982,   4.39273405,           0.
   1084,   60.6396294,   4.23907566,           0.
   1085,   55.7580757,   4.20462418,           0.
   1086,   50.9042969,     4.195436,           0.
   1087,   46.0555801,    4.1914835,           0.
   1088,   41.2076645,   4.18977976,           0.
   1089,   36.3597221,   4.18894863,           0.
   1090,   31.5116539,    4.1878624,           0.
   1091,   26.6635361,   4.18692398,           0.
   1092,   21.8154068,   4.18547487,           0.
   1093,   16.9293766,   4.24199915,           0.
   1094,    12.103323,   4.25690031,           0.
   1095,   20.8969231,   47.9793015,           0.
   1096,   55.7096214,    43.896862,           0.
   1097,   37.1470337,   43.9567719,           0.
   1098,   16.2020588,   47.8997192,           0.
   1099,   11.3503904,   47.7474327,           0.
   1100,   27.8639526,   43.9584236,           0.
   1101,    51.064106,   43.8908768,           0.
   1102,   32.5038261,   43.9596024,           0.
   1103,   46.4227219,   43.9192467,           0.
   1104,   41.7844582,   43.9402695,           0.
   1105,   8.18195152,   33.1604385,           0.
   1106,   8.25422192,   18.8601627,           0.
   1107,   8.21608734,   23.6371326,           0.
   1108,    8.1951561,   28.3911476,           0.
   1109,   8.16544056,   37.9162064,           0.
   1110,   8.39790726,   14.0543346,           0.
   1111,   38.7831535,   8.37110519,           0.
   1112,   58.2412987,   8.42824364,           0.
   1113,   33.9350929,   8.36791325,           0.
   1114,   24.2379398,   8.36311817,           0.
   1115,   19.2942867,   8.51396465,           0.
   1116,    29.086462,   8.36421967,           0.
   1117,   43.6302567,   8.37379551,           0.
   1118,    53.344799,   8.39807796,           0.
   1119,   63.2043724,   8.58480453,           0.
   1120,   48.4801826,   8.38162231,           0.
   1121,   14.3611994,   8.56079578,           0.
   1122,    69.126442,    24.653265,           0.
   1123,   73.2581406,   17.2499256,           0.
   1124,   73.2382889,   12.3454075,           0.
   1125,   69.0954895,   29.4325867,           0.
   1126,   9.09520054,   8.73609257,           0.
   1127,   68.8826065,   34.2203064,           0.
   1128,   64.2502365,   36.7777596,           0.
   1129,   64.6412659,   31.7377224,           0.
   1130,   18.5920792,   43.7312279,           0.
   1131,   34.8171997,   39.9058495,           0.
   1132,   39.4539261,    39.887661,           0.
   1133,   30.1855793,   39.9046707,           0.
   1134,   44.0837631,   39.8562241,           0.
   1135,   53.4891205,   39.6370811,           0.
   1136,   48.7323761,   39.7824631,           0.
   1137,   23.2543774,   43.8945351,           0.
   1138,   8.47623825,   43.0408325,           0.
   1139,   12.2583475,   30.8794975,           0.
   1140,    12.152422,     35.71735,           0.
   1141,   12.3010368,   26.0368404,           0.
   1142,   12.3367853,   16.4011669,           0.
   1143,   12.2999191,   21.2200508,           0.
   1144,    59.743576,   44.2937393,           0.
   1145,   36.3572273,   12.5395632,           0.
   1146,   41.2032967,   12.5449114,           0.
   1147,   31.5087452,   12.5337944,           0.
   1148,   46.0485687,   12.5555487,           0.
   1149,   26.6373234,   12.5341206,           0.
   1150,   21.7917004,   12.6534939,           0.
   1151,   50.9062996,   12.5753441,           0.
   1152,   16.5858212,   13.3666611,           0.
   1153,   60.8553886,   12.6573963,           0.
   1154,   55.8699875,   12.6054506,           0.
   1155,   68.6897888,   9.30175591,           0.
   1156,   68.9462128,   19.7020397,           0.
   1157,   64.8146896,    26.967308,           0.
   1158,   68.9110794,    14.687233,           0.
   1159,   13.7864294,   43.5477562,           0.
   1160,   8.01871967,   3.89135861,           0.
   1161,   60.1796112,   33.8762932,           0.
   1162,   16.1724281,   38.8671875,           0.
   1163,   41.6870041,   35.8633423,           0.
   1164,   46.2903519,   35.7626534,           0.
   1165,   21.0922375,   39.6879272,           0.
   1166,   37.0892639,   35.9591942,           0.
   1167,   50.9111671,    35.389183,           0.
   1168,   32.4074554,   35.8278999,           0.
   1169,   25.6144581,    39.853653,           0.
   1170,   11.7505913,   39.8178673,           0.
   1171,   16.5027466,   23.6014557,           0.
   1172,   58.9937782,   39.4380074,           0.
   1173,   16.4560871,   28.6146946,           0.
   1174,   16.2440758,    33.574894,           0.
   1175,   16.4600048,   18.6782227,           0.
   1176,   12.1553822,   12.2238102,           0.
   1177,   53.4089241,   17.1347065,           0.
   1178,   48.3473701,    17.119194,           0.
   1179,   43.5280342,   16.8605785,           0.
   1180,   38.7477455,   16.7398014,           0.
   1181,   20.0173359,   16.4805546,           0.
   1182,   33.9186211,   16.6993217,           0.
   1183,   58.5314522,   16.9101219,           0.
   1184,   29.0271931,   16.6804218,           0.
   1185,   24.1910362,   16.6837044,           0.
   1186,   65.1476364,   12.4541864,           0.
   1187,   64.7202072,   22.2151623,           0.
   1188,   63.9816818,   16.9988251,           0.
   1189,   73.6022873,   8.17659283,           0.
   1190,   3.76398325,    44.151989,           0.
   1191,   55.6210861,   34.9655838,           0.
   1192,   20.9598389,   31.5923538,           0.
   1193,   23.4142952,   35.9072876,           0.
   1194,   48.3876114,   31.2717743,           0.
   1195,   21.2558765,    20.979723,           0.
   1196,   60.8093987,    20.468977,           0.
   1197,   56.2462616,   22.0303688,           0.
   1198,   45.3307991,   21.4445934,           0.
   1199,   60.6823807,   29.1806622,           0.
   1200,    50.414608,   22.5549889,           0.
   1201,   20.7900448,   26.2745132,           0.
   1202,   40.8437157,   20.8480816,           0.
   1203,   27.7729092,   35.8692665,           0.
   1204,   36.3168373,   20.7968922,           0.
   1205,   26.5965977,   20.8754177,           0.
   1206,   19.5765743,     35.92593,           0.
   1207,   43.8312683,   31.6677227,           0.
   1208,   39.2669487,   32.0455475,           0.
   1209,   34.7239571,   32.0085297,           0.
   1210,   31.5417404,   20.9407253,           0.
   1211,   60.6607742,   24.6223564,           0.
   1212,   45.9922104,   26.7124157,           0.
   1213,    25.065485,    28.611475,           0.
   1214,   53.1814995,   30.4060097,           0.
   1215,   42.4195709,   24.3805408,           0.
   1216,    38.667614,   24.5937309,           0.
   1217,   56.8650436,   27.1908016,           0.
   1218,   57.3059235,   31.1238708,           0.
   1219,   53.3894005,   25.9241257,           0.
   1220,   29.2357273,   25.6497211,           0.
   1221,    24.588747,   24.4781704,           0.
   1222,   29.6610165,   31.3026333,           0.
   1223,   34.2832031,   24.8379421,           0.
   1224,   25.3747082,   32.6566048,           0.
   1225,   50.2730675,   27.3738632,           0.
   1226,   41.1777039,   27.9741879,           0.
   1227,   32.9585037,   28.4487991,           0.
   1228,   36.8463211,   28.3181229,           0.
*Element, type=S3
  1, 305, 245, 304
  2, 255,  82, 199
  3, 231,  75, 230
  4, 199,  13,  14
  5, 299,   3,  28
  6, 245,  16,  17
  7, 248,  18, 200
  8, 200,  18,  19
  9, 253,  77,  78
 10, 201, 200,  19
 11, 202, 201,  20
 12, 378, 375, 321
 13, 205,  22,  23
 14, 249, 203, 205
 15, 203, 202,  21
 16, 311, 207, 204
 17, 207,   2,  25
 18, 299,  28, 219
 19,  46,   4,  47
 20, 227,  47,  48
 21, 333, 285, 303
 22, 295, 222, 221
 23, 334, 281, 272
 24, 276,  43,  44
 25, 399, 397, 349
 26, 271,  40,  41
 27, 237,  69, 236
 28, 210,  39, 209
 29, 256, 235, 234
 30, 212,  36, 198
 31, 213,  35, 212
 32, 214,  34, 213
 33, 251, 202, 203
 34, 215,  33, 214
 35, 216,  32, 215
 36, 208, 204,  26
 37, 219,  28,  29
 38,  61,  60,   5
 39, 244,  61,  62
 40, 257, 242, 241
 41, 258, 241, 240
 42, 327, 258, 326
 43, 297,  58,  59
 44, 288,  55,  56
 45, 221,  54, 220
 46, 222,  53, 221
 47, 223,  52, 222
 48, 224,  51, 223
 49, 225,  50, 224
 50, 226,  49, 225
 51, 227,  48, 226
 52,  82,   1,  13
 53, 199,  82,  13
 54, 254, 228,  80
 55, 254,  80,  81
 56, 403, 357, 370
 57, 259,  79, 228
 58, 253, 229,  77
 59, 260, 231, 230
 60, 261, 231, 260
 61, 232,  74, 231
 62, 233,  73, 232
 63, 265, 233, 232
 64, 234,  72, 233
 65, 235,  71, 234
 66, 236,  70, 235
 67, 238,  68, 237
 68, 239,  67, 238
 69, 240,  66, 239
 70, 241,  65, 240
 71, 242,  64, 241
 72, 243,  63, 242
 73, 244,  62, 243
 74, 198,  36,  37
 75, 211,  37,  38
 76, 300,  15, 250
 77, 250,  16, 245
 78, 201,  19,  20
 79, 252, 201, 246
 80, 202,  20,  21
 81, 263, 260, 230
 82, 203,  21,  22
 83, 282, 213, 277
 84, 207, 206,  24
 85, 204,  25,  26
 86, 208,  26,  27
 87, 284, 275, 218
 88, 205, 203,  22
 89, 206, 205,  23
 90, 206,  23,  24
 91, 311, 247, 206
 92, 207,  24,   2
 93, 207,  25, 204
 94, 218,  30, 217
 95, 217,  31, 216
 96, 209,  39,  40
 97, 345, 220, 288
 98, 211,  38, 210
 99, 210,  38,  39
100, 531, 528, 503
101, 211, 198,  37
102, 230,  76, 229
103, 212,  35,  36
104, 360, 358, 308
105, 213,  34,  35
106, 249, 205, 247
107, 214,  33,  34
108, 418, 247, 311
109, 215,  32,  33
110, 280, 215, 273
111, 216,  31,  32
112, 284, 217, 274
113, 217,  30,  31
114, 275, 219, 218
115, 218,  29,  30
116, 554, 219, 275
117, 219,  29, 218
118, 220,  54,  55
119, 264, 238, 237
120, 291, 290, 223
121, 221,  53,  54
122, 349, 291, 348
123, 222,  52,  53
124, 276, 272,  43
125, 223,  51,  52
126, 334, 272, 332
127, 224,  50,  51
128, 285, 276,  44
129, 225,  49,  50
130, 289, 226, 225
131, 226,  48,  49
132, 286,  46, 227
133, 227,  46,  47
134, 228,  79,  80
135, 354, 250, 305
136, 229,  76,  77
137, 379, 329, 367
138, 321, 320, 261
139, 230,  75,  76
140, 265, 262, 233
141, 231,  74,  75
142, 265, 232, 261
143, 232,  73,  74
144, 394, 391, 339
145, 233,  72,  73
146, 385, 384, 335
147, 234,  71,  72
148, 266, 235, 256
149, 235,  70,  71
150, 389, 385, 337
151, 236,  69,  70
152, 444, 399, 400
153, 237,  68,  69
154, 368, 323, 366
155, 238,  67,  68
156, 258, 257, 241
157, 239,  66,  67
158, 293,  57, 292
159, 240,  65,  66
160, 297, 292,  58
161, 241,  64,  65
162, 270, 242, 257
163, 242,  63,  64
164, 301, 243, 270
165, 243,  62,  63
166, 298,  60, 244
167, 244,  60,  61
168, 248,  17,  18
169, 248, 245,  17
170, 246, 201, 202
171, 309, 308, 251
172, 247, 205, 206
173, 383, 275, 341
174, 310, 200, 252
175, 370, 367, 314
176, 274, 217, 216
177, 418, 311, 355
178, 300,  14,  15
179, 250,  15,  16
180, 251, 246, 202
181, 251, 203, 249
182, 329, 315, 253
183, 252, 200, 201
184, 259, 253,  78
185, 304, 245, 248
186, 255, 254,  81
187, 302, 199, 300
188, 255,  81,  82
189, 302, 255, 199
190, 262, 234, 233
191, 323, 267, 316
192, 269, 240, 239
193, 356, 346, 312
194, 268, 238, 264
195, 401, 347, 356
196, 259,  78,  79
197, 403, 302, 354
198, 263, 230, 229
199, 339, 277, 331
200, 335, 331, 287
201, 261, 232, 231
202, 318, 317, 256
203, 262, 256, 234
204, 315, 229, 253
205, 306, 252, 246
206, 267, 237, 236
207, 388, 334, 332
208, 320, 319, 265
209, 319, 318, 262
210, 266, 236, 235
211, 317, 316, 266
212, 267, 264, 237
213, 267, 236, 266
214, 438, 392, 386
215, 268, 239, 238
216, 269, 258, 240
217, 269, 239, 268
218, 346, 301, 312
219, 270, 243, 242
220, 271, 209,  40
221, 281,  41,  42
222, 272,  42,  43
223, 333, 276, 285
224, 273, 215, 214
225, 282, 214, 213
226, 343, 280, 338
227, 280, 274, 216
228, 554, 275, 383
229, 284, 218, 217
230, 285,  44,  45
231, 333, 332, 276
232, 277, 213, 212
233, 287, 212, 198
234, 278, 198, 211
235, 283, 211, 210
236, 279, 210, 209
237, 344, 209, 271
238, 280, 216, 215
239, 375, 374, 320
240, 281, 271,  41
241, 281,  42, 272
242, 339, 282, 277
243, 282, 273, 214
244, 283, 278, 211
245, 283, 210, 279
246, 468, 466, 422
247, 341, 275, 284
248, 286, 285,  45
249, 303, 227, 226
250, 286,  45,  46
251, 303, 286, 227
252, 287, 277, 212
253, 287, 198, 278
254, 288, 220,  55
255, 293,  56,  57
256, 296, 225, 224
257, 296, 224, 290
258, 290, 224, 223
259, 291, 223, 222
260, 295, 221, 294
261, 511, 442, 411
262, 292,  57,  58
263, 356, 312, 328
264, 347, 292, 346
265, 293, 288,  56
266, 294, 221, 220
267, 326, 269, 322
268, 348, 291, 295
269, 295, 291, 222
270, 436, 435, 388
271, 296, 289, 225
272, 298, 297,  59
273, 301, 298, 244
274, 298,  59,  60
275, 301, 244, 243
276, 299, 208,  27
277, 299,  27,   3
278, 300, 199,  14
279, 451, 406, 449
280, 312, 301, 270
281, 301, 297, 298
282, 313, 254, 302
283, 302, 254, 255
284, 303, 285, 286
285, 303, 226, 289
286, 310, 304, 248
287, 407, 359, 406
288, 357, 354, 305
289, 305, 250, 245
290, 325, 321, 260
291, 308, 246, 251
292, 309, 249, 307
293, 307, 249, 247
294, 308, 306, 246
295, 309, 251, 249
296, 499, 448, 427
297, 363, 360, 309
298, 310, 248, 200
299, 362, 252, 306
300, 311, 206, 207
301, 355, 311, 204
302, 328, 270, 257
303, 447, 411, 442
304, 314, 228, 313
305, 313, 228, 254
306, 329, 259, 314
307, 314, 259, 228
308, 453, 357, 361
309, 315, 263, 229
310, 316, 267, 266
311, 317, 266, 256
312, 318, 256, 262
313, 371, 366, 316
314, 319, 262, 265
315, 420, 419, 373
316, 320, 265, 261
317, 394, 339, 331
318, 321, 261, 260
319, 422, 421, 374
320, 325, 260, 263
321, 502, 472, 471
322, 322, 269, 268
323, 324, 268, 264
324, 323, 264, 267
325, 519, 492, 518
326, 324, 322, 268
327, 324, 264, 323
328, 377, 263, 315
329, 360, 308, 309
330, 411, 369, 364
331, 326, 258, 269
332, 447, 401, 356
333, 327, 257, 258
334, 328, 312, 270
335, 328, 257, 327
336, 329, 253, 259
337, 403, 370, 313
338, 392, 344, 330
339, 330, 271, 281
340, 331, 277, 287
341, 335, 287, 278
342, 332, 272, 276
343, 351, 296, 350
344, 396, 303, 289
345, 443, 398, 397
346, 350, 290, 349
347, 334, 330, 281
348, 337, 278, 283
349, 460, 457, 415
350, 336, 283, 279
351, 381, 279, 344
352, 337, 335, 278
353, 337, 283, 336
354, 338, 280, 273
355, 340, 273, 282
356, 394, 331, 384
357, 374, 372, 319
358, 340, 338, 273
359, 340, 282, 339
360, 342, 284, 274
361, 342, 341, 284
362, 343, 342, 274
363, 408, 405, 360
364, 343, 274, 280
365, 382, 338, 380
366, 344, 279, 209
367, 344, 271, 330
368, 345, 294, 220
369, 353, 288, 293
370, 346, 292, 297
371, 346, 297, 301
372, 356, 347, 346
373, 347, 293, 292
374, 352, 295, 294
375, 352, 348, 295
376, 388, 332, 387
377, 349, 290, 291
378, 396, 387, 333
379, 350, 296, 290
380, 396, 351, 387
381, 351, 289, 296
382, 395, 294, 345
383, 365, 364, 326
384, 353, 345, 288
385, 353, 293, 347
386, 354, 302, 300
387, 354, 300, 250
388, 404, 204, 208
389, 448, 383, 427
390, 369, 328, 327
391, 412, 411, 364
392, 361, 305, 304
393, 359, 304, 310
394, 379, 377, 315
395, 358, 306, 308
396, 362, 359, 310
397, 409, 406, 362
398, 363, 309, 307
399, 393, 343, 382
400, 361, 357, 305
401, 361, 304, 359
402, 362, 310, 252
403, 409, 306, 358
404, 427, 383, 341
405, 390, 341, 342
406, 364, 327, 326
407, 365, 326, 322
408, 376, 322, 324
409, 458, 413, 457
410, 366, 323, 316
411, 371, 316, 317
412, 551, 523, 495
413, 367, 329, 314
414, 414, 368, 413
415, 368, 324, 323
416, 369, 356, 328
417, 369, 327, 364
418, 370, 314, 313
419, 453, 423, 370
420, 373, 317, 318
421, 419, 415, 371
422, 372, 318, 319
423, 374, 319, 320
424, 373, 371, 317
425, 373, 318, 372
426, 375, 320, 321
427, 466, 464, 421
428, 378, 321, 325
429, 426, 422, 375
430, 376, 365, 322
431, 376, 324, 368
432, 424, 379, 416
433, 377, 325, 263
434, 425, 325, 377
435, 408, 360, 363
436, 379, 315, 329
437, 423, 416, 367
438, 380, 338, 340
439, 391, 340, 339
440, 381, 336, 279
441, 392, 330, 386
442, 430, 382, 429
443, 382, 343, 338
444, 554, 383, 404
445, 448, 410, 418
446, 384, 331, 335
447, 385, 335, 337
448, 389, 337, 336
449, 415, 413, 366
450, 386, 330, 334
451, 397, 350, 349
452, 387, 332, 333
453, 398, 387, 351
454, 398, 351, 350
455, 388, 386, 334
456, 428, 336, 381
457, 434, 433, 385
458, 469, 427, 390
459, 393, 390, 342
460, 421, 420, 372
461, 391, 380, 340
462, 438, 437, 392
463, 392, 381, 344
464, 393, 342, 343
465, 547, 525, 546
466, 439, 384, 433
467, 510, 477, 507
468, 395, 352, 294
469, 402, 345, 353
470, 396, 333, 303
471, 396, 289, 351
472, 399, 349, 348
473, 400, 348, 352
474, 436, 387, 398
475, 398, 350, 397
476, 400, 399, 348
477, 478, 476, 437
478, 441, 352, 395
479, 511, 489, 484
480, 401, 353, 347
481, 447, 442, 401
482, 402, 395, 345
483, 402, 353, 401
484, 403, 313, 302
485, 403, 354, 357
486, 404, 355, 204
487, 554, 404, 208
488, 424, 377, 379
489, 405, 358, 360
490, 406, 359, 362
491, 452, 449, 409
492, 462, 453, 407
493, 407, 361, 359
494, 454, 363, 410
495, 432, 393, 430
496, 409, 362, 306
497, 452, 358, 405
498, 410, 363, 307
499, 418, 410, 307
500, 511, 411, 455
501, 412, 364, 365
502, 417, 365, 376
503, 484, 481, 441
504, 413, 368, 366
505, 415, 366, 371
506, 476, 470, 428
507, 414, 376, 368
508, 419, 371, 373
509, 493, 491, 457
510, 462, 461, 416
511, 416, 379, 367
512, 417, 412, 365
513, 417, 376, 414
514, 418, 307, 247
515, 448, 418, 355
516, 420, 373, 372
517, 463, 460, 419
518, 421, 372, 374
519, 522, 520, 494
520, 422, 374, 375
521, 440, 394, 439
522, 426, 375, 378
523, 431, 429, 380
524, 423, 367, 370
525, 453, 370, 357
526, 486, 449, 485
527, 425, 377, 424
528, 465, 425, 424
529, 425, 378, 325
530, 467, 378, 425
531, 540, 469, 432
532, 427, 341, 390
533, 499, 469, 454
534, 428, 389, 336
535, 437, 381, 392
536, 429, 382, 380
537, 431, 380, 391
538, 472, 430, 471
539, 430, 393, 382
540, 440, 391, 394
541, 500, 497, 466
542, 488, 454, 469
543, 432, 390, 393
544, 433, 384, 385
545, 434, 385, 389
546, 470, 389, 428
547, 552, 538, 543
548, 438, 386, 435
549, 435, 386, 388
550, 436, 388, 387
551, 443, 436, 398
552, 533, 508, 478
553, 437, 428, 381
554, 443, 435, 436
555, 479, 435, 443
556, 464, 463, 420
557, 439, 394, 384
558, 497, 496, 464
559, 440, 431, 391
560, 441, 400, 352
561, 446, 395, 402
562, 442, 402, 401
563, 455, 411, 412
564, 445, 397, 399
565, 445, 399, 444
566, 481, 400, 441
567, 543, 518, 542
568, 482, 479, 443
569, 445, 443, 397
570, 446, 441, 395
571, 446, 402, 442
572, 447, 356, 369
573, 447, 369, 411
574, 448, 355, 404
575, 448, 404, 383
576, 449, 406, 409
577, 487, 452, 405
578, 551, 515, 523
579, 450, 405, 408
580, 514, 462, 451
581, 451, 407, 406
582, 452, 409, 358
583, 487, 485, 452
584, 453, 361, 407
585, 462, 407, 451
586, 454, 408, 363
587, 499, 454, 410
588, 456, 412, 417
589, 456, 455, 412
590, 459, 417, 414
591, 490, 489, 456
592, 457, 413, 415
593, 460, 415, 419
594, 506, 503, 470
595, 458, 414, 413
596, 459, 456, 417
597, 459, 414, 458
598, 463, 419, 420
599, 494, 493, 460
600, 465, 424, 461
601, 461, 424, 416
602, 462, 416, 423
603, 462, 423, 453
604, 464, 420, 421
605, 477, 433, 474
606, 466, 421, 422
607, 480, 439, 477
608, 514, 495, 461
609, 467, 425, 465
610, 468, 422, 426
611, 475, 473, 431
612, 498, 467, 465
613, 467, 426, 378
614, 501, 426, 467
615, 473, 471, 429
616, 469, 390, 432
617, 540, 488, 469
618, 470, 434, 389
619, 476, 428, 437
620, 471, 430, 429
621, 473, 429, 431
622, 540, 521, 488
623, 472, 432, 430
624, 475, 431, 440
625, 504, 502, 471
626, 474, 433, 434
627, 503, 434, 470
628, 480, 440, 439
629, 559, 558, 526
630, 478, 437, 438
631, 553, 542, 544
632, 496, 494, 463
633, 477, 439, 433
634, 479, 478, 438
635, 483, 482, 445
636, 479, 438, 435
637, 482, 443, 445
638, 536, 510, 535
639, 480, 475, 440
640, 481, 444, 400
641, 484, 441, 446
642, 483, 445, 444
643, 533, 479, 482
644, 508, 506, 476
645, 512, 444, 481
646, 511, 484, 446
647, 489, 455, 456
648, 485, 449, 452
649, 546, 515, 541
650, 514, 486, 495
651, 486, 451, 449
652, 487, 405, 450
653, 550, 521, 502
654, 488, 450, 408
655, 488, 408, 454
656, 513, 484, 489
657, 490, 456, 459
658, 492, 459, 458
659, 539, 538, 513
660, 491, 458, 457
661, 493, 457, 460
662, 492, 490, 459
663, 492, 458, 491
664, 494, 460, 463
665, 555, 531, 544
666, 496, 463, 464
667, 520, 517, 493
668, 498, 465, 495
669, 495, 465, 461
670, 497, 464, 466
671, 510, 509, 480
672, 500, 466, 468
673, 509, 505, 475
674, 516, 515, 487
675, 501, 467, 498
676, 499, 410, 448
677, 499, 427, 469
678, 527, 468, 501
679, 505, 504, 473
680, 501, 468, 426
681, 525, 498, 523
682, 521, 516, 450
683, 504, 471, 473
684, 503, 474, 434
685, 506, 470, 476
686, 505, 473, 475
687, 527, 501, 525
688, 509, 475, 480
689, 534, 530, 505
690, 508, 476, 478
691, 518, 491, 517
692, 507, 477, 474
693, 528, 474, 503
694, 533, 478, 479
695, 552, 549, 537
696, 510, 480, 477
697, 526, 524, 497
698, 556, 522, 524
699, 524, 522, 496
700, 511, 446, 442
701, 511, 455, 489
702, 512, 483, 444
703, 513, 512, 481
704, 513, 481, 484
705, 539, 489, 490
706, 514, 461, 462
707, 514, 451, 486
708, 550, 541, 516
709, 515, 485, 487
710, 516, 487, 450
711, 550, 529, 541
712, 517, 491, 493
713, 520, 493, 494
714, 532, 531, 506
715, 518, 492, 491
716, 539, 519, 538
717, 519, 490, 492
718, 522, 494, 496
719, 555, 545, 535
720, 521, 450, 488
721, 521, 472, 502
722, 524, 496, 497
723, 556, 545, 522
724, 523, 498, 495
725, 551, 495, 486
726, 526, 497, 500
727, 556, 536, 535
728, 547, 546, 541
729, 525, 501, 498
730, 548, 500, 527
731, 558, 536, 556
732, 557, 548, 547
733, 527, 500, 468
734, 528, 507, 474
735, 531, 503, 506
736, 529, 502, 504
737, 530, 529, 504
738, 530, 504, 505
739, 548, 527, 547
740, 532, 506, 508
741, 553, 544, 531
742, 549, 508, 533
743, 553, 543, 542
744, 533, 482, 483
745, 537, 533, 483
746, 534, 505, 509
747, 536, 509, 510
748, 535, 510, 507
749, 555, 507, 528
750, 558, 556, 524
751, 536, 534, 509
752, 537, 483, 512
753, 538, 537, 512
754, 538, 512, 513
755, 543, 538, 519
756, 539, 513, 489
757, 539, 490, 519
758, 540, 432, 472
759, 540, 472, 521
760, 547, 541, 529
761, 541, 515, 516
762, 542, 518, 517
763, 544, 542, 517
764, 552, 532, 549
765, 543, 519, 518
766, 544, 517, 520
767, 545, 544, 520
768, 545, 520, 522
769, 555, 535, 507
770, 546, 525, 523
771, 546, 523, 515
772, 557, 529, 530
773, 547, 527, 525
774, 559, 557, 530
775, 548, 526, 500
776, 549, 532, 508
777, 549, 533, 537
778, 550, 516, 521
779, 550, 502, 529
780, 551, 486, 485
781, 551, 485, 515
782, 552, 537, 538
783, 553, 552, 543
784, 553, 531, 532
785, 553, 532, 552
786, 554, 208, 299
787, 554, 299, 219
788, 555, 528, 531
789, 555, 544, 545
790, 556, 535, 545
791, 558, 524, 526
792, 557, 547, 529
793, 559, 530, 534
794, 559, 526, 548
795, 558, 534, 536
796, 559, 548, 557
797, 559, 534, 558
 798, 594,   2,  24
 799, 611, 573, 569
 800, 610, 609, 572
 801, 643, 112, 113
 802, 620, 616, 578
 803,  13,   1,  83
 804, 561,  13,  83
 805, 582,  85, 581
 806, 562,  15,  14
 807, 563,  16,  15
 808, 597,  17,  16
 809, 600,  18,  17
 810, 595,  19,  18
 811, 615, 614, 574
 812, 560,  22,  21
 813, 566,  22, 560
 814, 567,  23, 566
 815,  97,   6,  98
 816, 591,  98,  99
 817, 667, 666, 631
 818, 613,  95,  96
 819, 612,  94, 583
 820, 612,  93,  94
 821, 693, 619, 653
 822, 773, 751, 767
 823, 651, 564, 595
 824, 578,  89, 577
 825, 579,  88, 578
 826, 638, 600, 637
 827, 616, 579, 578
 828, 714, 713, 680
 829, 674,  83,  84
 830, 112, 111,   7
 831, 643, 625, 111
 832, 671, 625, 643
 833, 623, 109, 110
 834, 627, 624, 106
 835, 628, 627, 107
 836, 624, 585, 105
 837, 624, 105, 106
 838, 619, 615, 576
 839, 587, 103, 586
 840, 588, 102, 587
 841, 589, 101, 588
 842, 590, 100, 589
 843, 591,  99, 590
 844, 736, 716, 688
 845, 644, 115, 607
 846, 607, 115, 116
 847, 608, 117, 571
 848, 571, 117, 118
 849, 603, 119, 568
 850, 568, 119, 120
 851, 683, 650, 678
 852, 573, 122, 569
 853, 573, 572, 121
 854, 570, 123, 124
 855, 570, 569, 123
 856, 604,   8, 125
 857, 594, 593, 127
 858, 601, 565, 596
 859, 565,  21,  20
 860, 562,  14, 561
 861, 561,  14,  13
 862, 581,  86, 580
 863, 563,  15, 562
 864, 580,  87, 579
 865, 597,  16, 563
 866, 564,  20,  19
 867, 577,  90, 574
 868, 565, 560,  21
 869, 565,  20, 564
 870, 742, 676, 724
 871, 566,  23,  22
 872, 635, 594, 567
 873, 567,  24,  23
 874, 572, 120, 121
 875, 652, 605, 570
 876, 569, 122, 123
 877, 652, 604, 592
 878, 604, 570, 124
 879, 592, 125, 126
 880, 628, 108, 584
 881, 603, 118, 119
 882, 572, 568, 120
 883, 573, 121, 122
 884, 676, 593, 635
 885, 642, 602, 641
 886, 574,  90,  91
 887, 576,  91,  92
 888, 575,  92,  93
 889, 586, 104, 585
 890, 576, 574,  91
 891, 576,  92, 575
 892, 620, 577, 614
 893, 577,  89,  90
 894, 617, 579, 616
 895, 578,  88,  89
 896, 633, 598, 562
 897, 579,  87,  88
 898, 674, 633, 561
 899, 580,  86,  87
 900, 621, 582, 581
 901, 581,  85,  86
 902, 674, 582, 633
 903, 582,  84,  85
 904, 583,  94,  95
 905, 630, 586, 626
 906, 584, 108, 109
 907, 688, 607, 639
 908, 585, 104, 105
 909, 807, 806, 804
 910, 626, 586, 585
 911, 586, 103, 104
 912, 685, 673, 666
 913, 587, 102, 103
 914, 631, 588, 629
 915, 588, 101, 102
 916, 632, 589, 631
 917, 589, 100, 101
 918, 634, 591, 590
 919, 590,  99, 100
 920, 622,  97, 591
 921, 591,  97,  98
 922, 593, 592, 126
 923, 676, 599, 642
 924, 593, 126, 127
 925, 599, 567, 566
 926, 594, 127,   2
 927, 594,  24, 567
 928, 595, 564,  19
 929, 648, 637, 597
 930, 610, 572, 573
 931, 596, 565, 564
 932, 648, 563, 598
 933, 701, 657, 698
 934, 598, 563, 562
 935, 618, 580, 617
 936, 602, 566, 560
 937, 682, 641, 681
 938, 600, 595,  18
 939, 600,  17, 597
 940, 601, 560, 565
 941, 640, 601, 596
 942, 602, 599, 566
 943, 602, 560, 601
 944, 603, 571, 118
 945, 636, 568, 609
 946, 604, 124,   8
 947, 604, 125, 592
 948, 611, 569, 605
 949, 605, 569, 570
 950, 606, 113, 114
 951, 644, 114, 115
 952, 608, 116, 117
 953, 608, 607, 116
 954, 649, 639, 608
 955, 665, 584, 664
 956, 656, 655, 614
 957, 609, 568, 572
 958, 611, 610, 573
 959, 641, 601, 640
 960, 681, 641, 640
 961, 726, 652, 675
 962, 612, 575,  93
 963, 705, 666, 667
 964, 613, 583,  95
 965, 622, 613,  96
 966, 614, 577, 574
 967, 615, 574, 576
 968, 619, 576, 575
 969, 630, 629, 587
 970, 658, 616, 657
 971, 620, 578, 577
 972, 659, 617, 658
 973, 617, 580, 579
 974, 660, 618, 659
 975, 618, 581, 580
 976, 653, 575, 612
 977, 629, 588, 587
 978, 655, 620, 614
 979, 657, 620, 655
 980, 692, 633, 621
 981, 621, 581, 618
 982, 622,  96,  97
 983, 634, 622, 591
 984, 623, 584, 109
 985, 625, 623, 110
 986, 627, 106, 107
 987, 650, 603, 636
 988, 625, 110, 111
 989, 643, 111, 112
 990, 662, 585, 624
 991, 719, 683, 718
 992, 639, 607, 608
 993, 797, 781, 748
 994, 628, 107, 108
 995, 716, 671, 606
 996, 685, 661, 673
 997, 630, 587, 586
 998, 756, 737, 732
 999, 668, 667, 629
1000, 661, 613, 634
1001, 631, 589, 588
1002, 673, 634, 632
1003, 632, 590, 589
1004, 633, 562, 561
1005, 633, 582, 621
1006, 634, 613, 622
1007, 634, 590, 632
1008, 635, 593, 594
1009, 635, 567, 599
1010, 636, 603, 568
1011, 689, 609, 646
1012, 701, 699, 658
1013, 637, 600, 597
1014, 679, 651, 638
1015, 638, 595, 600
1016, 687, 649, 683
1017, 649, 608, 571
1018, 647, 610, 611
1019, 691, 596, 651
1020, 647, 646, 610
1021, 641, 602, 601
1022, 726, 605, 652
1023, 642, 599, 602
1024, 643, 113, 606
1025, 671, 643, 606
1026, 671, 664, 623
1027, 644, 606, 114
1028, 647, 611, 645
1029, 645, 611, 605
1030, 656, 615, 654
1031, 646, 609, 610
1032, 715, 682, 681
1033, 686, 684, 647
1034, 648, 597, 563
1035, 697, 660, 659
1036, 650, 571, 603
1037, 650, 649, 571
1038, 718, 678, 712
1039, 678, 650, 636
1040, 651, 596, 564
1041, 651, 595, 638
1042, 652, 570, 604
1043, 675, 652, 592
1044, 653, 619, 575
1045, 663, 612, 583
1046, 654, 615, 619
1047, 764, 762, 737
1048, 698, 655, 695
1049, 656, 614, 615
1050, 696, 695, 656
1051, 795, 754, 762
1052, 747, 714, 731
1053, 657, 616, 620
1054, 690, 677, 648
1055, 658, 617, 616
1056, 692, 690, 598
1057, 659, 618, 617
1058, 692, 660, 690
1059, 660, 621, 618
1060, 661, 583, 613
1061, 666, 632, 631
1062, 662, 626, 585
1063, 670, 624, 627
1064, 663, 653, 612
1065, 663, 583, 661
1066, 784, 721, 750
1067, 664, 584, 623
1068, 672, 628, 665
1069, 665, 628, 584
1070, 685, 663, 661
1071, 667, 631, 629
1072, 668, 629, 630
1073, 732, 727, 693
1074, 669, 630, 626
1075, 669, 668, 630
1076, 694, 626, 662
1077, 746, 712, 744
1078, 670, 662, 624
1079, 672, 670, 627
1080, 671, 623, 625
1081, 716, 703, 671
1082, 672, 627, 628
1083, 748, 718, 746
1084, 673, 661, 634
1085, 673, 632, 666
1086, 674, 561,  83
1087, 674,  84, 582
1088, 710, 592, 593
1089, 753, 682, 715
1090, 676, 635, 599
1091, 724, 642, 682
1092, 680, 637, 677
1093, 677, 637, 648
1094, 689, 678, 636
1095, 722, 712, 689
1096, 711, 691, 679
1097, 680, 679, 638
1098, 680, 638, 637
1099, 717, 690, 660
1100, 686, 647, 645
1101, 723, 640, 691
1102, 742, 725, 726
1103, 682, 642, 641
1104, 704, 665, 664
1105, 683, 649, 650
1106, 790, 770, 788
1107, 684, 646, 647
1108, 756, 732, 700
1109, 700, 663, 685
1110, 771, 752, 725
1111, 776, 753, 715
1112, 704, 664, 703
1113, 687, 639, 649
1114, 688, 644, 607
1115, 721, 639, 687
1116, 689, 636, 609
1117, 722, 646, 684
1118, 690, 648, 598
1119, 717, 660, 697
1120, 691, 640, 596
1121, 691, 651, 679
1122, 692, 598, 633
1123, 692, 621, 660
1124, 693, 654, 619
1125, 700, 693, 653
1126, 694, 669, 626
1127, 708, 662, 670
1128, 695, 655, 656
1129, 696, 656, 654
1130, 727, 654, 693
1131, 707, 706, 668
1132, 699, 659, 658
1133, 701, 658, 657
1134, 734, 701, 733
1135, 698, 657, 655
1136, 713, 711, 679
1137, 699, 697, 659
1138, 700, 653, 663
1139, 705, 685, 666
1140, 745, 743, 711
1141, 733, 698, 730
1142, 709, 672, 702
1143, 702, 672, 665
1144, 703, 664, 671
1145, 721, 688, 639
1146, 784, 763, 738
1147, 704, 702, 665
1148, 706, 667, 668
1149, 706, 705, 667
1150, 707, 668, 669
1151, 762, 754, 727
1152, 728, 669, 694
1153, 803, 788, 802
1154, 708, 694, 662
1155, 709, 708, 670
1156, 709, 670, 672
1157, 772, 746, 770
1158, 710, 675, 592
1159, 710, 593, 676
1160, 743, 723, 711
1161, 713, 679, 680
1162, 712, 678, 689
1163, 749, 744, 722
1164, 714, 680, 677
1165, 731, 714, 717
1166, 717, 714, 677
1167, 731, 697, 699
1168, 752, 686, 725
1169, 751, 681, 723
1170, 716, 606, 644
1171, 716, 644, 688
1172, 717, 677, 690
1173, 731, 717, 697
1174, 738, 702, 704
1175, 718, 683, 678
1176, 738, 704, 736
1177, 719, 687, 683
1178, 730, 695, 729
1179, 720, 684, 686
1180, 736, 688, 721
1181, 750, 687, 719
1182, 722, 689, 646
1183, 749, 684, 720
1184, 723, 681, 640
1185, 723, 691, 711
1186, 742, 710, 676
1187, 724, 676, 642
1188, 725, 686, 645
1189, 726, 725, 645
1190, 726, 645, 605
1191, 742, 726, 675
1192, 727, 696, 654
1193, 732, 693, 700
1194, 728, 707, 669
1195, 741, 694, 708
1196, 729, 695, 696
1197, 754, 696, 727
1198, 759, 730, 757
1199, 730, 698, 695
1200, 734, 699, 701
1201, 733, 701, 698
1202, 756, 700, 685
1203, 737, 705, 706
1204, 769, 743, 745
1205, 802, 801, 798
1206, 765, 733, 759
1207, 734, 731, 699
1208, 739, 709, 735
1209, 735, 709, 702
1210, 736, 704, 703
1211, 736, 703, 716
1212, 740, 706, 707
1213, 740, 737, 706
1214, 784, 736, 721
1215, 738, 735, 702
1216, 770, 744, 768
1217, 739, 708, 709
1218, 755, 707, 728
1219, 800, 795, 778
1220, 741, 728, 694
1221, 741, 708, 739
1222, 742, 675, 710
1223, 771, 742, 724
1224, 769, 767, 743
1225, 745, 711, 713
1226, 744, 712, 722
1227, 802, 789, 801
1228, 747, 745, 713
1229, 765, 760, 734
1230, 763, 758, 735
1231, 746, 718, 712
1232, 747, 713, 714
1233, 760, 731, 734
1234, 781, 763, 775
1235, 748, 719, 718
1236, 749, 722, 684
1237, 786, 769, 783
1238, 750, 721, 687
1239, 775, 719, 748
1240, 751, 715, 681
1241, 751, 723, 743
1242, 771, 753, 752
1243, 752, 720, 686
1244, 753, 724, 682
1245, 776, 715, 773
1246, 754, 729, 696
1247, 762, 727, 732
1248, 755, 740, 707
1249, 766, 728, 741
1250, 756, 685, 705
1251, 756, 705, 737
1252, 757, 730, 729
1253, 777, 729, 754
1254, 761, 739, 758
1255, 758, 739, 735
1256, 791, 747, 760
1257, 759, 733, 730
1258, 760, 747, 731
1259, 765, 734, 733
1260, 766, 741, 761
1261, 761, 741, 739
1262, 762, 732, 737
1263, 764, 737, 740
1264, 763, 735, 738
1265, 784, 775, 763
1266, 778, 740, 755
1267, 795, 762, 764
1268, 798, 783, 780
1269, 791, 769, 745
1270, 797, 790, 796
1271, 766, 755, 728
1272, 787, 767, 786
1273, 767, 751, 743
1274, 768, 744, 749
1275, 774, 749, 720
1276, 791, 745, 747
1277, 783, 759, 780
1278, 806, 790, 803
1279, 770, 746, 744
1280, 771, 725, 742
1281, 771, 724, 753
1282, 781, 779, 758
1283, 772, 748, 746
1284, 793, 776, 773
1285, 773, 715, 751
1286, 774, 768, 749
1287, 793, 792, 776
1288, 775, 750, 719
1289, 797, 748, 772
1290, 792, 752, 776
1291, 776, 752, 753
1292, 782, 766, 761
1293, 777, 757, 729
1294, 778, 764, 740
1295, 785, 755, 766
1296, 782, 761, 779
1297, 779, 761, 758
1298, 780, 759, 757
1299, 794, 757, 777
1300, 781, 758, 763
1301, 781, 775, 748
1302, 799, 782, 796
1303, 785, 766, 782
1304, 791, 783, 769
1305, 783, 765, 759
1306, 784, 738, 736
1307, 784, 750, 775
1308, 807, 805, 800
1309, 785, 778, 755
1310, 793, 789, 774
1311, 786, 767, 769
1312, 793, 787, 789
1313, 787, 773, 767
1314, 788, 770, 768
1315, 789, 788, 768
1316, 789, 768, 774
1317, 801, 786, 798
1318, 804, 803, 802
1319, 790, 772, 770
1320, 791, 760, 765
1321, 791, 765, 783
1322, 792, 774, 720
1323, 792, 720, 752
1324, 793, 774, 792
1325, 793, 773, 787
1326, 794, 780, 757
1327, 805, 777, 795
1328, 795, 777, 754
1329, 795, 764, 778
1330, 796, 782, 779
1331, 797, 796, 779
1332, 797, 779, 781
1333, 797, 772, 790
1334, 798, 786, 783
1335, 804, 780, 794
1336, 807, 804, 794
1337, 799, 785, 782
1338, 800, 778, 785
1339, 800, 785, 799
1340, 801, 789, 787
1341, 801, 787, 786
1342, 804, 802, 798
1343, 802, 788, 789
1344, 806, 803, 804
1345, 803, 790, 788
1346, 804, 798, 780
1347, 807, 794, 805
1348, 805, 794, 777
1349, 805, 795, 800
1350, 806, 799, 796
1351, 806, 796, 790
1352, 807, 800, 799
1353, 807, 799, 806
1354,  808,    9,  128
1355,  955,  953,  926
1356,  855,  168,  169
1357,  837,   42,   41
1358,  823,   38,   37
1359,  134,   10,  135
1360,  831,  135,  136
1361,  857,  830,  829
1362,  901,  899,  132
1363,  899,  131,  132
1364,  813,  130,  812
1365,  814,  128,  129
1366,  156,   11,  157
1367,  836,  157,  158
1368,  930,  876,  881
1369,  858,  856,  154
1370,  856,  153,  154
1371,  859,  816,  815
1372,  877,  875,  163
1373,  817,   45,   44
1374,  818,   45,  817
1375,  819,   43,  810
1376,  820,  151,  816
1377,  942,  888,  941
1378,  839,  149,  838
1379,  938,  895,  934
1380,  846,   35,   34
1381,  847,  846,   34
1382,  850,  849,   32
1383,  827,  140,  826
1384,  828,  139,  827
1385,  829,  138,  828
1386,  830,  137,  829
1387,  831,  136,  830
1388,  166,    4,   46
1389,  883,  880,  878
1390,  878,  166,   46
1391, 1018,  986,  985
1392,  875,  832,  162
1393,  875,  162,  163
1394,  833,  161,  832
1395,  834,  160,  833
1396,  835,  159,  834
1397,  836,  158,  835
1398,  869,  820,  865
1399,  838,  150,  820
1400,  860,  839,  838
1401,  840,   39,  811
1402,  841,  147,  822
1403,  861,  842,  841
1404,  843,   36,  824
1405,  842,  146,  841
1406,  862,  842,  861
1407,  896,  847,  885
1408,  849,  847,   33
1409,  848,  142,  825
1410, 1007, 1006,  974
1411,  851,  850,   31
1412,  924,  874,  914
1413, 1023,  909, 1020
1414,  854,  853,   28
1415,  907,  854,  809
1416,  854,    3,  167
1417,  855,  169,  808
1418,  808,  169,    9
1419,  813,  129,  130
1420,  852,  851,   30
1421,  809,  167,  168
1422,  816,  152,  815
1423,  810,   43,   42
1424,  871,  822,  870
1425,  811,   39,   38
1426,  812,  130,  131
1427,  947,  890,  908
1428,  950,  812,  899
1429,  814,  129,  813
1430,  903,  813,  900
1431,  814,  808,  128
1432,  815,  152,  153
1433,  879,  833,  832
1434,  837,   41,  821
1435,  816,  151,  152
1436,  883,  878,  818
1437,  819,  817,   44
1438,  878,   46,  818
1439,  818,   46,   45
1440,  819,   44,   43
1441,  929,  877,  880
1442,  865,  816,  859
1443,  820,  150,  151
1444,  821,   41,   40
1445,  840,  821,   40
1446,  822,  147,  148
1447,  839,  148,  149
1448,  823,  811,   38
1449,  843,   37,   36
1450,  844,  145,  842
1451,  824,   36,   35
1452,  825,  142,  143
1453,  845,  143,  144
1454,  826,  140,  141
1455,  848,  826,  141
1456,  984,  974,  949
1457,  827,  139,  140
1458,  867,  829,  828
1459,  828,  138,  139
1460,  952,  904,  910
1461,  829,  137,  138
1462,  904,  830,  857
1463,  830,  136,  137
1464,  902,  134,  831
1465,  831,  134,  135
1466,  832,  161,  162
1467,  954,  911,  933
1468, 1004,  922,  971
1469,  833,  160,  161
1470,  933,  905,  876
1471,  834,  159,  160
1472,  876,  835,  834
1473,  835,  158,  159
1474,  868,  156,  836
1475,  836,  156,  157
1476, 1040,  969,  987
1477,  837,  810,   42
1478,  838,  149,  150
1479,  865,  820,  816
1480,  870,  839,  860
1481,  839,  822,  148
1482,  840,   40,   39
1483,  983,  941,  982
1484,  841,  146,  147
1485,  870,  822,  839
1486,  872,  844,  862
1487,  842,  145,  146
1488,  843,  823,   37
1489,  997,  996,  958
1490,  845,  144,  844
1491,  844,  144,  145
1492,  896,  889,  846
1493,  845,  825,  143
1494,  846,  824,   35
1495,  847,   34,   33
1496,  849,   33,   32
1497,  962,  913,  959
1498,  848,  141,  142
1499,  873,  825,  863
1500,  850,   32,   31
1501, 1008,  973, 1006
1502,  851,   31,   30
1503,  946,  935,  897
1504,  852,   30,   29
1505,  909,  855,  906
1506,  853,  852,   29
1507,  898,  852,  890
1508,  853,   29,   28
1509,  907,  890,  853
1510,  854,   28,    3
1511,  854,  167,  809
1512,  855,  809,  168
1513,  906,  808,  814
1514,  856,  815,  153
1515,  858,  154,  155
1516,  866,  827,  864
1517,  953,  910,  926
1518,  868,  858,  155
1519,  905,  836,  835
1520,  927,  815,  856
1521,  894,  837,  884
1522,  869,  838,  820
1523,  893,  823,  882
1524,  871,  841,  822
1525,  960,  958,  915
1526,  915,  861,  912
1527,  862,  844,  842
1528,  863,  825,  845
1529,  872,  863,  845
1530,  864,  827,  826
1531,  874,  826,  848
1532,  922,  921,  865
1533,  921,  919,  869
1534,  923,  867,  866
1535,  866,  828,  827
1536,  867,  857,  829
1537,  867,  828,  866
1538,  868,  155,  156
1539,  905,  868,  836
1540,  966,  961,  919
1541,  869,  860,  838
1542,  893,  888,  811
1543,  920,  860,  919
1544,  918,  912,  871
1545,  871,  861,  841
1546,  872,  845,  844
1547,  915,  862,  861
1548,  873,  848,  825
1549,  917,  863,  913
1550,  874,  864,  826
1551,  874,  848,  873
1552,  877,  163,  164
1553,  985,  943,  976
1554,  911,  858,  905
1555,  881,  834,  833
1556,  880,  164,  165
1557,  929,  928,  877
1558,  878,  165,  166
1559,  883,  818,  817
1560,  932,  832,  875
1561,  894,  887,  810
1562,  880,  877,  164
1563,  880,  165,  878
1564,  881,  876,  834
1565,  881,  833,  879
1566,  882,  823,  843
1567,  895,  843,  824
1568,  892,  817,  819
1569,  892,  819,  887
1570,  884,  837,  821
1571,  891,  821,  840
1572,  885,  847,  849
1573,  897,  849,  850
1574,  886,  850,  851
1575,  898,  851,  852
1576,  887,  819,  810
1577,  894,  810,  837
1578,  888,  840,  811
1579,  893,  811,  823
1580,  889,  824,  846
1581,  896,  846,  847
1582,  890,  852,  853
1583, 1023,  809,  855
1584,  891,  884,  821
1585,  891,  840,  888
1586,  945,  887,  944
1587,  892,  883,  817
1588,  940,  882,  938
1589,  941,  893,  940
1590,  943,  884,  939
1591,  944,  894,  943
1592,  895,  882,  843
1593,  895,  824,  889
1594,  936,  885,  935
1595, 1009,  981, 1008
1596,  897,  885,  849
1597,  897,  850,  886
1598,  957,  924,  956
1599,  898,  886,  851
1600,  899,  812,  131
1601,  901,  132,  133
1602, 1046, 1041, 1045
1603,  900,  813,  812
1604,  902,  901,  133
1605,  904,  902,  831
1606,  902,  133,  134
1607,  904,  831,  830
1608,  909,  906,  903
1609,  903,  814,  813
1610,  910,  904,  857
1611,  904,  901,  902
1612,  905,  858,  868
1613,  905,  835,  876
1614,  906,  855,  808
1615,  906,  814,  903
1616,  907,  853,  854
1617,  908,  907,  809
1618,  989,  909,  951
1619,  908,  890,  907
1620,  951,  903,  900
1621, 1022,  993, 1021
1622,  953,  952,  910
1623,  926,  857,  867
1624,  954,  933,  930
1625,  911,  856,  858
1626,  912,  861,  871
1627,  918,  871,  870
1628,  913,  863,  872
1629,  916,  872,  862
1630,  914,  874,  873
1631,  917,  914,  873
1632, 1057, 1030, 1031
1633,  979,  977,  937
1634,  916,  913,  872
1635,  916,  862,  915
1636,  917,  873,  863
1637,  959,  916,  958
1638,  920,  870,  860
1639, 1057, 1056, 1030
1640,  919,  860,  869
1641,  921,  869,  865
1642,  965,  964,  918
1643,  920,  918,  870
1644,  922,  865,  859
1645,  967,  966,  921
1646,  971,  859,  927
1647,  931,  930,  881
1648, 1022,  953,  955
1649,  925,  866,  864
1650,  924,  864,  874
1651,  991,  990,  956
1652,  925,  923,  866
1653,  925,  864,  924
1654,  926,  910,  857
1655,  926,  867,  923
1656,  927,  859,  815
1657,  927,  856,  911
1658,  987,  928,  929
1659,  928,  875,  877
1660,  929,  880,  883
1661,  948,  883,  892
1662,  931,  881,  879
1663,  970,  930,  931
1664,  972,  879,  932
1665, 1047, 1036, 1042
1666,  932,  879,  832
1667,  932,  875,  928
1668,  933,  911,  905
1669,  933,  876,  930
1670,  934,  895,  889
1671,  937,  889,  896
1672,  935,  885,  897
1673,  946,  897,  886
1674,  996,  994,  959
1675,  936,  896,  885
1676,  937,  934,  889
1677,  937,  896,  936
1678,  964,  960,  912
1679,  938,  882,  895
1680,  939,  884,  891
1681,  942,  891,  888
1682,  965,  920,  961
1683,  940,  893,  882
1684,  982,  940,  980
1685,  941,  888,  893
1686, 1001, 1000,  961
1687,  942,  939,  891
1688,  986,  945,  944
1689,  943,  894,  884
1690,  987,  929,  948
1691,  944,  887,  894
1692,  987,  969,  928
1693,  945,  892,  887
1694,  949,  886,  898
1695,  974,  973,  946
1696,  947,  898,  890
1697, 1044, 1020,  989
1698,  948,  929,  883
1699,  948,  892,  945
1700,  949,  946,  886
1701,  949,  898,  947
1702,  950,  900,  812
1703,  952,  950,  899
1704,  951,  909,  903
1705,  988,  900,  950
1706,  952,  899,  901
1707,  952,  901,  904
1708,  953,  950,  952
1709,  955,  926,  923
1710, 1037, 1004,  971
1711,  954,  927,  911
1712,  968,  923,  925
1713,  992,  957,  990
1714,  956,  924,  914
1715,  963,  914,  917
1716, 1025,  990, 1024
1717,  957,  925,  924
1718,  958,  916,  915
1719,  960,  915,  912
1720,  981,  935,  973
1721,  959,  913,  916
1722,  964,  912,  918
1723,  978,  934,  977
1724,  961,  920,  919
1725,  966,  919,  921
1726, 1053, 1051, 1027
1727,  962,  917,  913
1728,  963,  956,  914
1729,  963,  917,  962
1730,  965,  918,  920
1731,  980,  938,  978
1732, 1015, 1014,  983
1733, 1054, 1032, 1052
1734,  967,  921,  922
1735, 1002, 1001,  966
1736, 1037,  971,  954
1737,  976,  939,  975
1738,  968,  955,  923
1739,  968,  925,  957
1740, 1017,  976, 1016
1741,  969,  932,  928
1742,  970,  954,  930
1743, 1005,  931,  972
1744,  971,  922,  859
1745,  971,  927,  954
1746,  972,  931,  879
1747,  972,  932,  969
1748,  973,  935,  946
1749,  974,  946,  949
1750,  984,  949,  947
1751, 1051, 1024, 1027
1752,  975,  939,  942
1753,  983,  942,  941
1754, 1038, 1037,  970
1755,  976,  943,  939
1756,  977,  934,  937
1757,  979,  937,  936
1758,  998,  997,  960
1759,  978,  938,  934
1760,  981,  979,  936
1761, 1056, 1055, 1029
1762,  999,  998,  964
1763,  980,  940,  938
1764,  981,  936,  935
1765, 1051, 1050, 1024
1766, 1000,  999,  965
1767,  982,  941,  940
1768, 1049, 1047, 1014
1769,  983,  975,  942
1770, 1045, 1041, 1044
1771, 1045, 1021, 1026
1772, 1047, 1042, 1016
1773,  985,  944,  943
1774, 1040, 1003,  969
1775,  986,  944,  985
1776,  987,  948,  945
1777,  987,  945,  986
1778,  988,  951,  900
1779,  988,  950,  953
1780, 1020, 1019,  908
1781, 1021,  951,  988
1782,  990,  957,  956
1783,  991,  956,  963
1784,  995,  963,  962
1785, 1053, 1027, 1028
1786, 1026,  992, 1025
1787,  992,  968,  957
1788,  993,  955,  968
1789,  993,  968,  992
1790,  994,  962,  959
1791,  996,  959,  958
1792,  995,  991,  963
1793,  995,  962,  994
1794,  997,  958,  960
1795, 1011,  979, 1009
1796,  998,  960,  964
1797, 1057, 1054, 1012
1798,  999,  964,  965
1799, 1012,  978, 1010
1800, 1000,  965,  961
1801, 1013,  980, 1012
1802, 1001,  961,  966
1803, 1015,  982, 1013
1804, 1002,  966,  967
1805, 1047, 1016, 1014
1806, 1039,  967, 1004
1807, 1016,  975, 1014
1808, 1035, 1003, 1018
1809, 1003,  972,  969
1810, 1038, 1005, 1035
1811, 1004,  967,  922
1812, 1005,  970,  931
1813, 1005,  972, 1003
1814, 1006,  973,  974
1815, 1007,  974,  984
1816, 1041,  984, 1019
1817, 1050, 1046, 1025
1818, 1055, 1028, 1029
1819, 1008,  981,  973
1820, 1056, 1029, 1030
1821, 1009,  979,  981
1822, 1010,  978,  977
1823, 1011, 1010,  977
1824, 1011,  977,  979
1825, 1055, 1053, 1028
1826, 1054, 1052, 1013
1827, 1012,  980,  978
1828, 1052, 1049, 1015
1829, 1013,  982,  980
1830, 1014,  975,  983
1831, 1015,  983,  982
1832, 1052, 1033, 1049
1833, 1049, 1034, 1047
1834, 1048, 1035, 1043
1835, 1016,  976,  975
1836, 1043, 1018, 1017
1837, 1017,  985,  976
1838, 1040, 1018, 1003
1839, 1018,  985, 1017
1840, 1019,  984,  947
1841, 1019,  947,  908
1842, 1023, 1020,  908
1843, 1020,  909,  989
1844, 1021,  989,  951
1845, 1022, 1021,  988
1846, 1022,  988,  953
1847, 1022,  955,  993
1848, 1023,  908,  809
1849, 1023,  855,  909
1850, 1024,  990,  991
1851, 1027, 1024,  991
1852, 1046, 1026, 1025
1853, 1025,  992,  990
1854, 1026, 1021,  993
1855, 1026,  993,  992
1856, 1027,  991,  995
1857, 1028, 1027,  995
1858, 1028,  995,  994
1859, 1029, 1028,  994
1860, 1029,  994,  996
1861, 1030, 1029,  996
1862, 1030,  996,  997
1863, 1031, 1030,  997
1864, 1031,  997,  998
1865, 1032, 1031,  998
1866, 1032,  998,  999
1867, 1033, 1032,  999
1868, 1033,  999, 1000
1869, 1034, 1033, 1000
1870, 1034, 1000, 1001
1871, 1036, 1034, 1001
1872, 1039, 1038, 1035
1873, 1035, 1005, 1003
1874, 1036, 1001, 1002
1875, 1048, 1036, 1002
1876, 1037,  954,  970
1877, 1038,  970, 1005
1878, 1048, 1043, 1042
1879, 1038, 1004, 1037
1880, 1039, 1002,  967
1881, 1039, 1004, 1038
1882, 1040,  987,  986
1883, 1040,  986, 1018
1884, 1041, 1007,  984
1885, 1044, 1041, 1019
1886, 1048, 1002, 1039
1887, 1042, 1017, 1016
1888, 1043, 1035, 1018
1889, 1043, 1017, 1042
1890, 1044, 1019, 1020
1891, 1045, 1044,  989
1892, 1045,  989, 1021
1893, 1046, 1045, 1026
1894, 1050, 1025, 1024
1895, 1046, 1007, 1041
1896, 1049, 1014, 1015
1897, 1047, 1034, 1036
1898, 1048, 1042, 1036
1899, 1048, 1039, 1035
1900, 1052, 1015, 1013
1901, 1049, 1033, 1034
1902, 1050, 1006, 1007
1903, 1050, 1007, 1046
1904, 1051, 1008, 1006
1905, 1051, 1006, 1050
1906, 1054, 1013, 1012
1907, 1052, 1032, 1033
1908, 1053, 1009, 1008
1909, 1053, 1008, 1051
1910, 1057, 1012, 1010
1911, 1054, 1031, 1032
1912, 1055, 1011, 1009
1913, 1055, 1009, 1053
1914, 1056, 1010, 1011
1915, 1056, 1011, 1055
1916, 1057, 1010, 1056
1917, 1057, 1031, 1054
1918, 1123,  131, 1060
1919, 1158, 1155, 1124
1920, 1088,  191, 1087
1921, 1189,  134,  133
1922, 1059,    8,  124
1923, 1060,  131,  130
1924, 1061,  172, 1059
1925, 1084,  195, 1083
1926, 1062,  170,  171
1927, 1065, 1064,  128
1928, 1127, 1065, 1062
1929, 1065,    9,  170
1930, 1101, 1072, 1071
1931,  112,    7,  173
1932, 1066,  112,  173
1933, 1081,  175, 1080
1934, 1109, 1080, 1105
1935, 1098, 1095,  115
1936, 1095,  116,  115
1937, 1091,  188, 1090
1938, 1068,  117, 1067
1939, 1069,  118, 1068
1940, 1166, 1163, 1132
1941, 1071,  121, 1058
1942, 1071,  122,  121
1943, 1073,  124,  123
1944,  183,  182,   12
1945, 1074,  182,  183
1946, 1094,  185, 1093
1947, 1075,  180,  181
1948, 1076,  179,  180
1949, 1078,  178, 1077
1950, 1079,  177, 1078
1951, 1170, 1138, 1109
1952, 1080,  176, 1079
1953, 1190,  173,  174
1954,  197,   10,  134
1955, 1082,  197,  134
1956, 1083,  196, 1082
1957, 1188, 1158, 1156
1958, 1219, 1217, 1214
1959, 1112, 1085, 1084
1960, 1086,  193, 1085
1961, 1087,  192, 1086
1962, 1113, 1089, 1111
1963, 1089,  190, 1088
1964, 1090,  189, 1089
1965, 1110, 1076, 1075
1966, 1116, 1114, 1091
1967, 1175, 1143, 1142
1968, 1160,  183,  184
1969, 1058,  121,  120
1970, 1070,  120,  119
1971, 1059,  172,    8
1972, 1072,  122, 1071
1973, 1063,  130,  129
1974, 1191, 1172, 1135
1975, 1085,  194, 1084
1976, 1061,  171,  172
1977, 1186, 1155, 1158
1978, 1062,  171, 1061
1979, 1063, 1060,  130
1980, 1064, 1063,  129
1981, 1064,  129,  128
1982, 1125, 1122, 1063
1983, 1065,  128,    9
1984, 1065,  170, 1062
1985, 1099,  113, 1066
1986, 1066,  113,  112
1987, 1067,  117,  116
1988, 1116, 1090, 1113
1989, 1102, 1068, 1100
1990, 1068,  118,  117
1991, 1070,  119, 1069
1992, 1069,  119,  118
1993, 1136, 1103, 1134
1994, 1070, 1058,  120
1995, 1072,  123,  122
1996, 1118, 1085, 1112
1997, 1096, 1073, 1072
1998, 1073,  123, 1072
1999, 1144, 1059, 1073
2000, 1073, 1059,  124
2001, 1075,  181, 1074
2002, 1074,  181,  182
2003, 1093,  186, 1092
2004, 1076,  180, 1075
2005, 1092,  187, 1091
2006, 1077,  179, 1076
2007, 1114, 1092, 1091
2008, 1077,  178,  179
2009, 1176, 1142, 1110
2010, 1078,  177,  178
2011, 1159, 1099, 1138
2012, 1079,  176,  177
2013, 1140, 1105, 1139
2014, 1080,  175,  176
2015, 1190, 1081, 1138
2016, 1081,  174,  175
2017, 1082,  196,  197
2018, 1124,  132, 1123
2019, 1119, 1112, 1084
2020, 1083,  195,  196
2021, 1084,  194,  195
2022, 1122, 1060, 1063
2023, 1103, 1101, 1071
2024, 1085,  193,  194
2025, 1151, 1148, 1120
2026, 1086,  192,  193
2027, 1104, 1070, 1097
2028, 1087,  191,  192
2029, 1117, 1111, 1088
2030, 1088,  190,  191
2031, 1173, 1141, 1171
2032, 1089,  189,  190
2033, 1192, 1174, 1173
2034, 1090,  188,  189
2035, 1110, 1106, 1076
2036, 1091,  187,  188
2037, 1160, 1126, 1074
2038, 1092,  186,  187
2039, 1115, 1092, 1114
2040, 1093,  185,  186
2041, 1160, 1094, 1126
2042, 1094,  184,  185
2043, 1095, 1067,  116
2044, 1098,  115,  114
2045, 1172, 1144, 1096
2046, 1101, 1096, 1072
2047, 1097, 1070, 1069
2048, 1102, 1069, 1068
2049, 1099,  114,  113
2050, 1099, 1098,  114
2051, 1138, 1081, 1109
2052, 1206, 1192, 1193
2053, 1100, 1068, 1067
2054, 1137, 1067, 1095
2055, 1103, 1071, 1058
2056, 1200, 1177, 1197
2057, 1168, 1166, 1131
2058, 1102, 1097, 1069
2059, 1104, 1103, 1058
2060, 1134, 1104, 1132
2061, 1104, 1058, 1070
2062, 1132, 1097, 1131
2063, 1105, 1080, 1079
2064, 1108, 1079, 1078
2065, 1107, 1077, 1106
2066, 1106, 1077, 1076
2067, 1141, 1139, 1108
2068, 1107, 1078, 1077
2069, 1108, 1105, 1079
2070, 1108, 1078, 1107
2071, 1170, 1159, 1138
2072, 1109, 1081, 1080
2073, 1126, 1110, 1075
2074, 1121, 1094, 1093
2075, 1111, 1089, 1088
2076, 1117, 1088, 1087
2077, 1119, 1084, 1083
2078, 1129, 1125, 1127
2079, 1133, 1131, 1102
2080, 1113, 1090, 1089
2081, 1195, 1175, 1181
2082, 1116, 1091, 1090
2083, 1152, 1121, 1115
2084, 1115, 1093, 1092
2085, 1147, 1113, 1145
2086, 1149, 1116, 1147
2087, 1120, 1087, 1086
2088, 1180, 1146, 1179
2089, 1118, 1086, 1085
2090, 1196, 1188, 1187
2091, 1155, 1083, 1082
2092, 1188, 1156, 1187
2093, 1120, 1117, 1087
2094, 1120, 1086, 1118
2095, 1176, 1126, 1121
2096, 1121, 1093, 1115
2097, 1125, 1063, 1064
2098, 1129, 1127, 1128
2099, 1123,  132,  131
2100, 1156, 1060, 1122
2101, 1189, 1124, 1155
2102, 1124,  133,  132
2103, 1127, 1125, 1064
2104, 1128, 1127, 1062
2105, 1126, 1075, 1074
2106, 1126, 1094, 1121
2107, 1127, 1064, 1065
2108, 1128, 1062, 1061
2109, 1172, 1061, 1144
2110, 1172, 1161, 1128
2111, 1197, 1183, 1196
2112, 1157, 1125, 1129
2113, 1174, 1139, 1173
2114, 1130, 1095, 1098
2115, 1131, 1097, 1102
2116, 1133, 1102, 1100
2117, 1146, 1145, 1111
2118, 1132, 1104, 1097
2119, 1169, 1100, 1137
2120, 1182, 1145, 1180
2121, 1148, 1146, 1117
2122, 1134, 1103, 1104
2123, 1135, 1096, 1101
2124, 1136, 1135, 1101
2125, 1136, 1101, 1103
2126, 1226, 1212, 1207
2127, 1137, 1100, 1067
2128, 1137, 1095, 1130
2129, 1138, 1099, 1066
2130, 1190, 1138, 1066
2131, 1139, 1105, 1108
2132, 1141, 1108, 1107
2133, 1170, 1162, 1159
2134, 1140, 1109, 1105
2135, 1143, 1107, 1106
2136, 1184, 1147, 1182
2137, 1142, 1106, 1110
2138, 1150, 1114, 1149
2139, 1143, 1141, 1107
2140, 1143, 1106, 1142
2141, 1144, 1061, 1059
2142, 1144, 1073, 1096
2143, 1145, 1113, 1111
2144, 1146, 1111, 1117
2145, 1148, 1117, 1120
2146, 1179, 1148, 1178
2147, 1213, 1192, 1201
2148, 1147, 1116, 1113
2149, 1151, 1120, 1118
2150, 1164, 1134, 1163
2151, 1175, 1171, 1143
2152, 1149, 1114, 1116
2153, 1181, 1175, 1152
2154, 1150, 1115, 1114
2155, 1154, 1118, 1112
2156, 1167, 1136, 1164
2157, 1176, 1152, 1142
2158, 1152, 1115, 1150
2159, 1153, 1112, 1119
2160, 1188, 1183, 1153
2161, 1154, 1151, 1118
2162, 1154, 1112, 1153
2163, 1155, 1119, 1083
2164, 1189, 1155, 1082
2165, 1156, 1123, 1060
2166, 1187, 1122, 1157
2167, 1157, 1122, 1125
2168, 1199, 1129, 1161
2169, 1158, 1124, 1123
2170, 1158, 1123, 1156
2171, 1159, 1130, 1098
2172, 1159, 1098, 1099
2173, 1160, 1074,  183
2174, 1160,  184, 1094
2175, 1161, 1129, 1128
2176, 1225, 1200, 1219
2177, 1165, 1130, 1162
2178, 1162, 1130, 1159
2179, 1163, 1134, 1132
2180, 1166, 1132, 1131
2181, 1178, 1151, 1177
2182, 1164, 1136, 1134
2183, 1201, 1171, 1195
2184, 1165, 1137, 1130
2185, 1168, 1131, 1133
2186, 1202, 1179, 1198
2187, 1214, 1167, 1194
2188, 1167, 1135, 1136
2189, 1203, 1133, 1169
2190, 1204, 1180, 1202
2191, 1169, 1133, 1100
2192, 1169, 1137, 1165
2193, 1170, 1109, 1140
2194, 1170, 1140, 1162
2195, 1171, 1141, 1143
2196, 1220, 1205, 1210
2197, 1172, 1128, 1061
2198, 1172, 1096, 1135
2199, 1206, 1162, 1174
2200, 1173, 1139, 1141
2201, 1174, 1162, 1140
2202, 1174, 1140, 1139
2203, 1175, 1142, 1152
2204, 1181, 1152, 1150
2205, 1176, 1110, 1126
2206, 1176, 1121, 1152
2207, 1177, 1151, 1154
2208, 1183, 1177, 1154
2209, 1215, 1198, 1212
2210, 1178, 1148, 1151
2211, 1228, 1226, 1208
2212, 1179, 1146, 1148
2213, 1222, 1213, 1220
2214, 1180, 1145, 1146
2215, 1185, 1150, 1149
2216, 1185, 1149, 1184
2217, 1210, 1182, 1204
2218, 1182, 1147, 1145
2219, 1183, 1154, 1153
2220, 1218, 1217, 1199
2221, 1205, 1195, 1185
2222, 1184, 1149, 1147
2223, 1195, 1181, 1185
2224, 1185, 1181, 1150
2225, 1186, 1153, 1119
2226, 1186, 1119, 1155
2227, 1187, 1156, 1122
2228, 1211, 1187, 1157
2229, 1188, 1153, 1186
2230, 1188, 1186, 1158
2231, 1189, 1082,  134
2232, 1189,  133, 1124
2233, 1190, 1066,  173
2234, 1190,  174, 1081
2235, 1191, 1161, 1172
2236, 1191, 1135, 1167
2237, 1201, 1173, 1171
2238, 1224, 1192, 1213
2239, 1193, 1169, 1165
2240, 1206, 1193, 1165
2241, 1194, 1167, 1164
2242, 1207, 1164, 1163
2243, 1195, 1171, 1175
2244, 1205, 1185, 1184
2245, 1211, 1157, 1199
2246, 1196, 1183, 1188
2247, 1218, 1161, 1191
2248, 1197, 1177, 1183
2249, 1198, 1179, 1178
2250, 1200, 1198, 1178
2251, 1199, 1157, 1129
2252, 1218, 1191, 1214
2253, 1200, 1178, 1177
2254, 1219, 1197, 1217
2255, 1221, 1220, 1213
2256, 1201, 1192, 1173
2257, 1208, 1207, 1163
2258, 1202, 1180, 1179
2259, 1203, 1168, 1133
2260, 1203, 1169, 1193
2261, 1209, 1208, 1166
2262, 1204, 1182, 1180
2263, 1221, 1195, 1205
2264, 1210, 1184, 1182
2265, 1206, 1165, 1162
2266, 1206, 1174, 1192
2267, 1207, 1194, 1164
2268, 1208, 1163, 1166
2269, 1209, 1166, 1168
2270, 1226, 1216, 1215
2271, 1222, 1168, 1203
2272, 1228, 1223, 1216
2273, 1210, 1205, 1184
2274, 1223, 1204, 1216
2275, 1211, 1197, 1196
2276, 1211, 1196, 1187
2277, 1212, 1198, 1200
2278, 1212, 1194, 1207
2279, 1224, 1213, 1222
2280, 1221, 1213, 1201
2281, 1214, 1191, 1167
2282, 1225, 1219, 1214
2283, 1226, 1207, 1208
2284, 1215, 1202, 1198
2285, 1216, 1204, 1202
2286, 1216, 1202, 1215
2287, 1217, 1197, 1211
2288, 1217, 1211, 1199
2289, 1218, 1199, 1161
2290, 1218, 1214, 1217
2291, 1225, 1214, 1194
2292, 1219, 1200, 1197
2293, 1223, 1220, 1210
2294, 1227, 1220, 1223
2295, 1221, 1201, 1195
2296, 1221, 1205, 1220
2297, 1222, 1209, 1168
2298, 1224, 1222, 1203
2299, 1223, 1210, 1204
2300, 1228, 1227, 1223
2301, 1224, 1203, 1193
2302, 1224, 1193, 1192
2303, 1225, 1194, 1212
2304, 1225, 1212, 1200
2305, 1226, 1215, 1212
2306, 1228, 1208, 1209
2307, 1227, 1209, 1222
2308, 1227, 1222, 1220
2309, 1228, 1209, 1227
2310, 1228, 1216, 1226
*Orientation, name=Ori-1
1., 0., 0., 0., 1., 0.
3, 0.
** Region: (CompositeLayup-1-1: Generated From Layup)
*Elset, elset=CompositeLayup-1-1, generate
    1,  2310,     1
** Section: CompositeLayup-1-1
*Shell Section, elset=CompositeLayup-1-1, composite, orientation=Ori-1, layup=CompositeLayup-1
0.25, 1, ABQ_PLY_FABRIC, 45., Ply-1
0.25, 1, ABQ_PLY_FABRIC, -45., Ply-2
0.25, 1, ABQ_PLY_FABRIC, -45., Ply-3
0.25, 1, ABQ_PLY_FABRIC, 45., Ply-4
*End Part
**  
**
** ASSEMBLY
**
*Assembly, name=Assembly
**  
*Instance, name=Plate-1, part=PLATE
*End Instance
**  
*Nset, nset=Set-1, instance=Plate-1
   6,   7,  12,  98,  99, 100, 101, 102, 103, 104, 105, 106, 107, 108, 109, 110
 111, 173, 174, 175, 176, 177, 178, 179, 180, 181, 182
*Elset, elset=Set-1, instance=Plate-1
  815,  816,  830,  833,  837,  906,  908,  911,  913,  915,  917,  919,  986,  988,  994, 1931
 1944, 1947, 1948, 1953, 2002, 2008, 2010, 2012, 2014, 2016
*Nset, nset=Set-2, instance=Plate-1
   4,   5,  11,  47,  48,  49,  50,  51,  52,  53,  54,  55,  56,  57,  58,  59
  60, 157, 158, 159, 160, 161, 162, 163, 164, 165, 166
*Elset, elset=Set-2, instance=Plate-1
   19,   20,   38,   43,   44,  118,  121,  123,  125,  127,  129,  131,  255,  262,  274, 1366
 1367, 1388, 1393, 1466, 1469, 1471, 1473, 1552, 1556, 1558
*End Assembly
*Amplitude, name=Ramp, time=TOTAL TIME
             0.,              0.,            0.01,              1.
** 
** MATERIALS
** 
*Material, name=ABQ_PLY_FABRIC
*Density
 1.594e-09,
*Depvar, delete=16
     16,
*User Material, constants=40
27500., 27500.,   0.11,  2900., 27500., 27500.,   0.11,     0.
   604.,   291.,   604.,   291.,    75.,     0.,     0.,     0.
 20.438, 4.6257, 20.438, 4.6257, 0.3221,     1.,     0.,     0.
    75., 0.0008,  0.552,     0.,     0.,     0.,     0.,     0.
     0.,     1.,  1e+09,  1e+09, -1e+09,     0.,     0.,     0.
** ----------------------------------------------------------------
** 
** STEP: Step-1
** 
*Step, name=Step-1, nlgeom=NO
*Dynamic, Explicit
, 0.01
*Bulk Viscosity
0.06, 1.2
** 
** BOUNDARY CONDITIONS
** 
** Name: BC-1 Type: Symmetry/Antisymmetry/Encastre
*Boundary
Set-1, ENCASTRE
** Name: BC-2 Type: Displacement/Rotation
*Boundary, amplitude=Ramp
Set-2, 1, 1, 1.21053
** 
** OUTPUT REQUESTS
** 
*Restart, write, number interval=1, time marks=NO
** 
** FIELD OUTPUT: F-Output-1
** 
*Output, field, number interval=1
*Element Output, position=NODES, directions=YES
LE, PEEQ, SDV
** 
** HISTORY OUTPUT: H-Output-1
** 
*Output, history, variable=PRESELECT
*End Step
