*Heading
** Job name: Plate_nonlinear_105 Model name: Model-1
** Generated by: Abaqus/CAE 2024.HF3
*Preprint, echo=NO, model=NO, history=NO, contact=NO
**
** PARTS
**
*Part, name=PLATE
*Node
      1,   73.8563766,   120.629951,           0.
      2,   73.8563766,   58.5169296,           0.
      3,   86.1318283,   46.2414818,           0.
      4,   192.668808,   46.2414818,           0.
      5,   192.668808,   120.629951,           0.
      6,           0.,   120.629951,           0.
      7,           0.,   46.2414818,           0.
      8,   61.5809326,   46.2414818,           0.
      9,   73.8563766,   33.9660339,           0.
     10,   73.8563766,           0.,           0.
     11,   192.668808,           0.,           0.
     12,           0.,           0.,           0.
     13,   73.8563766,   115.852028,           0.
     14,   73.8563766,   111.074104,           0.
     15,   73.8563766,   106.296181,           0.
     16,   73.8563766,   101.518257,           0.
     17,   73.8563766,   96.7403259,           0.
     18,   73.8563766,   91.9624023,           0.
     19,   73.8563766,   87.1844788,           0.
     20,   73.8563766,   82.4065552,           0.
     21,   73.8563766,   77.6286316,           0.
     22,   73.8563766,    72.850708,           0.
     23,   73.8563766,   68.0727768,           0.
     24,   73.8563766,   63.2948532,           0.
     25,   78.5539932,   57.5825157,           0.
     26,   82.5364304,   54.9215355,           0.
     27,   85.1974106,   50.9390907,           0.
     28,   90.9744186,   46.2414818,           0.
     29,    95.817009,   46.2414818,           0.
     30,   100.659599,   46.2414818,           0.
     31,    105.50219,   46.2414818,           0.
     32,    110.34478,   46.2414818,           0.
     33,    115.18737,   46.2414818,           0.
     34,   120.029961,   46.2414818,           0.
     35,   124.872551,   46.2414818,           0.
     36,   129.715134,   46.2414818,           0.
     37,   134.557724,   46.2414818,           0.
     38,   139.400314,   46.2414818,           0.
     39,   144.242905,   46.2414818,           0.
     40,   149.085495,   46.2414818,           0.
     41,   153.928085,   46.2414818,           0.
     42,   158.770676,   46.2414818,           0.
     43,   163.613266,   46.2414818,           0.
     44,   168.455856,   46.2414818,           0.
     45,   173.298447,   46.2414818,           0.
     46,   178.141037,   46.2414818,           0.
     47,   182.983627,   46.2414818,           0.
     48,   187.826218,   46.2414818,           0.
     49,   192.668808,   50.8907623,           0.
     50,   192.668808,   55.5400429,           0.
     51,   192.668808,   60.1893196,           0.
     52,   192.668808,   64.8386002,           0.
     53,   192.668808,   69.4878769,           0.
     54,   192.668808,   74.1371613,           0.
     55,   192.668808,    78.786438,           0.
     56,   192.668808,   83.4357147,           0.
     57,   192.668808,   88.0849991,           0.
     58,   192.668808,   92.7342758,           0.
     59,   192.668808,   97.3835602,           0.
     60,   192.668808,   102.032837,           0.
     61,   192.668808,   106.682114,           0.
     62,   192.668808,   111.331398,           0.
     63,   192.668808,   115.980675,           0.
     64,   187.916321,   120.629951,           0.
     65,   183.163818,   120.629951,           0.
     66,   178.411316,   120.629951,           0.
     67,   173.658829,   120.629951,           0.
     68,   168.906326,   120.629951,           0.
     69,   164.153824,   120.629951,           0.
     70,   159.401337,   120.629951,           0.
     71,   154.648834,   120.629951,           0.
     72,   149.896332,   120.629951,           0.
     73,   145.143845,   120.629951,           0.
     74,   140.391342,   120.629951,           0.
     75,    135.63884,   120.629951,           0.
     76,   130.886353,   120.629951,           0.
     77,    126.13385,   120.629951,           0.
     78,   121.381355,   120.629951,           0.
     79,   116.628853,   120.629951,           0.
     80,   111.876358,   120.629951,           0.
     81,   107.123863,   120.629951,           0.
     82,   102.371361,   120.629951,           0.
     83,    97.618866,   120.629951,           0.
     84,   92.8663712,   120.629951,           0.
     85,   88.1138687,   120.629951,           0.
     86,   83.3613739,   120.629951,           0.
     87,   78.6088791,   120.629951,           0.
     88,   68.9326172,   120.629951,           0.
     89,   64.0088654,   120.629951,           0.
     90,   59.0851021,   120.629951,           0.
     91,   54.1613464,   120.629951,           0.
     92,    49.237587,   120.629951,           0.
     93,   44.3138275,   120.629951,           0.
     94,   39.3900681,   120.629951,           0.
     95,   34.4663086,   120.629951,           0.
     96,    29.542551,   120.629951,           0.
     97,   24.6187935,   120.629951,           0.
     98,    19.695034,   120.629951,           0.
     99,   14.7712755,   120.629951,           0.
    100,   9.84751701,   120.629951,           0.
    101,   4.92375851,   120.629951,           0.
    102,           0.,   115.980675,           0.
    103,           0.,   111.331398,           0.
    104,           0.,   106.682114,           0.
    105,           0.,   102.032837,           0.
    106,           0.,   97.3835602,           0.
    107,           0.,   92.7342758,           0.
    108,           0.,   88.0849991,           0.
    109,           0.,   83.4357147,           0.
    110,           0.,    78.786438,           0.
    111,           0.,   74.1371613,           0.
    112,           0.,   69.4878769,           0.
    113,           0.,   64.8386002,           0.
    114,           0.,   60.1893196,           0.
    115,           0.,   55.5400429,           0.
    116,           0.,   50.8907623,           0.
    117,   4.73699474,   46.2414818,           0.
    118,   9.47398949,   46.2414818,           0.
    119,   14.2109842,   46.2414818,           0.
    120,    18.947979,   46.2414818,           0.
    121,   23.6849747,   46.2414818,           0.
    122,   28.4219685,   46.2414818,           0.
    123,   33.1589622,   46.2414818,           0.
    124,   37.8959579,   46.2414818,           0.
    125,   42.6329536,   46.2414818,           0.
    126,   47.3699493,   46.2414818,           0.
    127,   52.1069412,   46.2414818,           0.
    128,   56.8439369,   46.2414818,           0.
    129,   62.5153465,   50.9390907,           0.
    130,   65.1763306,   54.9215355,           0.
    131,   69.1587677,   57.5825157,           0.
    132,   73.8563766,   29.1137447,           0.
    133,   73.8563766,   24.2614536,           0.
    134,   73.8563766,   19.4091625,           0.
    135,   73.8563766,   14.5568724,           0.
    136,   73.8563766,   9.70458126,           0.
    137,   73.8563766,   4.85229063,           0.
    138,   78.6088791,           0.,           0.
    139,   83.3613739,           0.,           0.
    140,   88.1138687,           0.,           0.
    141,   92.8663712,           0.,           0.
    142,    97.618866,           0.,           0.
    143,   102.371361,           0.,           0.
    144,   107.123863,           0.,           0.
    145,   111.876358,           0.,           0.
    146,   116.628853,           0.,           0.
    147,   121.381355,           0.,           0.
    148,    126.13385,           0.,           0.
    149,   130.886353,           0.,           0.
    150,    135.63884,           0.,           0.
    151,   140.391342,           0.,           0.
    152,   145.143845,           0.,           0.
    153,   149.896332,           0.,           0.
    154,   154.648834,           0.,           0.
    155,   159.401337,           0.,           0.
    156,   164.153824,           0.,           0.
    157,   168.906326,           0.,           0.
    158,   173.658829,           0.,           0.
    159,   178.411316,           0.,           0.
    160,   183.163818,           0.,           0.
    161,   187.916321,           0.,           0.
    162,   192.668808,   4.62414837,           0.
    163,   192.668808,   9.24829674,           0.
    164,   192.668808,   13.8724451,           0.
    165,   192.668808,   18.4965935,           0.
    166,   192.668808,   23.1207409,           0.
    167,   192.668808,   27.7448902,           0.
    168,   192.668808,   32.3690376,           0.
    169,   192.668808,    36.993187,           0.
    170,   192.668808,   41.6173325,           0.
    171,   85.1974106,   41.5438728,           0.
    172,   82.5364304,   37.5614319,           0.
    173,   78.5539932,   34.9004478,           0.
    174,   69.1587677,   34.9004478,           0.
    175,   65.1763306,   37.5614319,           0.
    176,   62.5153465,   41.5438728,           0.
    177,           0.,   41.6173325,           0.
    178,           0.,    36.993187,           0.
    179,           0.,   32.3690376,           0.
    180,           0.,   27.7448902,           0.
    181,           0.,   23.1207409,           0.
    182,           0.,   18.4965935,           0.
    183,           0.,   13.8724451,           0.
    184,           0.,   9.24829674,           0.
    185,           0.,   4.62414837,           0.
    186,   4.92375851,           0.,           0.
    187,   9.84751701,           0.,           0.
    188,   14.7712755,           0.,           0.
    189,    19.695034,           0.,           0.
    190,   24.6187935,           0.,           0.
    191,    29.542551,           0.,           0.
    192,   34.4663086,           0.,           0.
    193,   39.3900681,           0.,           0.
    194,   44.3138275,           0.,           0.
    195,    49.237587,           0.,           0.
    196,   54.1613464,           0.,           0.
    197,   59.0851021,           0.,           0.
    198,   64.0088654,           0.,           0.
    199,   68.9326172,           0.,           0.
    200,    136.97908,   50.4320068,           0.
    201,   78.1745834,   114.236862,           0.
    202,   77.9941559,   89.5737686,           0.
    203,   77.9952698,    84.795845,           0.
    204,   77.9964142,   80.0178223,           0.
    205,   77.9973068,   75.2397995,           0.
    206,   82.4847031,   59.2313309,           0.
    207,   77.9479141,   70.5084686,           0.
    208,   77.9921722,   65.8371353,           0.
    209,   78.1660614,   61.3461609,           0.
    210,   86.8086624,   56.0594521,           0.
    211,    156.34819,   50.4285088,           0.
    212,    151.50618,   50.4297867,           0.
    213,   146.664169,    50.430687,           0.
    214,   141.821716,   50.4311867,           0.
    215,   132.136459,   50.4320984,           0.
    216,   127.293831,   50.4321289,           0.
    217,    122.45121,   50.4320717,           0.
    218,   117.608574,   50.4317055,           0.
    219,   112.765938,   50.4311447,           0.
    220,   107.923302,   50.4305916,           0.
    221,   103.088043,   50.4391022,           0.
    222,    98.344368,   50.5595016,           0.
    223,    93.669838,   50.7378578,           0.
    224,   188.399216,   114.277939,           0.
    225,    188.43837,   109.217194,           0.
    226,   188.586197,   104.395996,           0.
    227,   188.622742,   99.7146912,           0.
    228,   188.630432,    95.059967,           0.
    229,   188.632233,   90.4098969,           0.
    230,   188.631897,   85.7605362,           0.
    231,   188.630753,    81.111351,           0.
    232,   188.629288,   76.4623718,           0.
    233,   188.626694,   71.8134384,           0.
    234,   188.622086,   67.1644897,           0.
    235,    188.57312,    62.498703,           0.
    236,   188.408691,   57.6758881,           0.
    237,   188.348999,   52.5926208,           0.
    238,   90.4791107,   116.522156,           0.
    239,   104.746956,   116.511909,           0.
    240,   109.499657,   116.511581,           0.
    241,   114.252457,   116.511368,           0.
    242,   119.005066,   116.511246,           0.
    243,   123.757591,     116.5112,           0.
    244,   128.510101,     116.5112,           0.
    245,   133.262604,   116.511223,           0.
    246,   138.015106,   116.511353,           0.
    247,   142.767609,   116.511452,           0.
    248,   147.520218,   116.511902,           0.
    249,    152.27298,   116.513145,           0.
    250,   157.025635,   116.515244,           0.
    251,   161.778137,   116.517845,           0.
    252,   166.530655,   116.520584,           0.
    253,   171.283188,   116.523346,           0.
    254,   176.070877,   116.466728,           0.
    255,   180.799408,    116.44973,           0.
    256,   184.567322,   69.4932709,           0.
    257,   184.575165,   74.1409912,           0.
    258,   184.587234,   88.0855865,           0.
    259,    184.58638,   92.7342987,           0.
    260,   184.580872,   78.7886429,           0.
    261,   184.582611,    97.383812,           0.
    262,   184.530518,   64.8788605,           0.
    263,   184.395264,   60.2262421,           0.
    264,   184.548889,   102.089546,           0.
    265,   184.417099,   106.819878,           0.
    266,   184.583542,   83.4370346,           0.
    267,   85.7542419,   116.504845,           0.
    268,   99.9945679,    116.51178,           0.
    269,    116.62867,   112.390198,           0.
    270,   107.122154,   112.391174,           0.
    271,    126.13385,    112.39003,           0.
    272,    81.736763,   116.789169,           0.
    273,   95.2368698,   116.512146,           0.
    274,   111.875336,    112.39019,           0.
    275,   121.381287,   112.389534,           0.
    276,   135.638916,   112.390289,           0.
    277,   140.391541,   112.390457,           0.
    278,   159.404343,   112.404594,           0.
    279,   164.156937,    112.41169,           0.
    280,   168.909424,   112.418831,           0.
    281,   173.749893,   112.271011,           0.
    282,   154.651505,   112.398506,           0.
    283,   130.886383,   112.389626,           0.
    284,   145.144409,   112.391418,           0.
    285,   149.897934,    112.39389,           0.
    286,   178.579941,   112.222977,           0.
    287,   77.9874115,   99.1278915,           0.
    288,   82.1349106,   72.9287643,           0.
    289,   82.1373901,   82.4095306,           0.
    290,   78.0051651,   103.974915,           0.
    291,   82.2181702,   68.3187027,           0.
    292,   77.9915161,   94.3512726,           0.
    293,   82.1339874,   87.1868744,           0.
    294,   82.1430283,   77.6520309,           0.
    295,   89.0835876,   50.9261398,           0.
    296,   161.191208,   50.4246979,           0.
    297,   170.914856,   50.4926834,           0.
    298,   166.040726,   50.4330482,           0.
    299,   120.029594,   54.6194534,           0.
    300,   105.517578,   54.6308517,           0.
    301,   144.243515,   54.6176071,           0.
    302,   110.346664,   54.6193123,           0.
    303,   96.1531906,   54.9203568,           0.
    304,   175.823608,   50.5801926,           0.
    305,   180.647156,   50.5390778,           0.
    306,   184.697769,   50.1124001,           0.
    307,    124.87236,   54.6198654,           0.
    308,   129.715149,   54.6199341,           0.
    309,   134.557953,   54.6194725,           0.
    310,   139.400803,   54.6183014,           0.
    311,   153.926926,   54.6117439,           0.
    312,    115.18718,   54.6182022,           0.
    313,    100.78392,   54.7142448,           0.
    314,   149.085251,   54.6146278,           0.
    315,   183.658249,    54.964859,           0.
    316,   183.742706,   112.047333,           0.
    317,   82.3235092,   63.7762833,           0.
    318,   82.8121872,   111.977448,           0.
    319,    86.657608,   66.1567993,           0.
    320,   86.6267319,     61.36689,           0.
    321,   180.605774,   58.5187492,           0.
    322,   180.524323,   81.1157837,           0.
    323,   180.527679,   85.7631912,           0.
    324,   180.532257,   95.0606155,           0.
    325,   180.529572,   90.4113312,           0.
    326,   180.515167,   76.4700623,           0.
    327,   180.542297,   99.7993088,           0.
    328,   180.546799,   104.523933,           0.
    329,   180.501297,   71.8258667,           0.
    330,   180.472382,   67.2251663,           0.
    331,   180.404388,   62.5829887,           0.
    332,   97.6128235,   112.390312,           0.
    333,   128.510162,   108.265282,           0.
    334,   123.757545,   108.264893,           0.
    335,   147.523087,   108.271225,           0.
    336,   133.262848,   108.265289,           0.
    337,   119.004837,   108.265106,           0.
    338,   138.015701,   108.265907,           0.
    339,   142.769058,   108.267448,           0.
    340,   114.250854,   108.265823,           0.
    341,   109.496849,   108.266739,           0.
    342,   152.278625,   108.277809,           0.
    343,   166.556351,   108.309311,           0.
    344,   161.789932,   108.299606,           0.
    345,    171.29364,   108.200439,           0.
    346,    176.38681,   107.501678,           0.
    347,   157.034302,   108.287865,           0.
    348,   87.9630966,   112.363991,           0.
    349,   92.7682343,   112.381226,           0.
    350,   102.368904,   112.390907,           0.
    351,   82.1296997,   91.9639893,           0.
    352,    82.253952,   101.601524,           0.
    353,   78.1328964,   108.997688,           0.
    354,   86.5540466,    70.773819,           0.
    355,   86.4222107,   75.3838806,           0.
    356,   86.3212967,   80.0632706,           0.
    357,   86.2858658,   84.8106155,           0.
    358,   82.1431503,   96.7536392,           0.
    359,   91.6408463,   55.2002144,           0.
    360,   158.770462,   54.6051826,           0.
    361,    168.47287,   54.7181053,           0.
    362,    178.37796,   54.8811417,           0.
    363,   173.410736,   54.9031906,           0.
    364,   127.293686,   58.8043861,           0.
    365,   132.136826,   58.8036308,           0.
    366,     122.4505,   58.8031807,           0.
    367,   136.980011,   58.8024178,           0.
    368,   112.765472,   58.8007736,           0.
    369,   117.607544,   58.8015213,           0.
    370,   141.823395,   58.8005905,           0.
    371,    146.66478,   58.7975044,           0.
    372,   107.937988,   58.8066063,           0.
    373,   98.5295334,   58.9962158,           0.
    374,   103.181976,   58.8565788,           0.
    375,   151.507187,   58.7910194,           0.
    376,   163.615799,   54.6271286,           0.
    377,   184.804291,   116.806984,           0.
    378,   91.3701859,    63.550087,           0.
    379,   176.076172,   59.6520424,           0.
    380,   94.0214767,   59.1878967,           0.
    381,   176.430771,   74.1598587,           0.
    382,   176.431305,   97.4642944,           0.
    383,   176.252701,   69.4991302,           0.
    384,   176.445129,   78.8010635,           0.
    385,   176.477661,   92.7305679,           0.
    386,   176.488907,   102.286987,           0.
    387,   176.207214,   64.7828903,           0.
    388,   176.465897,   88.0854111,           0.
    389,   176.454529,   83.4435349,           0.
    390,    180.73468,   108.623161,           0.
    391,   99.9842606,   108.274979,           0.
    392,   159.421143,   104.183105,           0.
    393,    164.21022,   104.211853,           0.
    394,   145.148865,   104.144241,           0.
    395,   95.1045609,   108.310364,           0.
    396,   90.2229004,   108.372681,           0.
    397,    140.39389,   104.139633,           0.
    398,   130.886826,   104.136826,           0.
    399,   121.380997,   104.136566,           0.
    400,   126.133919,   104.135841,           0.
    401,   135.640152,   104.137161,           0.
    402,   116.626244,   104.137306,           0.
    403,   111.871254,   104.138695,           0.
    404,   173.016037,   104.437973,           0.
    405,   168.935837,   104.225868,           0.
    406,   154.664948,   104.165993,           0.
    407,   149.907028,   104.152855,           0.
    408,   104.742805,   108.268402,           0.
    409,   82.3494263,   106.555412,           0.
    410,   86.2819672,    94.380127,           0.
    411,   86.2753067,   89.5849533,           0.
    412,   86.4221725,   99.1174698,           0.
    413,   90.7445755,   73.3328857,           0.
    414,   90.4629974,   77.8738861,           0.
    415,   90.4403915,   82.4687805,           0.
    416,   156.352158,   58.7813454,           0.
    417,   100.907166,   63.0563164,           0.
    418,   115.185059,   62.9799805,           0.
    419,   129.715424,   62.9840546,           0.
    420,   144.245132,   62.9770203,           0.
    421,   170.824036,   58.9687576,           0.
    422,   124.871613,   62.9832039,           0.
    423,   120.027908,   62.9811172,           0.
    424,   139.403046,    62.980114,           0.
    425,   134.559235,   62.9819603,           0.
    426,   105.577728,   63.0012054,           0.
    427,   110.360092,   62.9825287,           0.
    428,    149.08876,   62.9681511,           0.
    429,   166.013687,    58.837162,           0.
    430,   161.191925,   58.7869644,           0.
    431,   86.0859909,   108.697304,           0.
    432,   87.1718521,   104.229317,           0.
    433,   96.3872375,   63.1259727,           0.
    434,   172.199799,   71.9830093,           0.
    435,   171.461456,   67.0638504,           0.
    436,   172.335907,   76.5425644,           0.
    437,   172.403275,   95.0377426,           0.
    438,   171.825623,    100.06572,           0.
    439,   172.395615,   90.4349518,           0.
    440,   172.364319,   81.1459198,           0.
    441,   172.372589,   85.7920074,           0.
    442,   102.376404,    104.16214,           0.
    443,   162.016937,   100.088364,           0.
    444,   92.5323486,   104.272514,           0.
    445,    97.493042,   104.130447,           0.
    446,   166.780746,   100.248718,           0.
    447,   133.264252,   100.004768,           0.
    448,   128.510742,   100.003571,           0.
    449,   123.757339,   100.003395,           0.
    450,   119.001617,   100.004547,           0.
    451,   114.242615,   100.004921,           0.
    452,   142.774979,   100.012169,           0.
    453,   138.018967,    100.00666,           0.
    454,    147.53537,   100.022179,           0.
    455,   157.180298,    100.02832,           0.
    456,   152.330933,   100.028725,           0.
    457,   107.119698,   104.143433,           0.
    458,   90.4310303,     92.00737,           0.
    459,   90.4679794,   96.7401733,           0.
    460,   90.4246826,   87.2137527,           0.
    461,   94.5394974,    80.026535,           0.
    462,    94.021286,   75.8661652,           0.
    463,   90.9504089,   68.6759949,           0.
    464,   153.938736,   62.9567528,           0.
    465,   163.635345,   62.9676132,           0.
    466,   112.765915,   67.1531372,           0.
    467,    168.45224,   62.9348907,           0.
    468,   117.604919,   67.1551971,           0.
    469,   127.293274,   67.1590652,           0.
    470,   132.137955,   67.1583786,           0.
    471,   136.983215,   67.1559753,           0.
    472,   141.825729,   67.1521454,           0.
    473,   122.448639,   67.1567612,           0.
    474,   103.269447,   67.2077332,           0.
    475,   146.670929,   67.1427841,           0.
    476,   107.982559,   67.1675186,           0.
    477,   158.798904,   62.9701118,           0.
    478,   172.604218,   62.6804848,           0.
    479,    94.610611,   66.7808228,           0.
    480,   98.6107407,   67.1906738,           0.
    481,   168.410339,   70.4197159,           0.
    482,   168.226334,   74.3514328,           0.
    483,    168.33371,   92.9508286,           0.
    484,   168.266693,   78.8886261,           0.
    485,   168.103851,   88.2782593,           0.
    486,   168.215622,   83.5231934,           0.
    487,   104.709923,   100.027168,           0.
    488,   164.854935,    96.176506,           0.
    489,    99.945549,   100.057838,           0.
    490,   94.7601852,   99.5540695,           0.
    491,   126.134079,     95.86689,           0.
    492,    159.92511,   95.8370895,           0.
    493,   121.377213,   95.8676376,           0.
    494,   130.888245,   95.8672333,           0.
    495,   116.613388,   95.8649979,           0.
    496,   135.643356,   95.8693619,           0.
    497,    140.40126,   95.8747864,           0.
    498,   145.164001,   95.8859558,           0.
    499,   168.839661,   96.8959045,           0.
    500,   149.961716,    95.893013,           0.
    501,   154.883301,   95.8685684,           0.
    502,   109.466934,    100.00071,           0.
    503,   90.2709045,   100.782707,           0.
    504,   94.6033936,   89.7503128,           0.
    505,   94.5106583,   94.5024567,           0.
    506,   94.6133728,   84.8838501,           0.
    507,   98.5645447,   76.5950089,           0.
    508,   151.523682,   67.1298447,           0.
    509,   134.562561,   71.3283463,           0.
    510,    115.17907,   71.3231125,           0.
    511,   129.716141,   71.3292007,           0.
    512,   120.024162,   71.3264694,           0.
    513,   139.405426,   71.3246307,           0.
    514,    124.87001,   71.3280487,           0.
    515,   161.278946,   67.1756821,           0.
    516,   110.289093,   71.5057755,           0.
    517,    105.49984,   71.5406723,           0.
    518,   144.251755,    71.315361,           0.
    519,   156.374146,   67.1315079,           0.
    520,   95.4827271,   71.4286041,           0.
    521,   100.756348,   71.5339813,           0.
    522,   163.932114,   71.6536484,           0.
    523,   164.052383,   76.5923767,           0.
    524,   163.233658,   91.2330551,           0.
    525,   163.891006,   81.2477341,           0.
    526,   163.825897,   85.9959259,           0.
    527,   106.891678,   95.7133865,           0.
    528,   102.019424,   95.9290085,           0.
    529,    97.993248,    96.517868,           0.
    530,   123.714867,   91.7372208,           0.
    531,    128.50473,   91.7277451,           0.
    532,    133.26651,   91.7278671,           0.
    533,   118.840431,   91.7542114,           0.
    534,   138.026749,    91.732811,           0.
    535,   142.792221,   91.7442017,           0.
    536,   157.615402,   91.5670013,           0.
    537,   147.599167,   91.7324753,           0.
    538,   111.805016,   95.8231277,           0.
    539,   152.575211,   91.5658264,           0.
    540,   98.9295731,   87.5694809,           0.
    541,   98.6373825,   92.5136642,           0.
    542,   98.7976532,   82.3168182,           0.
    543,   166.195084,   67.0359039,           0.
    544,   149.096024,   71.2482834,           0.
    545,   137.110336,   75.4486771,           0.
    546,   132.296371,   75.4414749,           0.
    547,   122.570465,   75.4559631,           0.
    548,   127.503944,   75.4268417,           0.
    549,   117.660355,   75.4710388,           0.
    550,   112.805847,   75.6827164,           0.
    551,   107.679619,   76.5850601,           0.
    552,   141.962219,   75.4342575,           0.
    553,   158.718704,   71.1524811,           0.
    554,   153.915787,   71.1336288,           0.
    555,   159.201935,   78.9224854,           0.
    556,    159.70282,   83.8513641,           0.
    557,   103.106758,   75.1969528,           0.
    558,   109.164696,   91.5096512,           0.
    559,   103.691666,   90.8411713,           0.
    560,   125.941093,   87.6349869,           0.
    561,   120.945847,   87.6816025,           0.
    562,   130.770142,   87.6186218,           0.
    563,   135.538651,   87.6229706,           0.
    564,   140.301743,   87.6364899,           0.
    565,   145.076126,   87.6118164,           0.
    566,   103.255157,   85.1360779,           0.
    567,   113.935928,   91.6798859,           0.
    568,    155.42131,   86.7953644,           0.
    569,   149.975571,   87.3624878,           0.
    570,   103.231483,   79.7719803,           0.
    571,   146.766495,   75.3007889,           0.
    572,   135.021881,   79.4964447,           0.
    573,    130.24736,   79.4824295,           0.
    574,   120.339012,   79.5556183,           0.
    575,   125.343201,   79.5058594,           0.
    576,    115.52594,   79.5729828,           0.
    577,   111.448761,   79.6227722,           0.
    578,   139.813461,   79.5017929,           0.
    579,   156.310455,    74.985611,           0.
    580,   151.569962,    75.114296,           0.
    581,   159.959824,   87.8885422,           0.
    582,   160.443115,   74.6613235,           0.
    583,   156.075211,   82.2860641,           0.
    584,   111.234497,   87.4519196,           0.
    585,   128.069946,   83.5626831,           0.
    586,   123.118179,    83.600853,           0.
    587,   132.902176,   83.5531464,           0.
    588,   137.679443,   83.5632706,           0.
    589,   142.430115,   83.5551605,           0.
    590,   116.045654,   87.6171875,           0.
    591,   108.170029,   82.7994156,           0.
    592,   151.998413,    82.992012,           0.
    593,   147.213013,   83.3639145,           0.
    594,   144.576767,   79.3818359,           0.
    595,   118.203644,   83.5832291,           0.
    596,   113.438087,   83.4412537,           0.
    597,   149.363403,   79.1725311,           0.
    598,    107.10321,   87.5476456,           0.
    599,   154.086563,   78.9121704,           0.
    600,   90.0935822,   59.0729065,           0.
    601,   61.0298386,   54.9783554,           0.
    602,   69.4698715,   114.108658,           0.
    603,   69.5207214,   108.907707,           0.
    604,   69.6704941,   103.949844,           0.
    605,   69.6979141,   99.1363373,           0.
    606,   69.7052383,   94.3522034,           0.
    607,    69.709137,    89.573204,           0.
    608,   69.7120056,   84.7950897,           0.
    609,   69.7146988,   80.0176315,           0.
    610,   69.7187119,   75.2423172,           0.
    611,   69.7459793,    70.492981,           0.
    612,   69.8068619,   65.9256973,           0.
    613,   27.0847416,   116.382584,           0.
    614,   32.0066223,   116.381165,           0.
    615,   36.9285316,   116.380234,           0.
    616,   41.8521118,    116.38031,           0.
    617,   46.7760239,   116.381142,           0.
    618,    51.700016,   116.382912,           0.
    619,   56.6868057,   116.336784,           0.
    620,   61.6002846,   116.333488,           0.
    621,   4.28967524,   52.5573196,           0.
    622,    4.0527029,   67.1625443,           0.
    623,   4.03587008,   71.8116379,           0.
    624,    4.0344038,   76.4610977,           0.
    625,   4.03648567,   81.1102982,           0.
    626,   4.03975534,    85.759613,           0.
    627,   4.04265308,   90.4091034,           0.
    628,   4.04628038,   95.0581436,           0.
    629,   4.05121422,   99.7067108,           0.
    630,   4.10336876,   104.368309,           0.
    631,   4.30642414,   109.200912,           0.
    632,   4.41986036,   114.315132,           0.
    633,   11.8669434,   50.3827019,           0.
    634,   35.5273933,   50.3420448,           0.
    635,   40.2639847,   50.3445892,           0.
    636,   45.0007935,   50.3475227,           0.
    637,   49.6886368,   50.3032799,           0.
    638,   54.3175468,   50.3561783,           0.
    639,    58.799984,   50.5603714,           0.
    640,   64.4670029,   59.6006279,           0.
    641,   4.09806824,   62.4907913,           0.
    642,   8.15744591,   101.988297,           0.
    643,   8.08880234,   69.4902954,           0.
    644,    8.0769453,   78.7828827,           0.
    645,   8.07660675,    74.134346,           0.
    646,   8.08524323,   83.4316177,           0.
    647,   8.09353065,   88.0814133,           0.
    648,   8.10264397,    92.730484,           0.
    649,   8.12120152,   97.3709412,           0.
    650,   8.36355019,   106.664528,           0.
    651,   4.26609659,   57.6323776,           0.
    652,   16.5659599,   50.3588867,           0.
    653,   26.0536842,   50.3395576,           0.
    654,   30.7908115,   50.3399734,           0.
    655,   37.8914795,   54.4456444,           0.
    656,   42.6196289,    54.456459,           0.
    657,   47.2831306,   54.4558182,           0.
    658,   51.8489151,   54.5511093,           0.
    659,   69.5580978,   61.5047798,           0.
    660,   65.5702133,   82.4050369,           0.
    661,   65.7073669,   68.1076202,           0.
    662,   65.6128845,   72.8631668,           0.
    663,   65.5545959,   91.9597778,           0.
    664,   65.5175705,   101.576294,           0.
    665,   65.5623703,   87.1815262,           0.
    666,   65.5813522,   77.6307373,           0.
    667,   65.5404739,   96.7481766,           0.
    668,   65.3766251,   106.439346,           0.
    669,    22.127264,   116.333595,           0.
    670,   34.4701462,   112.143303,           0.
    671,   39.3907089,   112.143204,           0.
    672,   44.3148613,   112.144073,           0.
    673,   49.2396851,   112.146767,           0.
    674,   54.2829132,   112.006538,           0.
    675,   59.3128395,   111.978867,           0.
    676,   12.2695723,   116.380424,           0.
    677,    17.145277,   116.285965,           0.
    678,   29.5500031,   112.150116,           0.
    679,   9.15980148,   111.928444,           0.
    680,   56.4399376,   54.7863388,           0.
    681,   53.9754715,   59.0976067,           0.
    682,    58.878006,   59.4968109,           0.
    683,   12.2044249,   108.372551,           0.
    684,   12.1304321,   71.7996902,           0.
    685,   12.1863937,   95.0430679,           0.
    686,   12.1676846,   90.3969574,           0.
    687,    12.125742,   76.4505005,           0.
    688,   12.1508436,   85.7479172,           0.
    689,   12.1369047,   81.0986633,           0.
    690,   12.2309685,   99.6636276,           0.
    691,   12.3507919,   104.329704,           0.
    692,   8.14760399,   64.7903519,           0.
    693,    14.136591,   54.5647278,           0.
    694,    33.157093,     54.43927,           0.
    695,   21.3113213,   50.3437462,           0.
    696,    49.406517,   58.8786507,           0.
    697,   44.8512306,   58.7108536,           0.
    698,   40.2151947,    58.594101,           0.
    699,   28.4209919,   54.4348869,           0.
    700,   61.4544144,    75.241394,           0.
    701,   61.4261894,   70.3472061,           0.
    702,   61.4350319,   80.0137405,           0.
    703,   61.4068489,   89.5648117,           0.
    704,   61.4207039,   84.7873459,           0.
    705,   61.3967781,    94.350296,           0.
    706,   61.3915405,   99.2164001,           0.
    707,   61.3758469,   104.064499,           0.
    708,   66.1891861,   63.9856415,           0.
    709,   64.6628799,   111.810654,           0.
    710,   24.5906906,   112.086174,           0.
    711,   14.5094938,   112.003662,           0.
    712,   8.12410164,   116.776779,           0.
    713,   36.9331436,   107.922142,           0.
    714,   41.8537292,   107.922005,           0.
    715,    32.013546,   107.931427,           0.
    716,   46.8049278,   107.919846,           0.
    717,   51.7412987,    107.81057,           0.
    718,   57.0490799,   107.108772,           0.
    719,   19.5508156,   111.967216,           0.
    720,   8.29572392,   60.0197868,           0.
    721,   8.96234131,   54.7592735,           0.
    722,   56.0030479,   63.6626549,           0.
    723,    61.390686,   64.7757568,           0.
    724,   16.7455254,   107.235672,           0.
    725,   12.2240906,   62.3097839,           0.
    726,   16.3111267,   97.4217224,           0.
    727,    16.352087,   102.108513,           0.
    728,   16.2015381,   74.1015701,           0.
    729,   16.1929493,   78.7586746,           0.
    730,   16.2669163,   92.7261276,           0.
    731,   16.2362556,   88.0621338,           0.
    732,   16.2122955,   83.4089127,           0.
    733,   12.1744947,   67.0648422,           0.
    734,   18.9419842,   54.6054573,           0.
    735,   23.7140312,   54.4827805,           0.
    736,   35.5102005,   58.5505753,           0.
    737,    46.855278,   63.0071983,           0.
    738,   30.7829533,   58.5328407,           0.
    739,    42.358696,   62.6988754,           0.
    740,   57.1958847,    101.74662,           0.
    741,      57.1138,   96.8196716,           0.
    742,   57.3025322,    77.621521,           0.
    743,   57.2616806,   72.9182892,           0.
    744,   57.2201233,      91.9459,           0.
    745,   57.2853699,   82.3911133,           0.
    746,   57.2602425,   87.1622772,           0.
    747,   65.7349014,   116.702538,           0.
    748,   61.5554543,   108.280426,           0.
    749,   7.86598873,   50.0364532,           0.
    750,   27.0574951,   107.790413,           0.
    751,   53.5590706,   103.951241,           0.
    752,   44.3714523,   103.725327,           0.
    753,   39.4055634,   103.719925,           0.
    754,   34.4515686,    103.72049,           0.
    755,   49.3037376,   103.735413,           0.
    756,   22.0753765,   107.677895,           0.
    757,   16.3064709,   64.5374374,           0.
    758,   20.2959785,   99.8558426,           0.
    759,   20.2656784,   76.4280014,           0.
    760,   20.3073673,   95.1118698,           0.
    761,   20.2737656,   81.0638809,           0.
    762,   12.0138025,   58.1869469,           0.
    763,   20.3195705,   90.3960724,           0.
    764,   20.3007011,   85.7191925,           0.
    765,   16.3588715,   69.3295135,           0.
    766,   16.4203949,   59.3181458,           0.
    767,   26.1176529,   58.5590439,           0.
    768,   37.8034058,    62.656559,           0.
    769,    33.127594,    62.663166,           0.
    770,   44.3129959,   66.1854401,           0.
    771,   51.3716812,   63.2323723,           0.
    772,   21.4800186,   58.6629562,           0.
    773,   53.1570244,   79.9940109,           0.
    774,   52.3232079,   99.4609528,           0.
    775,   53.1209679,   84.7688065,           0.
    776,   53.1116219,   75.3109436,           0.
    777,   57.0907402,   68.2485886,           0.
    778,   52.9543419,   94.3153381,           0.
    779,    53.055088,   89.5663071,           0.
    780,   29.5970402,   103.613358,           0.
    781,   41.9134483,   99.4755096,           0.
    782,   46.9240265,   99.5699081,           0.
    783,   36.8866577,   99.5434647,           0.
    784,   24.4334507,   102.898903,           0.
    785,   53.2588387,    66.755806,           0.
    786,   20.9675541,   66.8053284,           0.
    787,   24.3753147,   97.6127548,           0.
    788,   24.3163872,   78.7463608,           0.
    789,   24.5000668,   92.7819519,           0.
    790,   24.3650169,   83.3622284,           0.
    791,   24.4151306,   88.0244675,           0.
    792,   20.3441372,   71.8465195,           0.
    793,   28.4541664,   62.6836052,           0.
    794,    19.980484,   103.955368,           0.
    795,   35.4879951,   66.7819519,           0.
    796,   40.2262726,   66.6432343,           0.
    797,   23.8166523,    62.651001,           0.
    798,   48.9634132,   82.4225235,           0.
    799,   48.8746033,   77.7556381,           0.
    800,   53.0265541,   70.6543732,           0.
    801,   48.9198112,   87.2014236,           0.
    802,   48.8886909,   91.9542542,           0.
    803,   49.1219292,   96.0402756,           0.
    804,   32.0213356,   99.5688324,           0.
    805,   44.5896301,   94.8117142,           0.
    806,   39.2757874,   95.2749786,           0.
    807,   27.8992767,   99.7983093,           0.
    808,   48.7370834,   67.6322937,           0.
    809,   29.1363163,   95.3448715,           0.
    810,   24.0032463,   70.2201309,           0.
    811,   28.3612785,    80.986557,           0.
    812,   19.7982178,   62.3949738,           0.
    813,   28.5563793,   90.2806244,           0.
    814,   28.4680138,   85.6443253,           0.
    815,   24.2681866,   74.1831589,           0.
    816,   30.8040104,   66.8819962,           0.
    817,   38.1683884,   70.7782516,           0.
    818,   43.5792542,    70.568985,           0.
    819,   26.0693035,   66.7775803,           0.
    820,   44.6790695,   80.2994919,           0.
    821,   44.7801247,   84.9979248,           0.
    822,   48.6312065,   72.9425812,           0.
    823,   44.8559227,   89.6947403,           0.
    824,   34.3730698,   95.3980255,           0.
    825,   28.3366604,   71.4104385,           0.
    826,   32.4200745,   83.2300339,           0.
    827,   32.4976196,   87.8917923,           0.
    828,    28.169733,   76.3784027,           0.
    829,    33.398056,   70.9706345,           0.
    830,   40.5295715,   74.1583481,           0.
    831,   40.6034164,   82.8940659,           0.
    832,    44.454628,   75.6537399,           0.
    833,    36.710144,   90.7493515,           0.
    834,   40.7961388,   87.5855942,           0.
    835,    31.613018,   74.5519867,           0.
    836,    36.563118,   85.5192184,           0.
    837,    32.153904,   78.5708847,           0.
    838,    36.092617,   75.4274216,           0.
    839,   41.2455254,   91.6232758,           0.
    840,   32.2547073,   91.9329376,           0.
    841,   36.3778687,   80.6398392,           0.
    842,   40.4561958,   78.1788177,           0.
    843,   78.1500702,    30.981657,           0.
    844,   99.9954453,   4.12009048,           0.
    845,      161.778,   4.11860991,           0.
    846,   128.510101,   4.12021255,           0.
    847,   78.1467514,   12.1048803,           0.
    848,   78.0967026,   16.9525776,           0.
    849,   78.0195389,   21.8282242,           0.
    850,   77.9162292,   26.5340729,           0.
    851,   171.304565,   4.13610554,           0.
    852,   180.546722,   42.0593071,           0.
    853,    184.62558,    42.429966,           0.
    854,   175.735443,    42.053566,           0.
    855,   166.534485,   4.12039328,           0.
    856,   170.880386,   42.0559998,           0.
    857,   166.035416,   42.0547066,           0.
    858,   152.272583,   4.12014818,           0.
    859,   151.506821,   42.0524406,           0.
    860,   138.015091,   4.12051058,           0.
    861,   136.979019,   42.0522957,           0.
    862,   123.757599,   4.12063551,           0.
    863,   122.451256,   42.0522957,           0.
    864,   112.765953,   42.0528641,           0.
    865,   87.3826218,   36.9228935,           0.
    866,   95.2458115,   4.12442732,           0.
    867,   90.4842834,   4.16507816,           0.
    868,   85.5484619,   4.31538534,           0.
    869,   80.3389969,   4.36003494,           0.
    870,   188.583084,   30.0555916,           0.
    871,   188.644394,   25.4195137,           0.
    872,   188.643234,   20.8046379,           0.
    873,   188.601273,   16.1648102,           0.
    874,   188.455414,   11.3624849,           0.
    875,   188.407608,   6.30201244,           0.
    876,   157.025284,   4.12021351,           0.
    877,   161.192245,   42.0538864,           0.
    878,   156.349487,   42.0534706,           0.
    879,   147.520096,   4.12051105,           0.
    880,   142.767593,   4.12105799,           0.
    881,   146.664215,   42.0526695,           0.
    882,   141.821625,   42.0529289,           0.
    883,   133.262604,   4.12078571,           0.
    884,   132.136429,   42.0526314,           0.
    885,   127.293846,   42.0530243,           0.
    886,   119.005089,   4.12057924,           0.
    887,   114.252541,   4.12035656,           0.
    888,   117.608627,   42.0530777,           0.
    889,   109.499992,   4.12001657,           0.
    890,   104.747681,   4.12008429,           0.
    891,    107.92318,   42.0538483,           0.
    892,   103.076195,   42.0595436,           0.
    893,    98.237854,   42.1135902,           0.
    894,   93.5441589,   42.1926003,           0.
    895,   89.1177521,     41.95858,           0.
    896,   83.1499634,   32.6514015,           0.
    897,   188.359406,   34.8818665,           0.
    898,   184.445694,   13.7592525,           0.
    899,   188.288727,   39.9628944,           0.
    900,   184.587601,   27.7050953,           0.
    901,   184.609924,   23.0925045,           0.
    902,   184.553177,   18.4281521,           0.
    903,   176.100113,   4.17211533,           0.
    904,   168.912979,   8.25907135,           0.
    905,   149.896378,   8.24470997,           0.
    906,   130.886353,   8.24489689,           0.
    907,   116.628616,   8.24472809,           0.
    908,   126.133842,   8.24554157,           0.
    909,   97.6194458,   8.25178432,           0.
    910,    88.002449,   8.43041325,           0.
    911,   184.849609,   3.85274029,           0.
    912,   107.123642,   8.24332809,           0.
    913,    180.81218,   4.15421677,           0.
    914,   154.649353,   8.24445534,           0.
    915,   145.143845,   8.24569225,           0.
    916,    135.63884,   8.24566841,           0.
    917,     111.8759,   8.24486637,           0.
    918,   92.8186722,   8.30757236,           0.
    919,   164.158081,   8.24317455,           0.
    920,    159.40329,   8.24339771,           0.
    921,   140.391342,   8.24645042,           0.
    922,   121.381264,   8.24599743,           0.
    923,   102.372025,   8.24549007,           0.
    924,   173.413498,   37.7381744,           0.
    925,   120.029869,    37.868042,           0.
    926,   183.604263,   37.6427803,           0.
    927,   134.557724,   37.8678131,           0.
    928,   105.486877,   37.8809586,           0.
    929,   178.378372,   37.7398186,           0.
    930,   168.477753,   37.8527489,           0.
    931,   163.617859,   37.8685799,           0.
    932,   153.928329,   37.8686409,           0.
    933,   158.771881,   37.8702354,           0.
    934,   144.242935,   37.8679657,           0.
    935,    139.40033,   37.8687134,           0.
    936,   124.872513,   37.8683701,           0.
    937,   129.715134,   37.8687401,           0.
    938,    110.34137,      37.8722,           0.
    939,   95.6965408,   38.0981026,           0.
    940,   115.186501,   37.8699722,           0.
    941,   100.579506,   37.9425201,           0.
    942,   149.085632,   37.8689613,           0.
    943,   82.3686676,   19.3737755,           0.
    944,   77.7867279,   8.02419376,           0.
    945,   82.4367218,    14.405159,           0.
    946,    82.022438,   24.3161125,           0.
    947,   183.749847,   8.51749611,           0.
    948,   81.4494019,   28.4078751,           0.
    949,   91.6149292,   38.6322289,           0.
    950,   82.6120605,   9.12861061,           0.
    951,   92.4751663,   33.9585266,           0.
    952,   86.0555115,   27.4602165,           0.
    953,   180.706619,   11.9164124,           0.
    954,   180.512146,   16.0358486,           0.
    955,    180.51857,    20.714325,           0.
    956,   180.462769,   25.3970146,           0.
    957,   184.399567,   32.3928909,           0.
    958,   173.732651,   8.38418865,           0.
    959,   128.510086,   12.3755398,           0.
    960,   147.520248,    12.375515,           0.
    961,   152.273621,   12.3747826,           0.
    962,   119.004639,   12.3753176,           0.
    963,   123.757446,   12.3767605,           0.
    964,   133.262589,   12.3760443,           0.
    965,   157.028198,   12.3722734,           0.
    966,   138.015091,   12.3766651,           0.
    967,   142.767624,   12.3771858,           0.
    968,   114.251595,   12.3748674,           0.
    969,   109.499123,   12.3735409,           0.
    970,   104.748329,   12.3730049,           0.
    971,   161.784607,   12.3675804,           0.
    972,   99.9839401,   12.3761272,           0.
    973,   90.3223648,   12.4087095,           0.
    974,   166.527786,   12.3485031,           0.
    975,   95.1551895,   12.3758793,           0.
    976,   178.568909,   8.36620712,           0.
    977,   86.1244659,   12.2026453,           0.
    978,   127.293777,   33.6891174,           0.
    979,   132.136414,   33.6894608,           0.
    980,   117.607826,   33.6903496,           0.
    981,   136.979034,   33.6896591,           0.
    982,   141.821671,   33.6897888,           0.
    983,   122.450935,   33.6905556,           0.
    984,   146.664444,   33.6900406,           0.
    985,    112.76252,   33.6935921,           0.
    986,    151.50737,   33.6908264,           0.
    987,   156.350601,   33.6920052,           0.
    988,   161.195038,   33.6942444,           0.
    989,   166.044647,   33.6975594,           0.
    990,   107.901711,   33.7028427,           0.
    991,   97.9925308,   33.7910423,           0.
    992,   170.886932,    33.600769,           0.
    993,   102.988464,   33.7329903,           0.
    994,   176.114395,   32.9721451,           0.
    995,    180.61261,   34.1537323,           0.
    996,   86.4219971,   21.9711399,           0.
    997,   87.2394562,   16.6803608,           0.
    998,   176.322571,   13.0644865,           0.
    999,    176.44133,   18.1539364,           0.
   1000,   176.126373,   22.8629761,           0.
   1001,   180.399384,   30.0654621,           0.
   1002,   102.430122,   16.5690193,           0.
   1003,   97.5210266,    16.626297,           0.
   1004,   131.036392,   16.5779419,           0.
   1005,   126.298759,   16.5895252,           0.
   1006,   121.550461,   16.5972195,           0.
   1007,   135.837769,   16.5956669,           0.
   1008,   140.612427,   16.5998363,           0.
   1009,   145.381226,    16.600359,           0.
   1010,   150.149567,   16.5995007,           0.
   1011,     154.9189,    16.597456,           0.
   1012,    107.23185,   16.5926304,           0.
   1013,   116.797409,   16.6052399,           0.
   1014,   112.047935,   16.6207714,           0.
   1015,   159.690689,   16.5933895,           0.
   1016,   164.468307,   16.5266972,           0.
   1017,   171.235947,    12.402935,           0.
   1018,   100.502937,   29.5090656,           0.
   1019,   129.622101,   29.4761562,           0.
   1020,   134.444916,   29.4710789,           0.
   1021,   139.271744,   29.4681911,           0.
   1022,   124.764374,   29.4679222,           0.
   1023,   144.104218,   29.4677734,           0.
   1024,   119.928993,   29.4690685,           0.
   1025,   158.647842,    29.483532,           0.
   1026,   115.093956,   29.4729004,           0.
   1027,   148.928879,   29.4655628,           0.
   1028,   153.751877,   29.4637527,           0.
   1029,   163.436981,   29.4734364,           0.
   1030,   105.377907,   29.4853783,           0.
   1031,   110.227333,   29.4662533,           0.
   1032,   168.264023,   29.5002995,           0.
   1033,    172.51619,   29.7995586,           0.
   1034,    90.306076,   20.0672646,           0.
   1035,   176.119232,   27.7083073,           0.
   1036,   172.158539,   19.8665066,           0.
   1037,   173.015625,   15.9611015,           0.
   1038,   100.111809,   20.9639053,           0.
   1039,   105.022781,   20.9069328,           0.
   1040,   129.027435,   20.8913555,           0.
   1041,   124.247551,   20.8975029,           0.
   1042,   133.832184,   20.8987579,           0.
   1043,   138.629074,   20.9016781,           0.
   1044,   143.423981,   20.9028568,           0.
   1045,   148.208817,   20.9001999,           0.
   1046,   119.474342,   20.9096279,           0.
   1047,    109.86927,   20.9118481,           0.
   1048,   153.012741,    20.902607,           0.
   1049,   114.686577,   20.9183559,           0.
   1050,   157.822403,    20.905571,           0.
   1051,   162.601837,     20.85322,           0.
   1052,   169.128967,   16.2956371,           0.
   1053,   92.5568314,   16.5612392,           0.
   1054,   90.4497528,   24.2026386,           0.
   1055,   95.6882401,   29.5078144,           0.
   1056,   131.765167,   25.1962395,           0.
   1057,   136.570511,   25.1930237,           0.
   1058,   126.935699,   25.1916199,           0.
   1059,   141.383469,   25.1926746,           0.
   1060,   146.185944,   25.1892109,           0.
   1061,   122.121483,   25.1941757,           0.
   1062,   117.309654,   25.1995773,           0.
   1063,   155.847244,   25.1987076,           0.
   1064,   150.989243,   25.1866741,           0.
   1065,   160.639343,   25.1849098,           0.
   1066,    112.47702,   25.1963997,           0.
   1067,   102.788582,   25.2257862,           0.
   1068,   165.567673,   25.1387711,           0.
   1069,   107.627151,   25.1987667,           0.
   1070,   171.159943,   25.0777855,           0.
   1071,    88.033638,   31.9491005,           0.
   1072,   94.7141953,   21.3510189,           0.
   1073,   91.1192398,    28.805687,           0.
   1074,   167.514221,   20.6264362,           0.
   1075,   97.9698181,   25.3855686,           0.
   1076,   93.9882507,    25.850544,           0.
   1077,    69.570549,   16.8715286,           0.
   1078,   69.3884888,   11.7517214,           0.
   1079,   40.2640915,   42.1294174,           0.
   1080,   69.3579025,   6.46597338,           0.
   1081,   58.6024818,   41.9292717,           0.
   1082,   60.5080948,   36.8593559,           0.
   1083,    65.099678,   33.4165993,           0.
   1084,   69.6968765,   21.7756901,           0.
   1085,   69.6805496,   26.5351849,           0.
   1086,   69.5093765,   31.1225262,           0.
   1087,   21.2881145,   42.0633659,           0.
   1088,    26.047945,   42.1228828,           0.
   1089,   30.7891655,   42.1301651,           0.
   1090,   35.5268745,   42.1291618,           0.
   1091,   45.0009079,   42.1272926,           0.
   1092,   49.6912079,   42.1521988,           0.
   1093,   54.2080765,   42.2184296,           0.
   1094,   4.36242914,   6.32652617,           0.
   1095,   4.27404833,   11.3575716,           0.
   1096,   4.09136486,    16.149374,           0.
   1097,   4.04343891,   20.8040218,           0.
   1098,   4.03338623,   25.4324398,           0.
   1099,   4.06932163,   30.0767975,           0.
   1100,   4.21011496,   34.8819542,           0.
   1101,    4.2484355,   39.9370041,           0.
   1102,   56.6087456,   4.22184753,           0.
   1103,   51.6952591,   4.24957275,           0.
   1104,   46.7748985,   4.25346184,           0.
   1105,   41.8517418,   4.25363493,           0.
   1106,   36.9281082,   4.25380898,           0.
   1107,   32.0041466,   4.25263977,           0.
   1108,   27.0797291,   4.24857569,           0.
   1109,   22.1472607,   4.24065351,           0.
   1110,    17.155592,   4.25774097,           0.
   1111,   12.2312298,   4.21179104,           0.
   1112,   8.20180416,   32.3729248,           0.
   1113,    8.1439724,   18.4571075,           0.
   1114,   8.09793568,   23.1154938,           0.
   1115,   8.11672211,   27.7329845,           0.
   1116,   8.34485531,   13.7711449,           0.
   1117,   16.5042057,   41.9661255,           0.
   1118,    11.791769,   41.9939728,           0.
   1119,   28.4170074,    38.017971,           0.
   1120,   47.3718262,   38.0298576,           0.
   1121,   52.0840416,   38.1147804,           0.
   1122,   7.82086372,   42.4075546,           0.
   1123,   42.6313629,   38.0096245,           0.
   1124,   37.8941383,   38.0089264,           0.
   1125,   33.1560402,   38.0116005,           0.
   1126,    23.684267,   37.9009247,           0.
   1127,   65.4172974,   19.2588711,           0.
   1128,   65.2145767,   14.2323313,           0.
   1129,    65.423439,   24.1165161,           0.
   1130,   61.4840508,   4.18790865,           0.
   1131,   65.6521988,   3.87303519,           0.
   1132,   49.2315178,   8.50082397,           0.
   1133,   34.4650345,   8.49719048,           0.
   1134,   29.5384369,    8.4881115,           0.
   1135,   14.4857883,   8.47003746,           0.
   1136,   54.2098541,   8.60947227,           0.
   1137,   24.6005859,   8.47189903,           0.
   1138,   39.3895035,   8.49816895,           0.
   1139,   44.3117981,   8.49771976,           0.
   1140,   19.5309658,    8.5535574,           0.
   1141,   9.12866592,     8.583395,           0.
   1142,   8.87645912,   37.5945015,           0.
   1143,   65.2493973,   28.8368664,           0.
   1144,   56.1467743,   38.5787926,           0.
   1145,   55.3156471,   33.9574013,           0.
   1146,   60.5611343,   31.3677235,           0.
   1147,     64.49823,    8.7269392,           0.
   1148,   60.8382568,   26.4549236,           0.
   1149,   12.1504793,   30.0235195,           0.
   1150,   12.1587877,   25.4407482,           0.
   1151,   12.1870661,    20.786911,           0.
   1152,   12.2788296,   16.1294136,           0.
   1153,   11.9228687,   34.1066856,           0.
   1154,   30.7232246,   33.8508415,           0.
   1155,   35.5114326,   33.8734932,           0.
   1156,   40.2572098,   33.8727608,           0.
   1157,   45.0432129,   33.8817177,           0.
   1158,   49.8401718,   34.0116844,           0.
   1159,   25.9410973,   33.7323265,           0.
   1160,   14.0512247,   37.7048378,           0.
   1161,   18.8938732,   37.6984062,           0.
   1162,   61.2257385,   16.6906242,           0.
   1163,   61.0899734,   21.6125851,           0.
   1164,   59.1760597,   8.57067585,           0.
   1165,   36.9250717,   12.7292833,           0.
   1166,   41.8495941,   12.7311516,           0.
   1167,    51.706871,   12.9089365,           0.
   1168,   31.9869976,     12.71558,           0.
   1169,   46.8070412,   12.7890806,           0.
   1170,   27.0026531,    12.686799,           0.
   1171,   22.0039463,   12.7092333,           0.
   1172,   16.6511803,   13.2737217,           0.
   1173,    8.0987196,   3.82434249,           0.
   1174,   55.9772797,   28.6785431,           0.
   1175,   16.3151932,    32.980011,           0.
   1176,   16.0605888,   27.9198246,           0.
   1177,   16.2892799,   23.2534389,           0.
   1178,   16.4041634,   18.4732895,           0.
   1179,   12.1778641,   12.0455427,           0.
   1180,   42.5694351,   29.7068825,           0.
   1181,   47.4991913,   29.9021339,           0.
   1182,   37.7546387,    29.695694,           0.
   1183,   32.8377266,   29.6062622,           0.
   1184,   27.9235096,   29.5276661,           0.
   1185,   21.2698193,   33.6178856,           0.
   1186,   56.9710236,   18.9222527,           0.
   1187,   61.4135513,   12.3478422,           0.
   1188,   51.9199677,   30.5047455,           0.
   1189,   56.9066505,   13.5714941,           0.
   1190,   44.4581108,   17.0433178,           0.
   1191,   39.4774017,    16.978672,           0.
   1192,   49.3917389,    16.983923,           0.
   1193,   34.5309982,   16.9488754,           0.
   1194,   20.0881672,   16.4414158,           0.
   1195,   24.4102974,   16.7544117,           0.
   1196,   29.4864807,   16.8533859,           0.
   1197,   56.3885918,   23.7361927,           0.
   1198,   20.1812916,   26.1312923,           0.
   1199,    21.292345,   21.0342102,           0.
   1200,    45.040947,   25.6193676,           0.
   1201,    39.940937,   25.4875107,           0.
   1202,   34.9561157,   25.3910007,           0.
   1203,   29.9282417,    25.309309,           0.
   1204,   23.2775269,   29.7107887,           0.
   1205,   53.4927521,   16.6322994,           0.
   1206,   42.2189598,   21.2954712,           0.
   1207,   47.4274635,   21.2818222,           0.
   1208,   37.2172165,   21.2078056,           0.
   1209,   32.1546822,   21.0966206,           0.
   1210,   27.0227032,   21.0607014,           0.
   1211,    50.962986,   25.7853851,           0.
   1212,   52.4390945,   20.5569782,           0.
   1213,   19.4208851,   30.0719604,           0.
   1214,    24.937603,    25.462328,           0.
*Element, type=S3
  1, 290,  16, 287
  2, 272,  87, 201
  3, 242,  79, 241
  4, 201,  13,  14
  5, 295,   3,  28
  6, 287,  16,  17
  7, 292,  18, 202
  8, 202,  18,  19
  9, 268,  82,  83
 10, 203, 202,  19
 11, 204, 203,  20
 12, 221,  31, 220
 13, 207,  22,  23
 14, 291, 207, 208
 15, 205, 204,  21
 16, 317, 209, 206
 17, 209,   2,  25
 18, 295,  28, 223
 19,  48,   4,  49
 20, 237,  49,  50
 21, 262, 234, 256
 22, 256, 234, 233
 23, 257, 233, 232
 24, 329, 257, 326
 25, 304,  45,  46
 26, 296,  42,  43
 27, 249,  72, 248
 28, 212,  41, 211
 29, 213,  40, 212
 30, 213,  39,  40
 31, 215,  37, 200
 32, 216,  36, 215
 33, 217,  35, 216
 34, 218,  34, 217
 35, 294, 204, 205
 36, 219,  33, 218
 37, 220,  32, 219
 38, 210, 206,  26
 39, 223,  28,  29
 40,  64,  63,   5
 41, 224,  63,  64
 42, 255,  66, 254
 43, 225,  61,  62
 44, 226,  60,  61
 45, 227,  59,  60
 46, 228,  58,  59
 47, 229,  57,  58
 48, 231,  56, 230
 49, 232,  55, 231
 50, 233,  54, 232
 51, 234,  53, 233
 52, 235,  52, 234
 53, 236,  51, 235
 54, 237,  50, 236
 55,  87,   1,  13
 56, 201,  87,  13
 57, 267, 238,  85
 58, 267,  85,  86
 59, 268, 239,  82
 60, 273,  84, 238
 61, 273,  83,  84
 62, 274, 240, 270
 63, 269, 242, 241
 64, 275, 242, 269
 65, 243,  78, 242
 66, 244,  77, 243
 67, 276, 246, 245
 68, 277, 246, 276
 69, 246,  75, 245
 70, 247,  74, 246
 71, 248,  73, 247
 72, 250,  71, 249
 73, 322, 260, 266
 74, 327, 261, 264
 75, 252,  69, 251
 76, 327, 324, 261
 77, 385, 325, 324
 78, 377,  64,  65
 79, 200,  37,  38
 80, 214,  38,  39
 81, 353,  15, 290
 82, 410, 358, 351
 83, 203,  19,  20
 84, 293, 203, 289
 85, 204,  20,  21
 86, 270, 240, 239
 87, 205,  21,  22
 88, 340, 337, 269
 89, 209, 208,  24
 90, 206,  25,  26
 91, 210,  26,  27
 92, 600, 378, 320
 93, 207, 205,  22
 94, 208, 207,  23
 95, 208,  23,  24
 96, 291, 288, 207
 97, 209,  24,   2
 98, 209,  25, 206
 99, 222,  30, 221
100, 300, 221, 220
101, 211,  41,  42
102, 282, 278, 250
103, 245,  76, 244
104, 212,  40,  41
105, 309, 308, 215
106, 283, 244, 271
107, 214, 200,  38
108, 214,  39, 213
109, 241,  80, 240
110, 215,  36,  37
111, 240,  81, 239
112, 216,  35,  36
113, 312, 218, 299
114, 217,  34,  35
115, 302, 300, 220
116, 218,  33,  34
117, 355, 294, 288
118, 219,  32,  33
119, 313, 221, 300
120, 220,  31,  32
121, 320, 317, 206
122, 221,  30,  31
123, 303, 223, 222
124, 222,  29,  30
125, 359, 223, 303
126, 223,  29, 222
127, 225,  62, 224
128, 224,  62,  63
129, 254,  67, 253
130, 226,  61, 225
131, 253,  68, 252
132, 227,  60, 226
133, 251,  70, 250
134, 228,  59, 227
135, 259, 229, 228
136, 229,  58, 228
137, 259, 258, 229
138, 230,  57, 229
139, 266, 260, 231
140, 230,  56,  57
141, 257, 256, 233
142, 231,  55,  56
143, 298,  44, 297
144, 232,  54,  55
145, 379, 363, 362
146, 233,  53,  54
147, 305, 304,  46
148, 234,  52,  53
149, 263, 235, 262
150, 235,  51,  52
151, 315, 236, 263
152, 236,  50,  51
153, 306,  48, 237
154, 237,  48,  49
155, 238,  84,  85
156, 348, 267, 318
157, 239,  81,  82
158, 294, 289, 204
159, 307, 299, 217
160, 240,  80,  81
161, 275, 271, 243
162, 241,  79,  80
163, 310, 200, 214
164, 242,  78,  79
165, 271, 244, 243
166, 243,  77,  78
167, 283, 276, 245
168, 244,  76,  77
169, 338, 276, 336
170, 245,  75,  76
171, 285, 248, 284
172, 246,  74,  75
173, 284, 247, 277
174, 247,  73,  74
175, 284, 248, 247
176, 248,  72,  73
177, 326, 260, 322
178, 249,  71,  72
179, 261, 259, 228
180, 250,  70,  71
181, 264, 261, 227
182, 251,  69,  70
183, 265, 264, 226
184, 252,  68,  69
185, 377, 316, 224
186, 253,  67,  68
187, 281, 253, 280
188, 254,  66,  67
189, 377, 255, 316
190, 255,  65,  66
191, 260, 232, 231
192, 363, 297, 304
193, 266, 230, 258
194, 478, 467, 421
195, 258, 230, 229
196, 323, 322, 266
197, 261, 228, 227
198, 279, 251, 278
199, 260, 257, 232
200, 266, 231, 230
201, 264, 227, 226
202, 280, 252, 279
203, 304, 297,  45
204, 262, 235, 234
205, 362, 315, 321
206, 263, 236, 235
207, 265, 226, 225
208, 393, 344, 392
209, 316, 265, 225
210, 286, 255, 254
211, 386, 327, 328
212, 278, 251, 250
213, 272, 267,  86
214, 358, 292, 351
215, 273, 268,  83
216, 395, 391, 332
217, 274, 241, 240
218, 308, 307, 216
219, 350, 239, 268
220, 462, 461, 414
221, 275, 243, 242
222, 310, 214, 301
223, 272,  86,  87
224, 318, 272, 201
225, 348, 238, 267
226, 349, 273, 238
227, 341, 340, 274
228, 274, 269, 241
229, 337, 334, 275
230, 334, 333, 271
231, 283, 245, 244
232, 314, 212, 311
233, 342, 285, 335
234, 277, 247, 246
235, 282, 250, 249
236, 522, 481, 482
237, 328, 327, 264
238, 279, 252, 251
239, 343, 280, 279
240, 280, 253, 252
241, 345, 280, 343
242, 281, 254, 253
243, 285, 249, 248
244, 347, 282, 342
245, 365, 364, 308
246, 336, 283, 333
247, 338, 277, 276
248, 371, 370, 301
249, 407, 335, 394
250, 285, 282, 249
251, 390, 316, 286
252, 286, 254, 281
253, 292, 287,  17
254, 396, 395, 349
255, 294, 205, 288
256, 288, 205, 207
257, 427, 368, 418
258, 289, 203, 204
259, 409, 290, 352
260, 290,  15,  16
261, 317, 291, 208
262, 320, 319, 317
263, 292,  17,  18
264, 351, 202, 293
265, 444, 396, 432
266, 293, 202, 203
267, 374, 300, 372
268, 372, 302, 368
269, 295, 210,  27
270, 295,  27,   3
271, 296, 211,  42
272, 298,  43,  44
273, 297,  44,  45
274, 379, 362, 321
275, 543, 515, 465
276, 298, 296,  43
277, 299, 218, 217
278, 307, 217, 216
279, 302, 220, 219
280, 312, 302, 219
281, 301, 214, 213
282, 314, 213, 212
283, 403, 402, 340
284, 479, 463, 378
285, 359, 295, 223
286, 313, 303, 222
287, 305,  46,  47
288, 379, 321, 331
289, 306, 305,  47
290, 315, 306, 237
291, 306,  47,  48
292, 315, 237, 236
293, 308, 216, 215
294, 366, 307, 364
295, 309, 215, 200
296, 400, 334, 399
297, 310, 309, 200
298, 448, 447, 398
299, 401, 336, 398
300, 370, 367, 310
301, 311, 212, 211
302, 360, 211, 296
303, 312, 219, 218
304, 369, 299, 366
305, 313, 222, 221
306, 374, 373, 313
307, 375, 371, 314
308, 314, 301, 213
309, 321, 315, 263
310, 315, 305, 306
311, 316, 225, 224
312, 316, 255, 286
313, 317, 208, 209
314, 320, 206, 210
315, 318, 267, 272
316, 353, 318, 201
317, 354, 291, 319
318, 319, 291, 317
319, 600, 210, 359
320, 373, 303, 313
321, 331, 263, 262
322, 330, 256, 329
323, 323, 266, 258
324, 438, 382, 386
325, 325, 258, 259
326, 392, 344, 347
327, 324, 259, 261
328, 386, 382, 327
329, 325, 323, 258
330, 325, 259, 324
331, 435, 383, 434
332, 326, 257, 260
333, 328, 264, 265
334, 438, 437, 382
335, 390, 328, 265
336, 346, 286, 281
337, 381, 329, 326
338, 329, 256, 257
339, 383, 329, 381
340, 330, 262, 256
341, 331, 321, 263
342, 331, 262, 330
343, 391, 350, 332
344, 332, 268, 273
345, 333, 283, 271
346, 334, 271, 275
347, 337, 275, 269
348, 511, 470, 509
349, 335, 285, 284
350, 339, 284, 277
351, 367, 365, 309
352, 336, 276, 283
353, 340, 269, 274
354, 422, 364, 419
355, 397, 394, 339
356, 339, 277, 338
357, 475, 472, 420
358, 339, 335, 284
359, 341, 274, 270
360, 369, 368, 312
361, 408, 270, 350
362, 357, 289, 356
363, 407, 406, 342
364, 342, 282, 285
365, 344, 279, 278
366, 344, 343, 279
367, 347, 278, 282
368, 347, 344, 278
369, 405, 343, 393
370, 345, 281, 280
371, 390, 346, 328
372, 346, 281, 345
373, 407, 342, 335
374, 439, 388, 385
375, 409, 353, 290
376, 352, 290, 287
377, 349, 332, 273
378, 349, 238, 348
379, 350, 270, 239
380, 350, 268, 332
381, 351, 292, 202
382, 411, 293, 357
383, 431, 318, 409
384, 358, 352, 287
385, 353, 201,  14
386, 353,  14,  15
387, 355, 288, 354
388, 354, 288, 291
389, 463, 354, 319
390, 356, 294, 355
391, 427, 426, 372
392, 356, 289, 294
393, 503, 490, 444
394, 357, 293, 289
395, 358, 287, 292
396, 504, 458, 460
397, 359, 210, 295
398, 380, 303, 373
399, 360, 311, 211
400, 376, 296, 298
401, 361, 298, 297
402, 421, 363, 379
403, 362, 304, 305
404, 362, 305, 315
405, 363, 361, 297
406, 363, 304, 362
407, 364, 307, 308
408, 365, 308, 309
409, 367, 309, 310
410, 470, 469, 419
411, 402, 399, 337
412, 366, 299, 307
413, 370, 310, 301
414, 424, 367, 370
415, 368, 302, 312
416, 369, 312, 299
417, 422, 366, 364
418, 450, 449, 399
419, 371, 301, 314
420, 424, 370, 420
421, 375, 314, 311
422, 428, 420, 371
423, 417, 373, 374
424, 372, 300, 302
425, 600, 380, 378
426, 374, 313, 300
427, 559, 558, 527
428, 480, 417, 474
429, 416, 311, 360
430, 467, 465, 429
431, 376, 360, 296
432, 376, 298, 361
433, 377, 224,  64
434, 377,  65, 255
435, 463, 319, 378
436, 378, 319, 320
437, 387, 331, 330
438, 436, 434, 381
439, 380, 359, 303
440, 433, 373, 417
441, 384, 326, 322
442, 384, 381, 326
443, 385, 324, 382
444, 382, 324, 327
445, 434, 383, 381
446, 383, 330, 329
447, 389, 322, 323
448, 484, 482, 436
449, 388, 325, 385
450, 492, 488, 443
451, 386, 328, 346
452, 404, 346, 345
453, 387, 379, 331
454, 387, 330, 383
455, 443, 393, 392
456, 388, 323, 325
457, 389, 384, 322
458, 389, 323, 388
459, 390, 265, 316
460, 390, 286, 346
461, 442, 408, 391
462, 395, 332, 349
463, 406, 347, 342
464, 519, 477, 515
465, 438, 386, 404
466, 393, 343, 344
467, 394, 335, 339
468, 397, 339, 338
469, 396, 349, 348
470, 458, 410, 411
471, 432, 409, 352
472, 412, 358, 410
473, 401, 338, 336
474, 472, 471, 424
475, 398, 336, 333
476, 400, 333, 334
477, 399, 334, 337
478, 402, 337, 340
479, 449, 448, 400
480, 400, 398, 333
481, 453, 452, 397
482, 401, 397, 338
483, 403, 340, 341
484, 451, 450, 402
485, 457, 341, 408
486, 415, 356, 414
487, 404, 386, 346
488, 405, 404, 345
489, 405, 345, 343
490, 488, 446, 443
491, 456, 406, 407
492, 406, 392, 347
493, 454, 394, 452
494, 456, 407, 454
495, 408, 341, 270
496, 408, 350, 391
497, 432, 352, 412
498, 409, 318, 353
499, 411, 351, 293
500, 411, 410, 351
501, 460, 357, 415
502, 489, 487, 442
503, 432, 431, 409
504, 412, 352, 358
505, 414, 355, 413
506, 413, 355, 354
507, 461, 415, 414
508, 414, 356, 355
509, 529, 490, 505
510, 415, 357, 356
511, 416, 375, 311
512, 430, 360, 376
513, 426, 374, 372
514, 427, 372, 368
515, 418, 368, 369
516, 423, 369, 366
517, 419, 364, 365
518, 425, 365, 367
519, 420, 370, 371
520, 428, 371, 375
521, 429, 361, 421
522, 421, 361, 363
523, 514, 469, 511
524, 423, 366, 422
525, 493, 491, 449
526, 423, 418, 369
527, 453, 401, 447
528, 425, 367, 424
529, 471, 470, 425
530, 425, 419, 365
531, 520, 507, 462
532, 426, 417, 374
533, 495, 493, 450
534, 476, 427, 466
535, 464, 375, 416
536, 498, 452, 497
537, 478, 421, 379
538, 429, 376, 361
539, 430, 416, 360
540, 430, 376, 429
541, 431, 396, 348
542, 431, 348, 318
543, 503, 432, 412
544, 432, 396, 431
545, 433, 378, 380
546, 433, 380, 373
547, 543, 467, 435
548, 436, 381, 384
549, 478, 435, 467
550, 435, 387, 383
551, 440, 384, 389
552, 499, 438, 446
553, 439, 385, 437
554, 437, 385, 382
555, 438, 404, 405
556, 446, 393, 443
557, 536, 492, 501
558, 441, 388, 439
559, 440, 436, 384
560, 441, 440, 389
561, 441, 389, 388
562, 499, 483, 437
563, 487, 457, 442
564, 445, 391, 395
565, 455, 392, 406
566, 556, 555, 525
567, 444, 395, 396
568, 459, 410, 458
569, 445, 442, 391
570, 445, 395, 444
571, 446, 438, 405
572, 446, 405, 393
573, 447, 401, 398
574, 448, 398, 400
575, 449, 400, 399
576, 494, 448, 491
577, 450, 399, 402
578, 473, 422, 469
579, 451, 402, 403
580, 468, 466, 418
581, 502, 403, 457
582, 598, 559, 566
583, 452, 394, 397
584, 453, 397, 401
585, 496, 447, 494
586, 497, 453, 496
587, 456, 455, 406
588, 454, 407, 394
589, 524, 488, 492
590, 455, 443, 392
591, 500, 454, 498
592, 500, 456, 454
593, 457, 403, 341
594, 457, 408, 442
595, 460, 411, 357
596, 460, 458, 411
597, 503, 459, 490
598, 459, 412, 410
599, 506, 415, 461
600, 528, 527, 487
601, 462, 414, 413
602, 476, 474, 426
603, 520, 413, 463
604, 474, 417, 426
605, 463, 413, 354
606, 479, 378, 433
607, 464, 428, 375
608, 477, 416, 430
609, 465, 430, 429
610, 481, 435, 434
611, 466, 427, 418
612, 468, 418, 423
613, 467, 429, 421
614, 543, 435, 481
615, 473, 423, 422
616, 533, 530, 493
617, 469, 422, 419
618, 470, 419, 425
619, 471, 425, 424
620, 548, 547, 514
621, 472, 424, 420
622, 532, 494, 531
623, 475, 420, 428
624, 534, 496, 532
625, 561, 560, 530
626, 473, 468, 423
627, 480, 479, 433
628, 476, 426, 427
629, 508, 428, 464
630, 535, 497, 534
631, 516, 466, 510
632, 517, 474, 476
633, 477, 464, 416
634, 477, 430, 465
635, 478, 379, 387
636, 478, 387, 435
637, 480, 433, 417
638, 520, 463, 479
639, 521, 474, 517
640, 520, 479, 480
641, 482, 434, 436
642, 482, 481, 434
643, 484, 436, 440
644, 582, 522, 523
645, 485, 439, 483
646, 483, 439, 437
647, 486, 440, 441
648, 554, 519, 553
649, 485, 441, 439
650, 524, 483, 488
651, 486, 484, 440
652, 486, 441, 485
653, 527, 502, 487
654, 489, 442, 445
655, 499, 488, 483
656, 492, 443, 455
657, 490, 489, 445
658, 540, 504, 506
659, 490, 445, 444
660, 505, 458, 504
661, 491, 448, 449
662, 493, 449, 450
663, 501, 455, 456
664, 582, 579, 553
665, 495, 450, 451
666, 512, 510, 468
667, 531, 491, 530
668, 494, 447, 448
669, 538, 451, 502
670, 576, 549, 574
671, 513, 509, 471
672, 496, 453, 447
673, 518, 513, 472
674, 497, 452, 453
675, 537, 498, 535
676, 498, 454, 452
677, 499, 437, 438
678, 499, 446, 488
679, 599, 583, 592
680, 501, 456, 500
681, 537, 500, 498
682, 501, 492, 455
683, 502, 451, 403
684, 502, 457, 487
685, 503, 444, 432
686, 503, 412, 459
687, 506, 504, 460
688, 559, 528, 541
689, 505, 490, 459
690, 505, 459, 458
691, 506, 460, 415
692, 542, 461, 507
693, 507, 461, 462
694, 550, 510, 549
695, 508, 475, 428
696, 519, 464, 477
697, 509, 470, 471
698, 513, 471, 472
699, 510, 466, 468
700, 512, 468, 473
701, 514, 512, 473
702, 511, 469, 470
703, 514, 473, 469
704, 596, 595, 590
705, 518, 472, 475
706, 587, 585, 573
707, 575, 548, 573
708, 548, 511, 546
709, 515, 477, 465
710, 543, 522, 515
711, 551, 516, 550
712, 516, 476, 466
713, 521, 520, 480
714, 517, 476, 516
715, 544, 475, 508
716, 588, 587, 572
717, 553, 515, 522
718, 519, 508, 464
719, 520, 462, 413
720, 521, 480, 474
721, 557, 521, 517
722, 521, 507, 520
723, 523, 482, 484
724, 523, 522, 482
725, 525, 484, 486
726, 581, 524, 536
727, 526, 525, 486
728, 524, 485, 483
729, 525, 523, 484
730, 526, 486, 485
731, 526, 485, 524
732, 536, 524, 492
733, 595, 561, 590
734, 528, 487, 489
735, 529, 528, 489
736, 541, 504, 540
737, 529, 489, 490
738, 541, 505, 504
739, 530, 491, 493
740, 533, 493, 495
741, 546, 509, 545
742, 531, 494, 491
743, 563, 532, 562
744, 532, 496, 494
745, 567, 495, 538
746, 549, 512, 547
747, 552, 545, 513
748, 534, 497, 496
749, 539, 500, 537
750, 535, 498, 497
751, 539, 501, 500
752, 583, 556, 568
753, 565, 535, 564
754, 569, 568, 539
755, 538, 495, 451
756, 538, 502, 527
757, 569, 537, 565
758, 539, 536, 501
759, 542, 540, 506
760, 570, 507, 557
761, 541, 528, 529
762, 541, 529, 505
763, 542, 506, 461
764, 577, 550, 576
765, 543, 465, 467
766, 543, 481, 522
767, 544, 518, 475
768, 554, 508, 519
769, 545, 509, 513
770, 552, 513, 518
771, 562, 531, 560
772, 546, 511, 509
773, 547, 512, 514
774, 548, 514, 511
775, 575, 574, 547
776, 573, 546, 572
777, 598, 591, 584
778, 549, 510, 512
779, 566, 559, 540
780, 550, 516, 510
781, 596, 590, 584
782, 551, 517, 516
783, 571, 518, 544
784, 564, 534, 563
785, 553, 519, 515
786, 582, 555, 579
787, 555, 523, 525
788, 554, 544, 508
789, 556, 525, 526
790, 581, 568, 556
791, 581, 556, 526
792, 568, 536, 539
793, 557, 507, 521
794, 557, 517, 551
795, 558, 538, 527
796, 559, 527, 528
797, 559, 541, 540
798, 566, 540, 542
799, 560, 531, 530
800, 561, 530, 533
801, 590, 533, 567
802, 586, 574, 575
803, 588, 572, 578
804, 562, 532, 531
805, 589, 588, 578
806, 563, 534, 532
807, 589, 564, 588
808, 564, 535, 534
809, 593, 592, 569
810, 565, 537, 535
811, 570, 566, 542
812, 591, 570, 551
813, 567, 533, 495
814, 567, 538, 558
815, 569, 539, 537
816, 592, 583, 568
817, 593, 565, 589
818, 580, 554, 579
819, 570, 542, 507
820, 570, 557, 551
821, 571, 552, 518
822, 580, 544, 554
823, 572, 546, 545
824, 578, 572, 545
825, 587, 573, 572
826, 573, 548, 546
827, 574, 549, 547
828, 575, 547, 548
829, 585, 575, 573
830, 586, 575, 585
831, 596, 584, 591
832, 576, 550, 549
833, 591, 551, 577
834, 577, 551, 550
835, 578, 545, 552
836, 594, 578, 552
837, 579, 554, 553
838, 583, 555, 556
839, 597, 592, 593
840, 580, 571, 544
841, 581, 526, 524
842, 581, 536, 568
843, 582, 553, 522
844, 582, 523, 555
845, 599, 555, 583
846, 592, 568, 569
847, 584, 567, 558
848, 598, 584, 558
849, 585, 562, 560
850, 586, 585, 560
851, 586, 560, 561
852, 595, 586, 561
853, 587, 563, 562
854, 587, 562, 585
855, 588, 564, 563
856, 588, 563, 587
857, 594, 589, 578
858, 589, 565, 564
859, 590, 561, 533
860, 590, 567, 584
861, 591, 566, 570
862, 596, 591, 577
863, 593, 569, 565
864, 599, 592, 597
865, 594, 593, 589
866, 597, 593, 594
867, 594, 552, 571
868, 597, 594, 571
869, 595, 576, 574
870, 595, 574, 586
871, 596, 577, 576
872, 596, 576, 595
873, 597, 571, 580
874, 599, 597, 580
875, 598, 558, 559
876, 598, 566, 591
877, 599, 580, 579
878, 599, 579, 555
879, 600, 320, 210
880, 600, 359, 380
 881, 659,   2,  24
 882, 685, 649, 648
 883, 640, 130, 131
 884, 749, 117, 118
 885, 687, 645, 684
 886,  13,   1,  88
 887, 602,  13,  88
 888, 620,  90, 619
 889, 603,  15,  14
 890, 604,  16,  15
 891, 605,  17,  16
 892, 606,  18,  17
 893, 607,  19,  18
 894, 608,  20,  19
 895, 610,  21, 609
 896, 611,  22, 610
 897, 612,  23, 611
 898, 101,   6, 102
 899, 632, 102, 103
 900, 642, 630, 629
 901, 712, 676, 100
 902, 724, 719, 711
 903, 669,  97,  98
 904, 614,  96, 613
 905, 689, 644, 687
 906, 705, 663, 667
 907, 705, 703, 663
 908, 617,  93, 616
 909, 672, 616, 671
 910, 673, 617, 672
 911, 747,  88,  89
 912, 117, 116,   7
 913, 621, 116, 117
 914, 633, 118, 119
 915, 641, 622, 113
 916, 641, 113, 114
 917, 692, 622, 641
 918, 623, 112, 622
 919, 624, 111, 623
 920, 626, 109, 625
 921, 627, 108, 626
 922, 628, 107, 627
 923, 629, 106, 628
 924, 630, 105, 629
 925, 631, 104, 630
 926, 632, 103, 631
 927, 762, 725, 720
 928, 692, 643, 622
 929, 735, 653, 699
 930, 653, 121, 122
 931, 654, 123, 634
 932, 634, 123, 124
 933, 635, 634, 124
 934, 636, 635, 125
 935, 637, 636, 126
 936, 639, 638, 128
 937, 680, 639, 601
 938, 639,   8, 129
 939, 700, 662, 666
 940, 625, 110, 624
 941, 601, 129, 130
 942, 603,  14, 602
 943, 602,  14,  13
 944, 619,  91, 618
 945, 604,  15, 603
 946, 618,  92, 617
 947, 605,  16, 604
 948, 616,  94, 615
 949, 606,  17, 605
 950, 615,  95, 614
 951, 607,  18, 606
 952, 678, 614, 613
 953, 608,  19, 607
 954, 665, 607, 663
 955, 609,  20, 608
 956, 771, 696, 681
 957, 609,  21,  20
 958, 661, 612, 611
 959, 610,  22,  21
 960, 776, 742, 773
 961, 611,  23,  22
 962, 708, 659, 612
 963, 612,  24,  23
 964, 613,  96,  97
 965, 644, 625, 624
 966, 667, 606, 605
 967, 614,  95,  96
 968, 707, 706, 664
 969, 615,  94,  95
 970, 668, 604, 603
 971, 616,  93,  94
 972, 668, 664, 604
 973, 617,  92,  93
 974, 747, 709, 602
 975, 618,  91,  92
 976, 674, 618, 673
 977, 619,  90,  91
 978, 747, 620, 709
 979, 620,  89,  90
 980, 651, 115, 621
 981, 621, 115, 116
 982, 622, 112, 113
 983, 735, 734, 695
 984, 645, 623, 643
 985, 623, 111, 112
 986, 765, 733, 757
 987, 624, 110, 111
 988, 646, 625, 644
 989, 625, 109, 110
 990, 647, 626, 646
 991, 626, 108, 109
 992, 689, 688, 646
 993, 627, 107, 108
 994, 649, 629, 628
 995, 628, 106, 107
 996, 677,  99, 676
 997, 629, 105, 106
 998, 650, 630, 642
 999, 630, 104, 105
1000, 679, 631, 650
1001, 631, 103, 104
1002, 712, 101, 632
1003, 632, 101, 102
1004, 749, 633, 721
1005, 652, 119, 120
1006, 635, 124, 125
1007, 655, 634, 635
1008, 636, 125, 126
1009, 738, 694, 736
1010, 637, 126, 127
1011, 657, 636, 637
1012, 638, 637, 127
1013, 656, 655, 635
1014, 638, 127, 128
1015, 658, 657, 637
1016, 639, 128,   8
1017, 639, 129, 601
1018, 640, 601, 130
1019, 659, 640, 131
1020, 651, 114, 115
1021, 651, 641, 114
1022, 648, 627, 647
1023, 724, 711, 683
1024, 697, 656, 657
1025, 643, 623, 622
1026, 645, 644, 624
1027, 746, 703, 744
1028, 645, 624, 623
1029, 733, 692, 725
1030, 678, 670, 614
1031, 646, 626, 625
1032, 715, 713, 670
1033, 647, 627, 626
1034, 756, 719, 724
1035, 648, 628, 627
1036, 649, 642, 629
1037, 649, 628, 648
1038, 711, 679, 683
1039, 650, 631, 630
1040, 721, 633, 693
1041, 762, 721, 693
1042, 652, 633, 119
1043, 695, 120, 121
1044, 654, 653, 122
1045, 699, 654, 694
1046, 654, 122, 123
1047, 694, 634, 655
1048, 656, 635, 636
1049, 666, 609, 660
1050, 657, 656, 636
1051, 682, 680, 601
1052, 658, 637, 638
1053, 723, 708, 661
1054, 680, 658, 638
1055, 682, 681, 680
1056, 659, 131,   2
1057, 659,  24, 612
1058, 660, 609, 608
1059, 665, 608, 607
1060, 662, 611, 610
1061, 662, 661, 611
1062, 666, 662, 610
1063, 723, 722, 682
1064, 663, 607, 606
1065, 713, 671, 670
1066, 664, 605, 604
1067, 714, 671, 713
1068, 671, 615, 670
1069, 665, 660, 608
1070, 666, 610, 609
1071, 825, 810, 819
1072, 667, 663, 606
1073, 667, 605, 664
1074, 709, 668, 603
1075, 675, 620, 619
1076, 669, 613,  97
1077, 677,  98,  99
1078, 670, 615, 614
1079, 754, 753, 713
1080, 751, 740, 718
1081, 671, 616, 615
1082, 706, 705, 667
1083, 672, 617, 616
1084, 805, 802, 803
1085, 673, 618, 617
1086, 717, 673, 716
1087, 674, 619, 618
1088, 748, 709, 675
1089, 675, 619, 674
1090, 676,  99, 100
1091, 712, 679, 676
1092, 711, 676, 679
1093, 677, 669,  98
1094, 710, 613, 669
1095, 690, 649, 685
1096, 679, 632, 631
1097, 683, 679, 650
1098, 680, 638, 639
1099, 682, 601, 640
1100, 696, 658, 681
1101, 681, 658, 680
1102, 723, 640, 708
1103, 701, 662, 700
1104, 691, 650, 642
1105, 758, 727, 726
1106, 684, 645, 643
1107, 743, 700, 742
1108, 686, 648, 647
1109, 686, 685, 648
1110, 688, 647, 646
1111, 732, 688, 689
1112, 732, 689, 729
1113, 687, 644, 645
1114, 731, 730, 686
1115, 688, 686, 647
1116, 689, 646, 644
1117, 729, 687, 728
1118, 794, 758, 784
1119, 690, 642, 649
1120, 691, 683, 650
1121, 691, 642, 690
1122, 720, 641, 651
1123, 693, 633, 652
1124, 734, 652, 695
1125, 766, 762, 693
1126, 694, 654, 634
1127, 736, 655, 698
1128, 695, 652, 120
1129, 695, 121, 653
1130, 697, 657, 696
1131, 696, 657, 658
1132, 808, 737, 771
1133, 698, 656, 697
1134, 769, 736, 768
1135, 698, 655, 656
1136, 829, 816, 795
1137, 699, 653, 654
1138, 702, 666, 660
1139, 702, 700, 666
1140, 777, 723, 701
1141, 701, 661, 662
1142, 704, 660, 665
1143, 838, 829, 817
1144, 703, 665, 663
1145, 741, 705, 706
1146, 704, 702, 660
1147, 704, 665, 703
1148, 706, 667, 664
1149, 716, 672, 714
1150, 707, 664, 668
1151, 774, 740, 751
1152, 748, 707, 668
1153, 718, 675, 674
1154, 708, 640, 659
1155, 708, 612, 661
1156, 709, 603, 602
1157, 709, 620, 675
1158, 710, 678, 613
1159, 719, 669, 677
1160, 711, 677, 676
1161, 724, 683, 691
1162, 712, 100, 101
1163, 712, 632, 679
1164, 715, 670, 678
1165, 760, 758, 726
1166, 753, 714, 713
1167, 714, 672, 671
1168, 750, 678, 710
1169, 726, 690, 685
1170, 740, 707, 718
1171, 716, 673, 672
1172, 751, 718, 717
1173, 717, 674, 673
1174, 748, 718, 707
1175, 718, 674, 717
1176, 719, 710, 669
1177, 719, 677, 711
1178, 720, 692, 641
1179, 721, 720, 651
1180, 721, 651, 621
1181, 749, 721, 621
1182, 771, 681, 722
1183, 722, 681, 682
1184, 723, 682, 640
1185, 723, 661, 701
1186, 727, 691, 690
1187, 787, 758, 760
1188, 812, 766, 772
1189, 725, 692, 720
1190, 730, 685, 686
1191, 730, 726, 685
1192, 727, 724, 691
1193, 727, 690, 726
1194, 728, 687, 684
1195, 800, 777, 743
1196, 802, 801, 779
1197, 729, 689, 687
1198, 731, 686, 688
1199, 782, 752, 781
1200, 732, 731, 688
1201, 764, 732, 761
1202, 761, 729, 759
1203, 817, 795, 796
1204, 733, 684, 643
1205, 733, 643, 692
1206, 734, 693, 652
1207, 735, 695, 653
1208, 767, 699, 738
1209, 797, 772, 767
1210, 736, 694, 655
1211, 768, 698, 739
1212, 739, 697, 737
1213, 737, 697, 696
1214, 812, 797, 786
1215, 738, 699, 694
1216, 795, 769, 768
1217, 739, 698, 697
1218, 741, 706, 740
1219, 740, 706, 707
1220, 752, 716, 714
1221, 744, 705, 741
1222, 742, 700, 702
1223, 745, 702, 704
1224, 800, 785, 777
1225, 743, 701, 700
1226, 764, 763, 731
1227, 744, 703, 705
1228, 745, 742, 702
1229, 746, 745, 704
1230, 746, 704, 703
1231, 823, 821, 801
1232, 747, 602,  88
1233, 747,  89, 620
1234, 748, 668, 709
1235, 748, 675, 718
1236, 749, 621, 117
1237, 749, 118, 633
1238, 750, 715, 678
1239, 756, 750, 710
1240, 755, 717, 716
1241, 755, 716, 752
1242, 753, 752, 714
1243, 781, 752, 753
1244, 754, 713, 715
1245, 803, 774, 782
1246, 780, 715, 750
1247, 809, 807, 787
1248, 774, 751, 755
1249, 755, 751, 717
1250, 756, 710, 719
1251, 794, 724, 727
1252, 757, 733, 725
1253, 766, 725, 762
1254, 794, 784, 756
1255, 760, 726, 730
1256, 759, 729, 728
1257, 792, 765, 786
1258, 763, 730, 731
1259, 823, 802, 805
1260, 775, 773, 745
1261, 761, 732, 729
1262, 762, 720, 721
1263, 766, 693, 734
1264, 763, 760, 730
1265, 764, 731, 732
1266, 790, 761, 788
1267, 814, 790, 811
1268, 765, 728, 684
1269, 765, 684, 733
1270, 772, 734, 735
1271, 766, 757, 725
1272, 767, 735, 699
1273, 793, 738, 769
1274, 768, 736, 698
1275, 796, 739, 770
1276, 819, 786, 797
1277, 769, 738, 736
1278, 770, 739, 737
1279, 799, 773, 798
1280, 771, 737, 696
1281, 785, 722, 777
1282, 772, 766, 734
1283, 772, 735, 767
1284, 773, 742, 745
1285, 775, 745, 746
1286, 778, 741, 774
1287, 774, 741, 740
1288, 779, 746, 744
1289, 801, 798, 775
1290, 808, 771, 785
1291, 776, 743, 742
1292, 777, 722, 723
1293, 777, 701, 743
1294, 778, 744, 741
1295, 783, 753, 754
1296, 779, 775, 746
1297, 779, 744, 778
1298, 780, 754, 715
1299, 784, 780, 750
1300, 783, 781, 753
1301, 836, 831, 834
1302, 782, 774, 755
1303, 782, 755, 752
1304, 804, 754, 780
1305, 789, 787, 760
1306, 784, 750, 756
1307, 787, 784, 758
1308, 808, 785, 800
1309, 785, 771, 722
1310, 786, 765, 757
1311, 819, 797, 793
1312, 807, 784, 787
1313, 789, 760, 763
1314, 788, 761, 759
1315, 815, 792, 810
1316, 791, 763, 764
1317, 840, 809, 813
1318, 790, 764, 761
1319, 821, 820, 798
1320, 791, 789, 763
1321, 791, 764, 790
1322, 792, 759, 728
1323, 792, 728, 765
1324, 793, 767, 738
1325, 816, 769, 795
1326, 794, 756, 724
1327, 794, 727, 758
1328, 796, 768, 739
1329, 796, 795, 768
1330, 838, 837, 835
1331, 818, 770, 808
1332, 812, 786, 757
1333, 797, 767, 793
1334, 798, 773, 775
1335, 801, 775, 779
1336, 822, 818, 808
1337, 799, 776, 773
1338, 800, 743, 776
1339, 822, 800, 776
1340, 802, 779, 778
1341, 836, 833, 827
1342, 803, 802, 778
1343, 805, 803, 782
1344, 803, 778, 774
1345, 805, 782, 781
1346, 804, 783, 754
1347, 807, 804, 780
1348, 806, 781, 783
1349, 806, 805, 781
1350, 824, 783, 804
1351, 814, 813, 791
1352, 807, 780, 784
1353, 809, 787, 789
1354, 822, 808, 800
1355, 808, 770, 737
1356, 809, 804, 807
1357, 813, 789, 791
1358, 810, 792, 786
1359, 825, 819, 816
1360, 811, 790, 788
1361, 828, 815, 825
1362, 812, 757, 766
1363, 812, 772, 797
1364, 827, 814, 826
1365, 813, 809, 789
1366, 814, 791, 790
1367, 841, 837, 838
1368, 815, 788, 759
1369, 815, 759, 792
1370, 816, 793, 769
1371, 829, 825, 816
1372, 818, 817, 796
1373, 832, 818, 822
1374, 818, 796, 770
1375, 842, 832, 820
1376, 819, 810, 786
1377, 819, 793, 816
1378, 820, 799, 798
1379, 821, 798, 801
1380, 823, 801, 802
1381, 836, 834, 833
1382, 822, 776, 799
1383, 832, 830, 818
1384, 839, 805, 806
1385, 840, 833, 824
1386, 824, 806, 783
1387, 824, 804, 809
1388, 835, 825, 829
1389, 825, 815, 810
1390, 826, 814, 811
1391, 837, 828, 835
1392, 840, 827, 833
1393, 827, 813, 814
1394, 828, 811, 788
1395, 828, 788, 815
1396, 829, 795, 817
1397, 838, 817, 830
1398, 830, 817, 818
1399, 842, 820, 831
1400, 831, 820, 821
1401, 834, 821, 823
1402, 832, 822, 799
1403, 832, 799, 820
1404, 839, 833, 834
1405, 833, 806, 824
1406, 834, 831, 821
1407, 839, 834, 823
1408, 837, 811, 828
1409, 835, 828, 825
1410, 836, 827, 826
1411, 841, 836, 826
1412, 842, 838, 830
1413, 837, 826, 811
1414, 838, 835, 829
1415, 842, 841, 838
1416, 839, 823, 805
1417, 839, 806, 833
1418, 840, 824, 809
1419, 840, 813, 827
1420, 841, 831, 836
1421, 841, 826, 837
1422, 842, 830, 832
1423, 842, 831, 841
1424,  843,    9,  132
1425,  848,  134,  135
1426,  844,  142,  143
1427,  857,  856,   44
1428,  885,  884,   36
1429,  137,   10,  138
1430,  869,  137,  138
1431,  944,  137,  869
1432,  977,  950,  910
1433,  849,  134,  848
1434,  850,  132,  133
1435,  161,   11,  162
1436,  875,  162,  163
1437,  898,  874,  873
1438,  913,  159,  160
1439,  903,  158,  159
1440,  854,  852,   46
1441,  852,   47,   46
1442,  853,   47,  852
1443,  856,  854,   45
1444,  999,  998,  954
1445,  930,  924,  856
1446,  878,   42,   41
1447,  878,   41,  859
1448,  982,  935,  981
1449,  882,   38,  861
1450,  916,  883,  860
1451,  862,  148,  846
1452, 1006,  963, 1005
1453,  891,   32,   31
1454,  896,  172,  173
1455,  866,  142,  844
1456,  867,  141,  866
1457,  868,  140,  867
1458,  950,  944,  869
1459,   48,  170,    4
1460,  995,  926,  929
1461,  899,  170,   48
1462,  897,  870,  168
1463,  871,  167,  870
1464,  872,  166,  871
1465,  873,  165,  872
1466,  874,  164,  873
1467,  875,  163,  874
1468,  876,  155,  845
1469,  878,  877,   42
1470,  914,  905,  858
1471,  879,  153,  858
1472,  880,  152,  879
1473,  882,  881,   39
1474,  915,  879,  905
1475,  921,  860,  880
1476,  885,   35,  863
1477,  936,  885,  863
1478,  886,  147,  862
1479,  907,  887,  886
1480,  938,  864,  891
1481,  887,  146,  886
1482,  917,  887,  907
1483,  891,  864,   32
1484,  892,  891,   31
1485, 1076, 1075, 1055
1486,  895,  894,   28
1487,  949,  895,  865
1488,  895,    3,  171
1489,  896,  173,  843
1490,  843,  173,    9
1491,  848,  135,  847
1492,  890,  143,  144
1493,  896,  865,  172
1494,  845,  155,  156
1495,  855,  156,  157
1496,  846,  148,  149
1497,  883,  149,  150
1498,  847,  135,  136
1499,  918,  866,  909
1500,  918,  910,  867
1501,  849,  133,  134
1502,  945,  943,  848
1503,  850,  133,  849
1504, 1053,  973,  975
1505,  850,  843,  132
1506,  851,  157,  158
1507,  929,  854,  924
1508,  897,  168,  169
1509,  854,   46,   45
1510,  899,   48,  853
1511,  853,   48,   47
1512,  856,   45,   44
1513,  954,  953,  898
1514,  855,  845,  156
1515,  855,  157,  851
1516,  857,   44,   43
1517,  931,  930,  857
1518,  877,   43,   42
1519,  919,  855,  904
1520,  858,  153,  154
1521,  876,  154,  155
1522,  859,   41,   40
1523,  881,   40,   39
1524,  860,  150,  151
1525,  880,  151,  152
1526,  861,   38,   37
1527,  884,   37,   36
1528,  908,  846,  906
1529,  862,  147,  148
1530,  863,   35,   34
1531,  888,   34,   33
1532,  889,  145,  887
1533,  864,   33,   32
1534,  893,  892,   30
1535,  865,  171,  172
1536,  866,  141,  142
1537,  909,  866,  844
1538,  910,  868,  867
1539,  867,  140,  141
1540,  950,  869,  868
1541,  868,  139,  140
1542,  869,  138,  139
1543,  869,  139,  868
1544,  957,  870,  897
1545,  870,  167,  168
1546,  956,  955,  901
1547,  871,  166,  167
1548,  902,  873,  872
1549,  872,  165,  166
1550,  947,  913,  911
1551,  873,  164,  165
1552,  947,  874,  898
1553,  874,  163,  164
1554,  911,  161,  875
1555,  875,  161,  162
1556,  876,  858,  154
1557,  919,  845,  855
1558,  920,  845,  919
1559,  877,  857,   43
1560,  961,  960,  905
1561,  987,  932,  986
1562,  879,  152,  153
1563,  905,  879,  858
1564,  921,  880,  915
1565,  880,  860,  151
1566,  881,  859,   40
1567,  984,  934,  982
1568,  882,   39,   38
1569,  921,  916,  860
1570,  883,  846,  149
1571,  883,  150,  860
1572,  884,  861,   37
1573,  885,   36,   35
1574, 1058, 1040, 1056
1575,  936,  863,  925
1576,  886,  146,  147
1577,  922,  862,  908
1578,  912,  890,  889
1579,  887,  145,  146
1580,  888,  863,   34
1581,  888,   33,  864
1582,  890,  144,  889
1583,  889,  144,  145
1584,  969,  917,  968
1585,  890,  844,  143
1586,  892,   31,   30
1587,  970,  912,  969
1588,  893,   30,   29
1589, 1072, 1054, 1034
1590,  894,  893,   29
1591,  972,  923,  970
1592,  894,   29,   28
1593,  949,  939,  894
1594,  895,   28,    3
1595,  895,  171,  865
1596,  948,  843,  850
1597,  975,  909,  972
1598,  899,  897,  169
1599,  926,  853,  852
1600,  901,  871,  900
1601,  998,  953,  954
1602,  899,  169,  170
1603,  926,  899,  853
1604,  900,  871,  870
1605,  929,  926,  852
1606, 1017,  958,  998
1607,  901,  872,  871
1608,  902,  898,  873
1609,  902,  872,  901
1610,  903,  851,  158
1611,  913,  160,  911
1612,  904,  855,  851
1613,  958,  851,  903
1614,  914,  858,  876
1615,  942,  881,  934
1616,  964,  959,  906
1617,  906,  846,  883
1618,  922,  886,  862
1619,  917,  912,  889
1620,  908,  862,  846
1621,  979,  937,  978
1622,  923,  844,  890
1623,  952,  896,  948
1624,  950,  945,  847
1625,  918,  867,  866
1626,  911,  160,  161
1627,  947,  875,  874
1628,  917,  889,  887
1629,  938,  891,  928
1630,  976,  947,  953
1631,  913,  903,  159
1632,  920,  876,  845
1633,  965,  961,  914
1634,  935,  861,  927
1635,  915,  880,  879
1636,  966,  964,  916
1637,  916,  906,  883
1638, 1013,  962, 1006
1639, 1014,  968, 1013
1640, 1072, 1053, 1003
1641, 1053, 1034,  997
1642,  974,  971,  919
1643,  971,  965,  920
1644, 1065, 1050, 1051
1645,  920,  914,  876
1646,  967,  915,  960
1647,  935,  934,  882
1648,  963,  908,  959
1649,  922,  907,  886
1650,  923,  909,  844
1651,  923,  890,  912
1652,  924,  854,  856
1653,  930,  856,  857
1654,  925,  863,  888
1655,  940,  888,  864
1656,  926,  897,  899
1657,  929,  852,  854
1658,  927,  861,  884
1659,  937,  884,  885
1660,  928,  891,  892
1661,  941,  892,  893
1662, 1001,  995,  994
1663, 1035,  994, 1033
1664,  931,  857,  877
1665,  992,  930,  989
1666,  933,  877,  878
1667, 1065, 1063, 1050
1668,  932,  878,  859
1669,  942,  859,  881
1670,  933,  931,  877
1671,  933,  878,  932
1672,  934,  881,  882
1673,  935,  882,  861
1674,  981,  927,  979
1675,  967,  966,  921
1676,  963,  962,  922
1677,  983,  925,  980
1678,  937,  927,  884
1679,  937,  885,  936
1680,  990,  985,  938
1681,  940,  864,  938
1682,  939,  893,  894
1683,  951,  939,  949
1684,  968,  907,  962
1685,  940,  925,  888
1686,  941,  928,  892
1687,  941,  893,  939
1688,  986,  942,  984
1689,  942,  932,  859
1690,  946,  849,  943
1691,  943,  849,  848
1692,  944,  847,  136
1693,  944,  136,  137
1694,  945,  848,  847
1695,  973,  910,  918
1696, 1073, 1071,  952
1697,  946,  850,  849
1698,  947,  911,  875
1699,  953,  947,  898
1700,  948,  896,  843
1701,  948,  850,  946
1702,  949,  894,  895
1703,  951,  949,  865
1704,  950,  847,  944
1705,  950,  868,  910
1706, 1071,  865,  896
1707, 1076, 1072, 1075
1708,  952,  948,  946
1709,  996,  946,  943
1710,  998,  976,  953
1711,  954,  898,  902
1712,  955,  902,  901
1713,  955,  954,  902
1714,  956,  901,  900
1715, 1052, 1037, 1036
1716, 1001,  957,  995
1717, 1032,  989, 1029
1718,  957,  900,  870
1719,  957,  897,  926
1720,  958,  904,  851
1721,  976,  958,  903
1722,  959,  908,  906
1723,  964,  906,  916
1724,  960,  915,  905
1725,  961,  905,  914
1726,  965,  914,  920
1727, 1060, 1059, 1044
1728,  962,  907,  922
1729,  963,  922,  908
1730, 1005,  959, 1004
1731, 1046, 1006, 1041
1732,  966,  916,  921
1733, 1042, 1040, 1004
1734,  971,  920,  919
1735, 1064, 1060, 1045
1736,  967,  921,  915
1737, 1056, 1040, 1042
1738, 1059, 1057, 1043
1739, 1057, 1056, 1042
1740,  985,  980,  940
1741,  968,  917,  907
1742, 1012, 1002,  970
1743,  969,  912,  917
1744,  993,  941,  991
1745,  970,  923,  912
1746,  974,  919,  904
1747,  988,  933,  987
1748, 1039, 1038, 1002
1749,  972,  909,  923
1750,  997,  945,  977
1751,  975,  973,  918
1752, 1017,  904,  958
1753,  989,  931,  988
1754,  975,  918,  909
1755, 1003,  972, 1002
1756,  976,  903,  913
1757,  976,  913,  947
1758,  977,  945,  950
1759,  977,  910,  973
1760,  978,  937,  936
1761,  983,  936,  925
1762, 1007, 1004,  964
1763,  979,  927,  937
1764,  980,  925,  940
1765,  985,  940,  938
1766, 1008, 1007,  966
1767,  981,  935,  927
1768, 1009, 1008,  967
1769,  982,  934,  935
1770, 1041, 1005, 1040
1771,  983,  978,  936
1772, 1010, 1009,  960
1773,  984,  942,  934
1774,  990,  938,  928
1775, 1049, 1013, 1046
1776, 1011, 1010,  961
1777,  986,  932,  942
1778, 1015, 1011,  965
1779,  987,  933,  932
1780, 1016, 1015,  971
1781,  988,  931,  933
1782, 1052,  974, 1017
1783,  989,  930,  931
1784,  993,  928,  941
1785, 1069, 1067, 1039
1786,  991,  941,  939
1787,  991,  939,  951
1788, 1035, 1000,  956
1789,  992,  924,  930
1790, 1030,  993, 1018
1791,  993,  990,  928
1792,  994,  929,  924
1793,  994,  924,  992
1794,  995,  957,  926
1795,  995,  929,  994
1796,  996,  952,  946
1797,  997,  996,  943
1798,  997,  943,  945
1799,  997,  977,  973
1800,  998,  958,  976
1801,  999,  954,  955
1802, 1000,  955,  956
1803, 1000,  999,  955
1804, 1070, 1035, 1033
1805, 1068, 1029, 1065
1806, 1001,  956,  900
1807, 1001,  900,  957
1808, 1002,  972,  970
1809, 1012,  970,  969
1810, 1073, 1055,  951
1811, 1003,  975,  972
1812, 1004,  959,  964
1813, 1007,  964,  966
1814, 1022, 1019,  978
1815, 1005,  963,  959
1816, 1024, 1022,  983
1817, 1006,  962,  963
1818, 1008,  966,  967
1819, 1020,  979, 1019
1820, 1009,  967,  960
1821, 1021,  981, 1020
1822, 1010,  960,  961
1823, 1023,  982, 1021
1824, 1011,  961,  965
1825, 1027,  984, 1023
1826, 1015,  965,  971
1827, 1028,  986, 1027
1828, 1014,  969,  968
1829, 1067, 1038, 1039
1830, 1026, 1024,  980
1831, 1013,  968,  962
1832, 1031,  990, 1030
1833, 1014, 1012,  969
1834, 1016,  971,  974
1835, 1068, 1065, 1051
1836, 1052, 1017, 1037
1837, 1029,  988, 1025
1838, 1017,  974,  904
1839, 1037,  998,  999
1840, 1018,  993,  991
1841, 1055,  991,  951
1842, 1019,  979,  978
1843, 1022,  978,  983
1844, 1043, 1042, 1007
1845, 1020,  981,  979
1846, 1060, 1044, 1045
1847, 1021,  982,  981
1848, 1024,  983,  980
1849, 1058, 1041, 1040
1850, 1064, 1045, 1048
1851, 1023,  984,  982
1852, 1026,  980,  985
1853, 1061, 1046, 1041
1854, 1025,  988,  987
1855, 1028,  987,  986
1856, 1031,  985,  990
1857, 1049, 1047, 1014
1858, 1064, 1048, 1063
1859, 1027,  986,  984
1860, 1063, 1048, 1050
1861, 1028, 1025,  987
1862, 1074, 1068, 1051
1863, 1029,  989,  988
1864, 1047, 1039, 1012
1865, 1030,  990,  993
1866, 1066, 1047, 1049
1867, 1031, 1026,  985
1868, 1070, 1036, 1000
1869, 1032,  992,  989
1870, 1033,  994,  992
1871, 1033,  992, 1032
1872, 1034,  996,  997
1873, 1053,  997,  973
1874, 1035,  956, 1001
1875, 1035, 1001,  994
1876, 1036,  999, 1000
1877, 1070, 1000, 1035
1878, 1037, 1017,  998
1879, 1037,  999, 1036
1880, 1038, 1003, 1002
1881, 1039, 1002, 1012
1882, 1047, 1012, 1014
1883, 1069, 1039, 1047
1884, 1040, 1005, 1004
1885, 1042, 1004, 1007
1886, 1061, 1041, 1058
1887, 1041, 1006, 1005
1888, 1043, 1007, 1008
1889, 1057, 1042, 1043
1890, 1044, 1043, 1008
1891, 1059, 1043, 1044
1892, 1044, 1008, 1009
1893, 1045, 1044, 1009
1894, 1045, 1009, 1010
1895, 1048, 1045, 1010
1896, 1062, 1046, 1061
1897, 1046, 1013, 1006
1898, 1049, 1014, 1013
1899, 1069, 1047, 1066
1900, 1048, 1010, 1011
1901, 1050, 1048, 1011
1902, 1062, 1049, 1046
1903, 1066, 1049, 1062
1904, 1050, 1011, 1015
1905, 1051, 1050, 1015
1906, 1051, 1015, 1016
1907, 1074, 1016, 1052
1908, 1074, 1036, 1070
1909, 1052, 1016,  974
1910, 1053,  975, 1003
1911, 1072, 1003, 1038
1912, 1054,  952,  996
1913, 1054,  996, 1034
1914, 1055, 1018,  991
1915, 1073,  951, 1071
1916, 1056, 1020, 1019
1917, 1058, 1056, 1019
1918, 1057, 1021, 1020
1919, 1057, 1020, 1056
1920, 1058, 1019, 1022
1921, 1061, 1058, 1022
1922, 1059, 1023, 1021
1923, 1059, 1021, 1057
1924, 1060, 1027, 1023
1925, 1060, 1023, 1059
1926, 1061, 1022, 1024
1927, 1062, 1061, 1024
1928, 1062, 1024, 1026
1929, 1066, 1062, 1026
1930, 1063, 1025, 1028
1931, 1064, 1063, 1028
1932, 1064, 1028, 1027
1933, 1064, 1027, 1060
1934, 1065, 1029, 1025
1935, 1065, 1025, 1063
1936, 1066, 1026, 1031
1937, 1069, 1066, 1031
1938, 1067, 1030, 1018
1939, 1075, 1067, 1018
1940, 1074, 1070, 1068
1941, 1068, 1032, 1029
1942, 1069, 1031, 1030
1943, 1069, 1030, 1067
1944, 1070, 1033, 1032
1945, 1070, 1032, 1068
1946, 1071,  951,  865
1947, 1071,  896,  952
1948, 1072, 1034, 1053
1949, 1075, 1072, 1038
1950, 1073,  952, 1054
1951, 1076, 1073, 1054
1952, 1074, 1051, 1016
1953, 1074, 1052, 1036
1954, 1075, 1038, 1067
1955, 1075, 1018, 1055
1956, 1076, 1055, 1073
1957, 1076, 1054, 1072
1958, 1077,  135,  134
1959, 1078,  135, 1077
1960, 1157, 1123, 1156
1961, 1080,  136, 1078
1962, 1081,    8,  128
1963, 1082,  176, 1081
1964, 1128, 1077, 1127
1965, 1083,  174,  175
1966, 1086, 1085,  132
1967, 1143, 1086, 1083
1968, 1086,    9,  174
1969, 1104,  195, 1103
1970,  117,    7,  177
1971, 1101,  177,  178
1972, 1112, 1100, 1099
1973, 1118, 1117,  119
1974, 1117,  120,  119
1975, 1108,  191, 1107
1976, 1088,  121, 1087
1977, 1089,  122, 1088
1978, 1182, 1180, 1156
1979, 1091,  125, 1079
1980, 1092,  126, 1091
1981, 1093,  128,  127
1982,  186,  185,   12
1983, 1094,  185,  186
1984, 1111,  188, 1110
1985, 1095,  183,  184
1986, 1096,  182,  183
1987, 1098,  181, 1097
1988, 1099,  180, 1098
1989, 1100,  179, 1099
1990, 1101,  178, 1100
1991,  199,   10,  137
1992, 1080,  137,  136
1993, 1130, 1102,  197
1994, 1130,  197,  198
1995, 1127, 1077, 1084
1996, 1092,  127,  126
1997, 1105,  194, 1104
1998, 1106,  193, 1105
1999, 1208, 1206, 1201
2000, 1134, 1107, 1133
2001, 1109,  190, 1108
2002, 1116, 1096, 1095
2003, 1179, 1141, 1135
2004, 1173,  186,  187
2005, 1084,  134,  133
2006, 1136, 1132, 1103
2007, 1147, 1130, 1131
2008, 1078,  136,  135
2009, 1079,  125,  124
2010, 1090,  124,  123
2011, 1131,  199, 1080
2012, 1080,  199,  137
2013, 1081,  176,    8
2014, 1120, 1092, 1091
2015, 1103,  196, 1102
2016, 1082,  175,  176
2017, 1148, 1129, 1143
2018, 1083,  175, 1082
2019, 1084, 1077,  134
2020, 1085, 1084,  133
2021, 1085,  133,  132
2022, 1129, 1127, 1084
2023, 1086,  132,    9
2024, 1086,  174, 1083
2025, 1087,  121,  120
2026, 1137, 1108, 1134
2027, 1107,  192, 1106
2028, 1088,  122,  121
2029, 1090,  123, 1089
2030, 1089,  123,  122
2031, 1138, 1133, 1106
2032, 1090, 1079,  124
2033, 1091,  126,  125
2034, 1139, 1104, 1132
2035, 1121, 1092, 1120
2036, 1093,  127, 1092
2037, 1144, 1081, 1093
2038, 1093, 1081,  128
2039, 1095,  184, 1094
2040, 1094,  184,  185
2041, 1110,  189, 1109
2042, 1096,  183, 1095
2043, 1116, 1113, 1096
2044, 1097,  182, 1096
2045, 1140, 1109, 1137
2046, 1097,  181,  182
2047, 1115, 1099, 1098
2048, 1098,  180,  181
2049, 1160, 1142, 1153
2050, 1099,  179,  180
2051, 1142, 1100, 1112
2052, 1100,  178,  179
2053, 1122,  117, 1101
2054, 1101,  117,  177
2055, 1146, 1083, 1082
2056, 1102,  196,  197
2057, 1211, 1181, 1200
2058, 1103,  195,  196
2059, 1123, 1120, 1091
2060, 1104,  194,  195
2061, 1124, 1123, 1079
2062, 1105,  193,  194
2063, 1125, 1089, 1119
2064, 1106,  192,  193
2065, 1126, 1119, 1088
2066, 1107,  191,  192
2067, 1175, 1160, 1153
2068, 1108,  190,  191
2069, 1152, 1151, 1113
2070, 1109,  189,  190
2071, 1173, 1141, 1094
2072, 1110,  188,  189
2073, 1173, 1111, 1141
2074, 1111,  187,  188
2075, 1114, 1097, 1113
2076, 1213, 1204, 1185
2077, 1113, 1097, 1096
2078, 1176, 1175, 1149
2079, 1151, 1150, 1114
2080, 1114, 1098, 1097
2081, 1115, 1112, 1099
2082, 1115, 1098, 1114
2083, 1141, 1116, 1095
2084, 1135, 1111, 1110
2085, 1117, 1087,  120
2086, 1118,  119,  118
2087, 1122, 1118,  118
2088, 1142, 1122, 1101
2089, 1119, 1089, 1088
2090, 1126, 1088, 1087
2091, 1158, 1121, 1120
2092, 1123, 1091, 1079
2093, 1145, 1144, 1121
2094, 1121, 1093, 1092
2095, 1122,  118,  117
2096, 1142, 1101, 1100
2097, 1124, 1079, 1090
2098, 1156, 1124, 1155
2099, 1125, 1124, 1090
2100, 1155, 1125, 1154
2101, 1125, 1090, 1089
2102, 1168, 1133, 1165
2103, 1161, 1087, 1117
2104, 1149, 1112, 1115
2105, 1129, 1084, 1085
2106, 1174, 1146, 1145
2107, 1164, 1130, 1147
2108, 1128, 1078, 1077
2109, 1143, 1129, 1085
2110, 1145, 1082, 1144
2111, 1131, 1130,  198
2112, 1147, 1080, 1078
2113, 1131,  198,  199
2114, 1147, 1131, 1080
2115, 1132, 1104, 1103
2116, 1136, 1103, 1102
2117, 1133, 1107, 1106
2118, 1138, 1106, 1105
2119, 1159, 1154, 1119
2120, 1134, 1108, 1107
2121, 1140, 1110, 1109
2122, 1137, 1109, 1108
2123, 1164, 1102, 1130
2124, 1162, 1128, 1127
2125, 1170, 1134, 1168
2126, 1196, 1195, 1170
2127, 1139, 1138, 1105
2128, 1169, 1132, 1167
2129, 1139, 1105, 1104
2130, 1206, 1200, 1201
2131, 1171, 1137, 1170
2132, 1140, 1135, 1110
2133, 1141, 1095, 1094
2134, 1141, 1111, 1135
2135, 1153, 1112, 1149
2136, 1142, 1118, 1122
2137, 1143, 1085, 1086
2138, 1146, 1082, 1145
2139, 1144, 1082, 1081
2140, 1144, 1093, 1121
2141, 1186, 1162, 1163
2142, 1158, 1120, 1157
2143, 1148, 1143, 1146
2144, 1146, 1143, 1083
2145, 1147, 1078, 1128
2146, 1187, 1147, 1128
2147, 1163, 1162, 1127
2148, 1163, 1129, 1148
2149, 1150, 1115, 1114
2150, 1150, 1149, 1115
2151, 1151, 1114, 1113
2152, 1214, 1210, 1203
2153, 1152, 1113, 1116
2154, 1195, 1194, 1171
2155, 1179, 1152, 1116
2156, 1172, 1135, 1140
2157, 1175, 1161, 1160
2158, 1153, 1142, 1112
2159, 1154, 1125, 1119
2160, 1159, 1119, 1126
2161, 1183, 1182, 1155
2162, 1155, 1124, 1125
2163, 1166, 1165, 1138
2164, 1156, 1123, 1124
2165, 1207, 1200, 1206
2166, 1157, 1120, 1123
2167, 1211, 1200, 1207
2168, 1158, 1145, 1121
2169, 1185, 1126, 1161
2170, 1213, 1198, 1204
2171, 1160, 1117, 1118
2172, 1160, 1118, 1142
2173, 1161, 1126, 1087
2174, 1161, 1117, 1160
2175, 1189, 1164, 1187
2176, 1163, 1127, 1129
2177, 1174, 1148, 1146
2178, 1212, 1207, 1192
2179, 1187, 1164, 1147
2180, 1164, 1136, 1102
2181, 1165, 1133, 1138
2182, 1166, 1138, 1139
2183, 1169, 1139, 1132
2184, 1201, 1200, 1180
2185, 1167, 1132, 1136
2186, 1189, 1136, 1164
2187, 1184, 1183, 1154
2188, 1168, 1134, 1133
2189, 1181, 1157, 1180
2190, 1169, 1166, 1139
2191, 1178, 1177, 1151
2192, 1170, 1137, 1134
2193, 1194, 1178, 1172
2194, 1171, 1140, 1137
2195, 1179, 1172, 1152
2196, 1172, 1140, 1171
2197, 1173, 1094,  186
2198, 1173,  187, 1111
2199, 1197, 1148, 1174
2200, 1188, 1145, 1158
2201, 1175, 1153, 1149
2202, 1176, 1149, 1150
2203, 1177, 1150, 1151
2204, 1177, 1176, 1150
2205, 1178, 1151, 1152
2206, 1199, 1198, 1177
2207, 1178, 1152, 1172
2208, 1194, 1172, 1171
2209, 1179, 1116, 1141
2210, 1179, 1135, 1172
2211, 1180, 1157, 1156
2212, 1182, 1156, 1155
2213, 1192, 1190, 1169
2214, 1181, 1158, 1157
2215, 1183, 1155, 1154
2216, 1191, 1166, 1190
2217, 1184, 1154, 1159
2218, 1193, 1165, 1191
2219, 1204, 1159, 1185
2220, 1196, 1168, 1193
2221, 1185, 1159, 1126
2222, 1185, 1161, 1175
2223, 1205, 1189, 1186
2224, 1197, 1186, 1163
2225, 1187, 1128, 1162
2226, 1189, 1187, 1162
2227, 1188, 1174, 1145
2228, 1188, 1158, 1181
2229, 1189, 1162, 1186
2230, 1189, 1167, 1136
2231, 1190, 1166, 1169
2232, 1192, 1169, 1167
2233, 1202, 1201, 1182
2234, 1191, 1165, 1166
2235, 1205, 1192, 1167
2236, 1212, 1211, 1207
2237, 1210, 1209, 1203
2238, 1193, 1168, 1165
2239, 1195, 1171, 1170
2240, 1199, 1178, 1194
2241, 1196, 1170, 1168
2242, 1214, 1199, 1210
2243, 1209, 1208, 1202
2244, 1210, 1196, 1209
2245, 1197, 1163, 1148
2246, 1211, 1174, 1188
2247, 1198, 1176, 1177
2248, 1199, 1177, 1178
2249, 1199, 1194, 1195
2250, 1214, 1203, 1184
2251, 1200, 1181, 1180
2252, 1201, 1180, 1182
2253, 1202, 1182, 1183
2254, 1208, 1201, 1202
2255, 1203, 1202, 1183
2256, 1209, 1202, 1203
2257, 1203, 1183, 1184
2258, 1214, 1184, 1204
2259, 1204, 1184, 1159
2260, 1213, 1185, 1175
2261, 1205, 1167, 1189
2262, 1212, 1197, 1211
2263, 1206, 1191, 1190
2264, 1207, 1206, 1190
2265, 1207, 1190, 1192
2266, 1212, 1192, 1205
2267, 1208, 1193, 1191
2268, 1208, 1191, 1206
2269, 1209, 1196, 1193
2270, 1209, 1193, 1208
2271, 1210, 1199, 1195
2272, 1210, 1195, 1196
2273, 1211, 1197, 1174
2274, 1211, 1188, 1181
2275, 1212, 1205, 1186
2276, 1212, 1186, 1197
2277, 1213, 1175, 1176
2278, 1213, 1176, 1198
2279, 1214, 1204, 1198
2280, 1214, 1198, 1199
*Orientation, name=Ori-1
1., 0., 0., 0., 1., 0.
3, 0.
** Region: (CompositeLayup-1-1: Generated From Layup)
*Elset, elset=CompositeLayup-1-1, generate
    1,  2280,     1
** Section: CompositeLayup-1-1
*Shell Section, elset=CompositeLayup-1-1, composite, orientation=Ori-1, layup=CompositeLayup-1
0.25, 1, ABQ_PLY_FABRIC, 45., Ply-1
0.25, 1, ABQ_PLY_FABRIC, -45., Ply-2
0.25, 1, ABQ_PLY_FABRIC, -45., Ply-3
0.25, 1, ABQ_PLY_FABRIC, 45., Ply-4
*End Part
**  
**
** ASSEMBLY
**
*Assembly, name=Assembly
**  
*Instance, name=Plate-1, part=PLATE
*End Instance
**  
*Nset, nset=Set-1, instance=Plate-1
   6,   7,  12, 102, 103, 104, 105, 106, 107, 108, 109, 110, 111, 112, 113, 114
 115, 116, 177, 178, 179, 180, 181, 182, 183, 184, 185
*Elset, elset=Set-1, instance=Plate-1
  898,  899,  912,  916,  981,  982,  985,  987,  989,  991,  993,  995,  997,  999, 1001, 1020
 1970, 1971, 1982, 1985, 1986, 2040, 2046, 2048, 2050, 2052
*Nset, nset=Set-2, instance=Plate-1
   4,   5,  11,  49,  50,  51,  52,  53,  54,  55,  56,  57,  58,  59,  60,  61
  62,  63, 162, 163, 164, 165, 166, 167, 168, 169, 170
*Elset, elset=Set-2, instance=Plate-1
   19,   20,   40,   43,   44,   45,   46,   47,  128,  140,  142,  144,  146,  148,  150,  152
 1435, 1436, 1459, 1508, 1545, 1547, 1549, 1551, 1553, 1602
*End Assembly
*Amplitude, name=Ramp, time=TOTAL TIME
             0.,              0.,            0.01,              1.
** 
** MATERIALS
** 
*Material, name=ABQ_PLY_FABRIC
*Density
 1.594e-09,
*Depvar, delete=16
     16,
*User Material, constants=40
27500., 27500.,   0.11,  2900., 27500., 27500.,   0.11,     0.
   604.,   291.,   604.,   291.,    75.,     0.,     0.,     0.
 20.438, 4.6257, 20.438, 4.6257, 0.3221,     1.,     0.,     0.
    75., 0.0008,  0.552,     0.,     0.,     0.,     0.,     0.
     0.,     1.,  1e+09,  1e+09, -1e+09,     0.,     0.,     0.
** ----------------------------------------------------------------
** 
** STEP: Step-1
** 
*Step, name=Step-1, nlgeom=NO
*Dynamic, Explicit
, 0.01
*Bulk Viscosity
0.06, 1.2
** 
** BOUNDARY CONDITIONS
** 
** Name: BC-1 Type: Symmetry/Antisymmetry/Encastre
*Boundary
Set-1, ENCASTRE
** Name: BC-2 Type: Displacement/Rotation
*Boundary, amplitude=Ramp
Set-2, 1, 1, 1.52632
** 
** OUTPUT REQUESTS
** 
*Restart, write, number interval=1, time marks=NO
** 
** FIELD OUTPUT: F-Output-1
** 
*Output, field, number interval=1
*Element Output, position=NODES, directions=YES
LE, PEEQ, SDV
** 
** HISTORY OUTPUT: H-Output-1
** 
*Output, history, variable=PRESELECT
*End Step
