*Heading
** Job name: Plate_nonlinear_291 Model name: Model-1
** Generated by: Abaqus/CAE 2024.HF3
*Preprint, echo=NO, model=NO, history=NO, contact=NO
**
** PARTS
**
*Part, name=PLATE
*Node
      1,   71.7217636,   127.741249,           0.
      2,   71.7217636,   79.9543381,           0.
      3,   83.5474396,   68.1286697,           0.
      4,   134.478317,   68.1286697,           0.
      5,   134.478317,   127.741249,           0.
      6,           0.,   127.741249,           0.
      7,           0.,   68.1286697,           0.
      8,   59.8960953,   68.1286697,           0.
      9,   71.7217636,   56.3029938,           0.
     10,   71.7217636,           0.,           0.
     11,   134.478317,           0.,           0.
     12,           0.,           0.,           0.
     13,   71.7217636,    123.75901,           0.
     14,   71.7217636,   119.776764,           0.
     15,   71.7217636,   115.794525,           0.
     16,   71.7217636,   111.812279,           0.
     17,   71.7217636,   107.830032,           0.
     18,   71.7217636,   103.847794,           0.
     19,   71.7217636,   99.8655472,           0.
     20,   71.7217636,   95.8833084,           0.
     21,   71.7217636,    91.901062,           0.
     22,   71.7217636,   87.9188232,           0.
     23,   71.7217636,   83.9365768,           0.
     24,   75.3760986,   79.3755493,           0.
     25,   78.6727219,   77.6958389,           0.
     26,   81.2889328,   75.0796204,           0.
     27,   82.9686508,   71.7829971,           0.
     28,   87.7916794,   68.1286697,           0.
     29,   92.0359192,   68.1286697,           0.
     30,    96.280159,   68.1286697,           0.
     31,   100.524399,   68.1286697,           0.
     32,   104.768639,   68.1286697,           0.
     33,   109.012878,   68.1286697,           0.
     34,   113.257118,   68.1286697,           0.
     35,   117.501358,   68.1286697,           0.
     36,   121.745598,   68.1286697,           0.
     37,    125.98983,   68.1286697,           0.
     38,    130.23407,   68.1286697,           0.
     39,   134.478317,   72.1028366,           0.
     40,   134.478317,   76.0770111,           0.
     41,   134.478317,   80.0511856,           0.
     42,   134.478317,   84.0253525,           0.
     43,   134.478317,    87.999527,           0.
     44,   134.478317,   91.9737015,           0.
     45,   134.478317,   95.9478683,           0.
     46,   134.478317,   99.9220428,           0.
     47,   134.478317,   103.896217,           0.
     48,   134.478317,   107.870392,           0.
     49,   134.478317,   111.844559,           0.
     50,   134.478317,   115.818733,           0.
     51,   134.478317,   119.792908,           0.
     52,   134.478317,   123.767075,           0.
     53,    130.29454,   127.741249,           0.
     54,   126.110771,   127.741249,           0.
     55,   121.927002,   127.741249,           0.
     56,   117.743233,   127.741249,           0.
     57,   113.559464,   127.741249,           0.
     58,   109.375694,   127.741249,           0.
     59,   105.191925,   127.741249,           0.
     60,   101.008156,   127.741249,           0.
     61,   96.8243866,   127.741249,           0.
     62,   92.6406174,   127.741249,           0.
     63,   88.4568481,   127.741249,           0.
     64,   84.2730789,   127.741249,           0.
     65,   80.0893097,   127.741249,           0.
     66,   75.9055328,   127.741249,           0.
     67,   67.7372208,   127.741249,           0.
     68,   63.7526817,   127.741249,           0.
     69,   59.7681389,   127.741249,           0.
     70,    55.783596,   127.741249,           0.
     71,   51.7990532,   127.741249,           0.
     72,   47.8145103,   127.741249,           0.
     73,   43.8299675,   127.741249,           0.
     74,   39.8454247,   127.741249,           0.
     75,   35.8608818,   127.741249,           0.
     76,   31.8763409,   127.741249,           0.
     77,    27.891798,   127.741249,           0.
     78,   23.9072552,   127.741249,           0.
     79,   19.9227123,   127.741249,           0.
     80,   15.9381704,   127.741249,           0.
     81,   11.9536276,   127.741249,           0.
     82,   7.96908522,   127.741249,           0.
     83,   3.98454261,   127.741249,           0.
     84,           0.,   123.767075,           0.
     85,           0.,   119.792908,           0.
     86,           0.,   115.818733,           0.
     87,           0.,   111.844559,           0.
     88,           0.,   107.870392,           0.
     89,           0.,   103.896217,           0.
     90,           0.,   99.9220428,           0.
     91,           0.,   95.9478683,           0.
     92,           0.,   91.9737015,           0.
     93,           0.,    87.999527,           0.
     94,           0.,   84.0253525,           0.
     95,           0.,   80.0511856,           0.
     96,           0.,   76.0770111,           0.
     97,           0.,   72.1028366,           0.
     98,   3.99307299,   68.1286697,           0.
     99,   7.98614597,   68.1286697,           0.
    100,   11.9792194,   68.1286697,           0.
    101,   15.9722919,   68.1286697,           0.
    102,   19.9653645,   68.1286697,           0.
    103,   23.9584389,   68.1286697,           0.
    104,   27.9515114,   68.1286697,           0.
    105,   31.9445839,   68.1286697,           0.
    106,   35.9376564,   68.1286697,           0.
    107,   39.9307289,   68.1286697,           0.
    108,   43.9238014,   68.1286697,           0.
    109,   47.9168777,   68.1286697,           0.
    110,   51.9099503,   68.1286697,           0.
    111,   55.9030228,   68.1286697,           0.
    112,    60.474884,   71.7829971,           0.
    113,   62.1545982,   75.0796204,           0.
    114,    64.770813,   77.6958389,           0.
    115,   68.0674362,   79.3755493,           0.
    116,   71.7217636,    52.281353,           0.
    117,   71.7217636,   48.2597084,           0.
    118,   71.7217636,   44.2380676,           0.
    119,   71.7217636,    40.216423,           0.
    120,   71.7217636,   36.1947823,           0.
    121,   71.7217636,   32.1731415,           0.
    122,   71.7217636,   28.1514969,           0.
    123,   71.7217636,   24.1298542,           0.
    124,   71.7217636,   20.1082115,           0.
    125,   71.7217636,   16.0865707,           0.
    126,   71.7217636,   12.0649271,           0.
    127,   71.7217636,   8.04328537,           0.
    128,   71.7217636,   4.02164268,           0.
    129,   75.9055328,           0.,           0.
    130,   80.0893097,           0.,           0.
    131,   84.2730789,           0.,           0.
    132,   88.4568481,           0.,           0.
    133,   92.6406174,           0.,           0.
    134,   96.8243866,           0.,           0.
    135,   101.008156,           0.,           0.
    136,   105.191925,           0.,           0.
    137,   109.375694,           0.,           0.
    138,   113.559464,           0.,           0.
    139,   117.743233,           0.,           0.
    140,   121.927002,           0.,           0.
    141,   126.110771,           0.,           0.
    142,    130.29454,           0.,           0.
    143,   134.478317,   4.00756884,           0.
    144,   134.478317,   8.01513767,           0.
    145,   134.478317,    12.022706,           0.
    146,   134.478317,   16.0302753,           0.
    147,   134.478317,   20.0378437,           0.
    148,   134.478317,   24.0454121,           0.
    149,   134.478317,   28.0529804,           0.
    150,   134.478317,   32.0605507,           0.
    151,   134.478317,    36.068119,           0.
    152,   134.478317,   40.0756874,           0.
    153,   134.478317,   44.0832558,           0.
    154,   134.478317,   48.0908241,           0.
    155,   134.478317,   52.0983925,           0.
    156,   134.478317,   56.1059608,           0.
    157,   134.478317,   60.1135292,           0.
    158,   134.478317,   64.1211014,           0.
    159,   82.9686508,   64.4743347,           0.
    160,   81.2889328,   61.1777115,           0.
    161,   78.6727219,   58.5614967,           0.
    162,   75.3760986,   56.8817825,           0.
    163,   68.0674362,   56.8817825,           0.
    164,    64.770813,   58.5614967,           0.
    165,   62.1545982,   61.1777115,           0.
    166,    60.474884,   64.4743347,           0.
    167,           0.,   64.1211014,           0.
    168,           0.,   60.1135292,           0.
    169,           0.,   56.1059608,           0.
    170,           0.,   52.0983925,           0.
    171,           0.,   48.0908241,           0.
    172,           0.,   44.0832558,           0.
    173,           0.,   40.0756874,           0.
    174,           0.,    36.068119,           0.
    175,           0.,   32.0605507,           0.
    176,           0.,   28.0529804,           0.
    177,           0.,   24.0454121,           0.
    178,           0.,   20.0378437,           0.
    179,           0.,   16.0302753,           0.
    180,           0.,    12.022706,           0.
    181,           0.,   8.01513767,           0.
    182,           0.,   4.00756884,           0.
    183,   3.98454261,           0.,           0.
    184,   7.96908522,           0.,           0.
    185,   11.9536276,           0.,           0.
    186,   15.9381704,           0.,           0.
    187,   19.9227123,           0.,           0.
    188,   23.9072552,           0.,           0.
    189,    27.891798,           0.,           0.
    190,   31.8763409,           0.,           0.
    191,   35.8608818,           0.,           0.
    192,   39.8454247,           0.,           0.
    193,   43.8299675,           0.,           0.
    194,   47.8145103,           0.,           0.
    195,   51.7990532,           0.,           0.
    196,    55.783596,           0.,           0.
    197,   59.7681389,           0.,           0.
    198,   63.7526817,           0.,           0.
    199,   67.7372208,           0.,           0.
    200,   75.5468216,   122.386047,           0.
    201,   85.6074829,   74.7440567,           0.
    202,   85.8493576,    70.871109,           0.
    203,   75.1710205,   105.836731,           0.
    204,   75.1623764,   101.854301,           0.
    205,   75.1513367,   97.8714371,           0.
    206,   75.1397324,   93.8931351,           0.
    207,   75.1455154,   90.0009842,           0.
    208,   78.7681808,   80.7893906,           0.
    209,   75.1986618,   86.1775665,           0.
    210,   75.2470474,   82.4483566,           0.
    211,   82.2502823,   78.4024963,           0.
    212,   102.630089,   71.7567368,           0.
    213,   98.3106308,   71.7637329,           0.
    214,   93.8015747,   71.8044128,           0.
    215,   89.3192673,   71.5863113,           0.
    216,   130.765762,   122.305511,           0.
    217,   130.837708,   117.980804,           0.
    218,   130.986984,   113.863213,           0.
    219,   131.022888,   109.863365,           0.
    220,    131.03241,   105.884483,           0.
    221,   131.034271,    101.90976,           0.
    222,   131.032349,   97.9358673,           0.
    223,    131.02713,   93.9620209,           0.
    224,   131.019394,   89.9883499,           0.
    225,   131.010803,   86.0145416,           0.
    226,   130.962875,   82.0309525,           0.
    227,   130.781799,   77.9038544,           0.
    228,   130.675812,   73.5320969,           0.
    229,   82.2361145,   124.201523,           0.
    230,   103.105644,   124.136719,           0.
    231,    107.28759,   124.140091,           0.
    232,    111.46933,   124.143639,           0.
    233,   115.659088,   124.147232,           0.
    234,   119.898117,   124.118736,           0.
    235,   124.080238,   124.137093,           0.
    236,    127.49118,   84.0684433,           0.
    237,   127.559776,    91.981987,           0.
    238,   127.586357,   99.9250336,           0.
    239,   127.573753,   107.878059,           0.
    240,   127.377586,   115.911377,           0.
    241,   127.583725,   103.899048,           0.
    242,   127.532242,   88.0161362,           0.
    243,   127.575226,   95.9546432,           0.
    244,   127.301758,   80.0758972,           0.
    245,    127.50457,   111.907547,           0.
    246,   78.6098633,   103.835403,           0.
    247,   75.1976776,   109.815414,           0.
    248,   78.5585861,   95.8749847,           0.
    249,   75.2992249,   113.843513,           0.
    250,   78.5611267,   91.9911346,           0.
    251,   78.5835266,   99.8514099,           0.
    252,   98.9211502,   124.138748,           0.
    253,    78.686264,   124.494064,           0.
    254,   105.205627,   120.551811,           0.
    255,   113.574089,   120.567688,           0.
    256,   86.3701401,   124.160187,           0.
    257,   90.5496216,   124.144722,           0.
    258,   94.7346954,   124.141121,           0.
    259,   122.161148,   120.505318,           0.
    260,   109.387894,   120.561806,           0.
    261,   117.877609,   120.470604,           0.
    262,   106.876991,   71.7619171,           0.
    263,    115.40564,   71.8180237,           0.
    264,   100.430428,    75.349884,           0.
    265,   111.133072,   71.7737045,           0.
    266,   95.9861069,   75.4585114,           0.
    267,   90.9523697,    76.064415,           0.
    268,    119.71476,   71.8649979,           0.
    269,   123.923492,   71.7857971,           0.
    270,   86.8809967,   79.8618164,           0.
    271,   82.4462891,   82.3372421,           0.
    272,   126.603088,   75.5801849,           0.
    273,   126.713188,   120.379173,           0.
    274,   75.4822617,   118.003777,           0.
    275,    79.628334,   120.413918,           0.
    276,   123.993706,   78.6227264,           0.
    277,   78.6214447,   88.1524963,           0.
    278,   124.018257,   113.922119,           0.
    279,   124.100441,   109.893585,           0.
    280,   124.129303,   105.887978,           0.
    281,   124.134407,   101.913696,           0.
    282,   124.125511,   97.9486847,           0.
    283,   124.102592,   93.9833908,           0.
    284,   124.068344,   90.0160675,           0.
    285,   124.012054,   86.0662613,           0.
    286,   123.886238,   82.0793228,           0.
    287,   78.6520233,   107.806374,           0.
    288,   82.0309525,   101.817032,           0.
    289,    81.987648,   97.8386765,           0.
    290,   78.7707138,   111.822197,           0.
    291,   81.9616852,   93.9257889,           0.
    292,   101.020287,   120.552582,           0.
    293,   104.722473,   75.3559189,           0.
    294,   84.1582108,   120.509232,           0.
    295,   92.6325912,   120.537407,           0.
    296,   107.318199,   116.991402,           0.
    297,   111.537376,   117.006409,           0.
    298,   115.769188,   116.950096,           0.
    299,   120.309525,   116.415878,           0.
    300,   96.8292999,   120.552643,           0.
    301,   88.3690643,   120.424355,           0.
    302,   127.592903,   124.460854,           0.
    303,   78.9645233,   115.892517,           0.
    304,    127.48526,   71.4310837,           0.
    305,   121.996727,   75.5243454,           0.
    306,   113.284309,   75.4504013,           0.
    307,   117.644714,   75.5565033,           0.
    308,   98.3552246,   78.9367371,           0.
    309,   108.994987,   75.3812714,           0.
    310,   120.088539,    79.602066,           0.
    311,   82.3592453,   113.848846,           0.
    312,   82.0277328,    90.065979,           0.
    313,   78.7428513,   84.3511353,           0.
    314,   120.692764,   103.870934,           0.
    315,   120.610313,   92.0291061,           0.
    316,   120.536354,   88.0081635,           0.
    317,   120.676079,   99.9350281,           0.
    318,   120.649254,    95.986969,           0.
    319,   120.461929,   83.9899063,           0.
    320,   120.521957,   111.959976,           0.
    321,   120.539444,   107.881798,           0.
    322,   82.1296158,   105.795959,           0.
    323,   82.2881165,   109.819611,           0.
    324,   85.4377365,   99.7884979,           0.
    325,   85.3859253,   95.8454056,           0.
    326,   124.115944,   117.426773,           0.
    327,   102.575851,   78.9173431,           0.
    328,   103.125893,   116.988609,           0.
    329,   86.0981522,   116.365425,           0.
    330,   117.383286,    113.74987,           0.
    331,   113.762749,   113.512672,           0.
    332,   109.557091,   113.459999,           0.
    333,   94.7417679,   116.968742,           0.
    334,   90.6076889,    116.89521,           0.
    335,   98.9311142,   116.986938,           0.
    336,   115.472992,   79.2003403,           0.
    337,   111.169334,   79.1440125,           0.
    338,   82.2416916,   117.405983,           0.
    339,   106.853935,   78.9862595,           0.
    340,    82.209343,   86.2335968,           0.
    341,   85.4141541,   92.0010452,           0.
    342,   117.241035,    101.87043,           0.
    343,   117.203789,   97.9739761,           0.
    344,   117.111755,   89.9816818,           0.
    345,   117.090019,   85.9119949,           0.
    346,   117.158348,   94.0187607,           0.
    347,    117.12471,    105.73848,           0.
    348,   85.6099472,   103.741257,           0.
    349,   85.9051666,   107.766418,           0.
    350,   116.458878,   109.986656,           0.
    351,   88.8355865,    97.763504,           0.
    352,   105.295418,   113.437096,           0.
    353,   100.493507,   82.4569244,           0.
    354,   89.1021042,   113.679527,           0.
    355,   111.882912,   109.990257,           0.
    356,   96.8465195,   113.443375,           0.
    357,   92.6797714,   113.451851,           0.
    358,    101.05127,   113.444641,           0.
    359,   113.473701,   83.2997589,           0.
    360,   108.945564,   82.6621399,           0.
    361,   104.719116,   82.5157089,           0.
    362,   85.9712296,   111.881699,           0.
    363,   86.0789719,   84.3964844,           0.
    364,   113.855965,   107.102516,           0.
    365,   85.6661377,   88.2504044,           0.
    366,   113.764015,    99.921875,           0.
    367,    113.71759,   103.753983,           0.
    368,   113.696663,   96.0104599,           0.
    369,   88.8122101,   93.9327316,           0.
    370,   113.550446,   91.9376984,           0.
    371,    113.55397,   87.7978516,           0.
    372,   89.0295105,   101.682808,           0.
    373,   89.3193893,   105.585144,           0.
    374,   117.317436,   82.4008102,           0.
    375,   96.3399048,   82.3822708,           0.
    376,   107.542358,   109.869789,           0.
    377,    90.045723,   109.887817,           0.
    378,   94.5911026,   109.909729,           0.
    379,   98.8418961,    109.80674,           0.
    380,   103.174438,   109.876686,           0.
    381,   110.471764,   85.9088516,           0.
    382,    106.82457,   86.0250626,           0.
    383,   102.589806,   86.0011292,           0.
    384,   109.427299,   89.6407928,           0.
    385,    109.96962,   106.058594,           0.
    386,   110.286018,   101.880035,           0.
    387,   110.227119,   97.9673767,           0.
    388,   110.041374,   93.9736862,           0.
    389,   88.9292679,   90.3132477,           0.
    390,   92.2364273,   95.8292465,           0.
    391,   92.3735657,   99.6608124,           0.
    392,   92.5996704,   103.536697,           0.
    393,   94.2855453,   79.1524124,           0.
    394,   98.2195129,    85.980011,           0.
    395,   96.3602142,   105.888031,           0.
    396,   92.5832214,   106.961487,           0.
    397,   100.975266,   106.259041,           0.
    398,   105.314072,   106.320145,           0.
    399,   89.3897095,   86.7829056,           0.
    400,   104.788246,   89.4872665,           0.
    401,   91.9938583,   88.9369659,           0.
    402,   106.704552,   99.8826523,           0.
    403,   106.546371,   95.8704071,           0.
    404,   95.7390213,   97.7194824,           0.
    405,   92.2450562,   92.1220169,           0.
    406,   90.0056915,    83.131134,           0.
    407,   107.073181,    103.30909,           0.
    408,   93.5535278,   85.5828247,           0.
    409,    100.49485,   89.5032578,           0.
    410,   99.1035843,   103.152534,           0.
    411,   103.039421,   102.329552,           0.
    412,   95.8425598,    89.780838,           0.
    413,   102.900505,    97.797142,           0.
    414,   95.9059067,   101.607162,           0.
    415,   95.6518707,   93.9315643,           0.
    416,    106.71228,   92.4561691,           0.
    417,   102.755775,   93.3217163,           0.
    418,   98.7680435,      92.4487,           0.
    419,      99.1791,    95.817337,           0.
    420,   99.3112564,   99.7372055,           0.
    421,   91.0380402,    80.053093,           0.
    422,   93.0445404,   82.0603485,           0.
    423,   64.4823837,    80.821373,           0.
    424,   68.2893753,   97.8677979,           0.
    425,   68.2926788,    93.895813,           0.
    426,   68.2243805,   90.0396194,           0.
    427,   68.1115341,   86.2160034,           0.
    428,   25.8999825,   124.291367,           0.
    429,   29.8845634,   124.292145,           0.
    430,   33.8688812,   124.293381,           0.
    431,   37.8531418,   124.294281,           0.
    432,   41.8375359,   124.294395,           0.
    433,   45.8220978,   124.293701,           0.
    434,   49.8066788,   124.292786,           0.
    435,    53.791256,   124.292114,           0.
    436,    57.797924,   124.259071,           0.
    437,   61.9617043,   124.143097,           0.
    438,    66.324852,   124.129822,           0.
    439,   3.66188002,   73.4650421,           0.
    440,    3.4428823,   93.9605179,           0.
    441,    3.4427247,   97.9348221,           0.
    442,   3.44268036,   101.909103,           0.
    443,   3.44269609,   105.883278,           0.
    444,   3.44493699,   109.857315,           0.
    445,   3.47827601,   113.852905,           0.
    446,   3.58642936,    117.99247,           0.
    447,   3.59900117,   122.337051,           0.
    448,   10.0393906,   71.5939407,           0.
    449,     13.99084,   71.5839386,           0.
    450,    17.972908,   71.5840836,           0.
    451,   21.9629097,   71.5848999,           0.
    452,   25.9551659,   71.5853958,           0.
    453,   29.9480362,   71.5856705,           0.
    454,   33.9416161,   71.5841675,           0.
    455,   37.9358482,   71.5789948,           0.
    456,     41.93013,   71.5682144,           0.
    457,   45.9191856,   71.5554962,           0.
    458,   49.8228493,   71.5746002,           0.
    459,    59.061264,   75.1534195,           0.
    460,   53.6606598,   71.6424179,           0.
    461,   57.3998375,   71.6724167,           0.
    462,   61.3684731,   78.3095703,           0.
    463,   68.0759201,   82.4685669,           0.
    464,   3.44527364,   89.9853134,           0.
    465,   6.99602175,   115.841888,           0.
    466,   6.88904572,   107.870094,           0.
    467,   6.88610411,   99.9218063,           0.
    468,    3.5178113,   81.9838257,           0.
    469,    3.4636302,   86.0076447,           0.
    470,   3.63247871,   77.8235474,           0.
    471,   6.88664579,   95.9474106,           0.
    472,   6.88668203,   103.896103,           0.
    473,   6.91903114,   111.841171,           0.
    474,   68.2840729,    101.85112,           0.
    475,   64.6337738,   88.1677933,           0.
    476,   68.2794189,   105.836342,           0.
    477,   68.4822083,   121.119385,           0.
    478,   68.2263336,   109.822639,           0.
    479,   64.8639679,   95.8776474,           0.
    480,    64.793869,   91.9819946,           0.
    481,    68.157486,   113.810341,           0.
    482,    21.912571,   124.278481,           0.
    483,   47.8133202,   120.848541,           0.
    484,   39.8451385,   120.851013,           0.
    485,   55.7747498,   120.818344,           0.
    486,   31.8782501,   120.846016,           0.
    487,   9.95966053,   124.148888,           0.
    488,   6.60608959,     124.4701,           0.
    489,   27.8939133,   120.843735,           0.
    490,   13.9325743,   124.141586,           0.
    491,   17.9207535,   124.191719,           0.
    492,   59.8222466,   120.723976,           0.
    493,    51.794857,   120.841217,           0.
    494,   35.8619652,   120.849403,           0.
    495,   43.8288574,   120.851357,           0.
    496,   39.9426842,   75.0112839,           0.
    497,   47.8227615,   75.0214081,           0.
    498,   31.9463139,   75.0391159,           0.
    499,   11.9341221,   75.0512924,           0.
    500,   15.9252291,   75.0473099,           0.
    501,   19.9584408,   75.0413284,           0.
    502,   23.9572945,   75.0411682,           0.
    503,    27.951685,   75.0407028,           0.
    504,   43.9196434,   74.9937515,           0.
    505,      35.9445,    75.029129,           0.
    506,   57.5663185,   78.5918503,           0.
    507,   60.3592529,   82.1960068,           0.
    508,   7.54107666,   120.353249,           0.
    509,    64.371315,   120.188362,           0.
    510,    51.658493,    75.087944,           0.
    511,   64.8582458,   99.8492737,           0.
    512,   6.91457224,   88.0245056,           0.
    513,   7.06993198,   84.0197296,           0.
    514,   10.3303909,   101.908813,           0.
    515,   10.3320627,   97.9336624,           0.
    516,   10.3314457,   105.882965,           0.
    517,   10.3285809,   109.855156,           0.
    518,   10.3083076,   113.841637,           0.
    519,    6.8922286,   91.9773712,           0.
    520,   68.1634369,   117.755989,           0.
    521,   64.7294388,   107.810211,           0.
    522,   64.5372543,   111.822983,           0.
    523,   61.2956085,   90.0353699,           0.
    524,   61.4259987,   93.8983383,           0.
    525,   23.9087887,   120.820137,           0.
    526,   11.8765745,   120.454376,           0.
    527,   15.9094028,   120.511803,           0.
    528,    57.824646,   117.416779,           0.
    529,   53.8103523,   117.417725,           0.
    530,   49.8084297,   117.411621,           0.
    531,   45.8199501,   117.412125,           0.
    532,   41.8367538,   117.412262,           0.
    533,   37.8551331,   117.409195,           0.
    534,   33.8733864,   117.404068,           0.
    535,   29.8894711,   117.399261,           0.
    536,    19.931303,   120.707115,           0.
    537,   64.8228073,   103.830788,           0.
    538,   7.60677052,   75.3448486,           0.
    539,    33.952446,   78.4836197,           0.
    540,   21.9528065,   78.4927979,           0.
    541,    25.953249,   78.4949722,           0.
    542,    29.951313,   78.4921722,           0.
    543,   17.8638992,   78.4848404,           0.
    544,   13.7983303,   78.4343567,           0.
    545,   37.9602318,   78.4593735,           0.
    546,   41.9571381,   78.4250641,           0.
    547,   45.8687477,   78.4290085,           0.
    548,   64.4378738,   84.3549423,           0.
    549,   10.1048584,   117.378265,           0.
    550,   61.3986015,   117.619759,           0.
    551,   7.19735241,   79.8885345,           0.
    552,   13.7895937,   116.439468,           0.
    553,   60.4506111,   113.941139,           0.
    554,   11.1825733,   81.8863831,           0.
    555,   61.4430351,    97.843071,           0.
    556,   49.7718887,   78.4895554,           0.
    557,   55.4807816,   75.1235733,           0.
    558,   10.3917246,   90.0066833,           0.
    559,   10.5527258,     86.10112,           0.
    560,    13.775383,    103.89566,           0.
    561,   13.8367615,   107.940987,           0.
    562,   13.7636166,   112.032219,           0.
    563,   13.7790308,   99.9200287,           0.
    564,   10.3504677,   93.9586182,           0.
    565,   58.0074196,   91.9047699,           0.
    566,    35.869072,   113.966049,           0.
    567,   64.5131149,    115.85643,           0.
    568,   25.9077644,   117.377022,           0.
    569,   61.1166534,   109.715828,           0.
    570,    31.886734,   113.958527,           0.
    571,   18.0333672,   117.112206,           0.
    572,   55.9886475,   113.987152,           0.
    573,   47.8116417,   113.978462,           0.
    574,   51.8975105,   113.899269,           0.
    575,   43.8281975,   113.977409,           0.
    576,   21.9522457,   117.287231,           0.
    577,   61.2985382,   105.797752,           0.
    578,   39.8485794,   113.973267,           0.
    579,   10.3438301,   78.1210785,           0.
    580,   27.9540939,   81.9467163,           0.
    581,   23.9623604,   81.9230652,           0.
    582,   15.6969728,   81.8460159,           0.
    583,   31.9600563,   81.9372253,           0.
    584,   19.8568516,   81.9458847,           0.
    585,    61.400135,   101.820885,           0.
    586,   43.9369736,   81.8429718,           0.
    587,   39.9789085,   81.8791656,           0.
    588,   35.9739342,   81.9132614,           0.
    589,   6.65745211,   71.3322296,           0.
    590,   13.8046722,   84.6972656,           0.
    591,   53.7083282,   78.5424728,           0.
    592,   57.8563271,   88.1053314,           0.
    593,    58.032753,   95.8291397,           0.
    594,   47.8902817,   81.8591919,           0.
    595,   13.8514261,   91.9656296,           0.
    596,   17.2398949,   105.841835,           0.
    597,   17.6845741,   110.148598,           0.
    598,   17.2110023,   101.882454,           0.
    599,   13.9256973,   88.0633926,           0.
    600,   37.8651123,    110.53215,           0.
    601,   27.9112415,   113.903824,           0.
    602,   13.8059263,   95.9421082,           0.
    603,   41.8410759,   110.541214,           0.
    604,   33.8854103,   110.521652,           0.
    605,   20.0373802,   113.768944,           0.
    606,   57.7761917,   107.708054,           0.
    607,   49.7863083,   110.506836,           0.
    608,   45.8165054,   110.539604,           0.
    609,   54.1126213,   110.059616,           0.
    610,   23.9593925,   113.811363,           0.
    611,   25.9271049,   85.4845734,           0.
    612,   21.8869267,   85.4800568,           0.
    613,   17.5314293,   85.7746124,           0.
    614,    57.842762,   103.774712,           0.
    615,   29.9523258,   85.4241486,           0.
    616,   33.9846153,    85.378067,           0.
    617,   57.9385338,   99.7967682,           0.
    618,   41.9766541,   85.2717667,           0.
    619,   38.0022659,   85.3326569,           0.
    620,   61.0861244,   86.2953186,           0.
    621,   55.9515533,   81.9850311,           0.
    622,   54.6242943,   89.8776474,           0.
    623,   51.9048691,   81.9548569,           0.
    624,   54.6392937,   93.7584763,           0.
    625,   57.8889465,   111.082359,           0.
    626,   17.1836491,   93.9423447,           0.
    627,   39.8611374,   107.102516,           0.
    628,   20.2907219,   107.259514,           0.
    629,   20.5273609,   103.833374,           0.
    630,   17.1819649,   90.0135345,           0.
    631,   29.9315262,   110.419182,           0.
    632,   43.8252754,   107.115707,           0.
    633,   45.9292717,    85.303154,           0.
    634,   35.8853531,   107.088898,           0.
    635,   17.1857185,    97.927742,           0.
    636,   16.6617069,   113.900284,           0.
    637,   47.7881851,   107.170425,           0.
    638,   21.9765491,   110.249359,           0.
    639,   51.2471809,   107.441124,           0.
    640,   23.8080349,   89.4589233,           0.
    641,     25.95924,   110.236557,           0.
    642,   28.0382538,   88.9289703,           0.
    643,   54.2656555,   105.740906,           0.
    644,   54.3219452,   101.710579,           0.
    645,   32.0202637,   88.8440933,           0.
    646,   36.0135918,   88.7788086,           0.
    647,   54.5239868,   97.7039185,           0.
    648,   39.9527245,   88.7850952,           0.
    649,   57.8941917,   84.8512955,           0.
    650,   51.3536453,   91.6855698,           0.
    651,    54.249752,   85.7450409,           0.
    652,   49.9287796,   85.3662338,           0.
    653,   41.8555107,   103.427933,           0.
    654,    20.524847,   95.9115982,           0.
    655,   45.9580269,   103.657967,           0.
    656,   37.7569504,   103.381912,           0.
    657,   31.9381294,   106.994736,           0.
    658,   20.5432682,   99.8883591,           0.
    659,   50.3368759,   103.716583,           0.
    660,   43.8219185,   88.8216248,           0.
    661,   26.7159557,   92.1120148,           0.
    662,   28.0602951,   106.862465,           0.
    663,   30.2214108,   92.3779984,           0.
    664,   50.9911957,   99.4938049,           0.
    665,   51.2127113,     95.58918,           0.
    666,   34.2431946,   92.3390121,           0.
    667,   38.0395966,   92.2655869,           0.
    668,    20.456358,   91.9417496,           0.
    669,   47.9910698,   89.2594757,           0.
    670,    51.629509,    88.386795,           0.
    671,   44.2382889,   99.4595718,           0.
    672,   48.0610924,   93.5088959,           0.
    673,   39.6209908,   99.0774918,           0.
    674,   33.6956863,   103.444954,           0.
    675,   23.9898739,   98.0075989,           0.
    676,   23.9006882,   106.297432,           0.
    677,   23.8221397,   102.047386,           0.
    678,   41.9084854,   92.6682129,           0.
    679,   29.8097191,     103.5802,           0.
    680,    27.990675,    96.127182,           0.
    681,   20.1729431,   88.5337753,           0.
    682,   32.6115952,    96.060585,           0.
    683,   47.8538704,   97.3522263,           0.
    684,   36.5874672,   95.7946014,           0.
    685,   47.8756523,   100.736031,           0.
    686,   45.3213348,   91.9031143,           0.
    687,   42.0344162,   96.3417969,           0.
    688,   35.2442093,   99.6135101,           0.
    689,   27.2391853,    100.57679,           0.
    690,   23.9142914,    93.926506,           0.
    691,   26.5664062,   103.872856,           0.
    692,   31.0985126,   99.9005356,           0.
    693,    44.902916,   95.2056351,           0.
    694,   39.6381912,    95.229538,           0.
    695,   78.7625504,   55.2744942,           0.
    696,   75.1989975,     34.18647,           0.
    697,   75.4578018,   5.49765539,           0.
    698,   75.4056091,   9.87440872,           0.
    699,   75.2646332,   14.0435448,           0.
    700,   75.2286682,   18.0923958,           0.
    701,   75.2190475,   22.1189384,           0.
    702,   75.2134857,   26.1414261,           0.
    703,   75.2069321,    30.164175,           0.
    704,   75.1876526,   38.2091255,           0.
    705,   75.1744003,   42.2305679,           0.
    706,   75.2426987,   46.1373062,           0.
    707,   75.3230667,   49.9909706,           0.
    708,    107.28051,    3.6108315,           0.
    709,   103.098129,   3.61056304,           0.
    710,   98.9157104,   3.60969234,           0.
    711,   94.7319946,   3.60775661,           0.
    712,   90.5480347,   3.60509562,           0.
    713,   86.3220215,   3.64135289,           0.
    714,   82.1468658,   3.63442111,           0.
    715,   130.688721,   62.6711922,           0.
    716,   130.989822,   50.0890312,           0.
    717,   131.007309,   46.0860367,           0.
    718,   131.009201,   42.0796394,           0.
    719,   131.008072,   38.0722504,           0.
    720,   131.006165,   34.0648117,           0.
    721,   131.003693,   30.0573425,           0.
    722,    131.00032,   26.0499325,           0.
    723,   130.996246,   22.0426846,           0.
    724,   130.991714,   18.0353851,           0.
    725,   130.948898,   14.0139446,           0.
    726,   130.804413,   9.85777092,           0.
    727,   130.749649,   5.47599316,           0.
    728,   123.900681,   64.5069809,           0.
    729,   102.629028,    64.508316,           0.
    730,   98.3993073,   64.5235443,           0.
    731,   94.2492371,   64.5176163,           0.
    732,   84.6717148,   60.9481697,           0.
    733,   90.1770096,   64.4889297,           0.
    734,   86.2537003,   64.5052032,           0.
    735,   82.3892212,   57.2472954,           0.
    736,   75.3049011,   53.7391129,           0.
    737,   130.939133,    54.108757,           0.
    738,   127.468735,   16.0706215,           0.
    739,   127.496437,   20.0540752,           0.
    740,   127.517868,   48.0784912,           0.
    741,   127.528976,   32.0634232,           0.
    742,   130.754929,   58.2939568,           0.
    743,     127.5373,   44.0827446,           0.
    744,   127.538551,   40.0774307,           0.
    745,   127.534508,   36.0705757,           0.
    746,   127.520836,   28.0567303,           0.
    747,   127.509819,   24.0522079,           0.
    748,   127.346848,   12.0583191,           0.
    749,   78.7444687,   44.1454163,           0.
    750,    78.768074,   16.0439339,           0.
    751,   78.9094086,   11.9580793,           0.
    752,   78.6689453,    40.209095,           0.
    753,   78.7008362,   28.1577587,           0.
    754,   78.7327042,   20.1041241,           0.
    755,   78.6687317,   36.2048225,           0.
    756,   78.7160721,   24.1337147,           0.
    757,   78.6845856,   32.1836014,           0.
    758,   78.8965988,   48.0693398,           0.
    759,   111.470993,   3.61856437,           0.
    760,   101.003242,   7.21052027,           0.
    761,   119.925362,   3.73710036,           0.
    762,   115.694092,   3.69064927,           0.
    763,   105.184425,   7.20974827,           0.
    764,   96.8213654,    7.2055974,           0.
    765,   92.6373749,   7.20009518,           0.
    766,    88.354187,    7.3066988,           0.
    767,   84.0783157,   7.31274557,           0.
    768,   124.096672,   3.70653725,           0.
    769,   127.595276,   3.33832765,           0.
    770,   119.665016,   64.4929123,           0.
    771,   100.499924,   60.9310989,           0.
    772,   111.118652,   64.4890594,           0.
    773,   106.869545,   64.5003891,           0.
    774,   96.3553848,   60.9094353,           0.
    775,    81.551796,   53.6850739,           0.
    776,   86.5860062,   57.3770218,           0.
    777,   126.703308,   7.52300262,           0.
    778,   79.5347214,    7.4406271,           0.
    779,   124.074348,   10.5787725,           0.
    780,     127.4366,   52.1105614,           0.
    781,   124.064919,   38.0783348,           0.
    782,    124.06881,   42.0851288,           0.
    783,   124.026474,    26.062067,           0.
    784,   124.055237,   34.0724869,           0.
    785,   124.041534,   30.0679283,           0.
    786,   124.006645,   22.0645905,           0.
    787,   124.043686,   46.0828133,           0.
    788,   123.910217,   14.0699949,           0.
    789,   123.964058,   18.0639305,           0.
    790,    78.773468,   51.8525658,           0.
    791,   82.2222137,   22.1286182,           0.
    792,   82.2046432,   26.1563377,           0.
    793,   82.1798019,   30.1856613,           0.
    794,   82.2434845,   18.0415211,           0.
    795,   82.2864456,   13.9686737,           0.
    796,   82.1516342,   34.2143288,           0.
    797,   82.2491074,   46.0837708,           0.
    798,   82.1576309,   42.1792793,           0.
    799,   82.1351242,   38.2246475,           0.
    800,   92.3269043,   60.9065971,           0.
    801,   109.374268,    7.2228756,           0.
    802,   122.141983,   7.44256687,           0.
    803,   117.850067,   7.44815302,           0.
    804,   103.087509,   10.7962046,           0.
    805,    98.906311,   10.7918587,           0.
    806,   94.6974411,   10.7853813,           0.
    807,    90.490303,   10.8590784,           0.
    808,   85.9742661,   11.4266701,           0.
    809,   113.572601,   7.29714966,           0.
    810,   104.721893,   60.9048576,           0.
    811,   121.922989,   60.8454285,           0.
    812,   127.233696,   56.2026711,           0.
    813,   115.383568,   64.4904556,           0.
    814,   98.4203491,   57.3546257,           0.
    815,   108.966972,   60.8841362,           0.
    816,   78.6268463,   3.31454062,           0.
    817,   126.552689,    60.731678,           0.
    818,   120.163429,     11.53234,           0.
    819,   82.6542358,   50.2257919,           0.
    820,   123.813774,   54.1974678,           0.
    821,   123.950035,   50.1328697,           0.
    822,   120.325607,    20.025034,           0.
    823,    120.46476,   24.0618248,           0.
    824,   120.582962,   36.0834274,           0.
    825,   120.566063,   32.0811157,           0.
    826,   120.285713,   15.9499407,           0.
    827,   120.590683,   40.0886154,           0.
    828,   120.530632,   28.0762291,           0.
    829,   120.570534,   44.0913086,           0.
    830,   85.5936203,   40.2248802,           0.
    831,   85.5299911,   44.1839638,           0.
    832,   85.8140793,   15.9378033,           0.
    833,    85.856781,   20.0735836,           0.
    834,   85.7444229,   24.1665459,           0.
    835,   85.6922836,   28.1970692,           0.
    836,   85.6135254,   36.2476654,           0.
    837,   85.6507034,   32.2276001,           0.
    838,   88.4202042,    60.932888,           0.
    839,   82.1566315,   10.4213591,           0.
    840,   94.4019012,   57.3817177,           0.
    841,   107.272072,   10.8015203,           0.
    842,   102.582565,   57.3422241,           0.
    843,   88.9210052,   14.1041965,           0.
    844,   96.7412262,   14.3413019,           0.
    845,    100.96981,   14.3579454,           0.
    846,   92.5430222,   14.3072338,           0.
    847,    115.61734,   10.9408274,           0.
    848,   111.447708,   10.8343077,           0.
    849,   127.473198,   64.8334351,           0.
    850,    117.58799,   60.7739868,           0.
    851,   113.243767,   60.8541794,           0.
    852,   106.806297,   57.3110085,           0.
    853,   120.410538,   52.2299995,           0.
    854,   90.4827652,   57.4154663,           0.
    855,   116.198547,   17.9011993,           0.
    856,   85.2350082,   47.5471382,           0.
    857,    117.09185,   34.0955887,           0.
    858,   116.852371,   22.1896458,           0.
    859,   117.058678,   30.1003494,           0.
    860,   117.105675,   38.0956726,           0.
    861,    116.99456,   26.1347313,           0.
    862,   120.502235,   48.1629028,           0.
    863,   117.097435,    42.106266,           0.
    864,    123.90184,   57.7433167,           0.
    865,   89.9439316,   17.8887806,           0.
    866,    89.376297,   22.2055893,           0.
    867,   89.2621613,   26.1955357,           0.
    868,   89.0618973,   38.2835426,           0.
    869,   88.9968491,   42.3862991,           0.
    870,   89.1813126,   30.2346821,           0.
    871,    89.115181,   34.2728043,           0.
    872,   96.3998871,   53.9006538,           0.
    873,   105.190964,   14.3833485,           0.
    874,   100.467072,   53.8220596,           0.
    875,   113.572754,   14.3556318,           0.
    876,   94.5445938,   17.8320713,           0.
    877,    98.814888,   17.9507656,           0.
    878,   109.421104,   14.3896065,           0.
    879,   111.108414,   57.1534157,           0.
    880,   120.026917,   56.7008324,           0.
    881,   104.677917,   53.7591782,           0.
    882,   115.431458,   57.0521164,           0.
    883,   86.8276901,   50.5002022,           0.
    884,   88.8780136,   46.7955856,           0.
    885,   117.167557,   14.1359873,           0.
    886,   117.049217,   50.2721558,           0.
    887,   113.587952,   20.8335915,           0.
    888,   113.615044,   36.1102791,           0.
    889,   113.587418,   32.1252556,           0.
    890,   92.6517334,   20.7773247,           0.
    891,    113.45977,   24.2432079,           0.
    892,   113.536804,   28.1688976,           0.
    893,   113.602875,   40.1086121,           0.
    894,   117.087814,   46.1805344,           0.
    895,   92.8072052,   24.2387505,           0.
    896,   92.7217789,    28.256937,           0.
    897,   92.4981918,   40.3900032,           0.
    898,    92.563652,   36.3401031,           0.
    899,    92.640976,   32.3036041,           0.
    900,   92.4952545,   53.9859657,           0.
    901,   98.3582993,   50.3480034,           0.
    902,   103.096291,   17.9485703,           0.
    903,   108.912697,   53.5872231,           0.
    904,   111.651749,   17.9069462,           0.
    905,   96.4907379,   21.8759308,           0.
    906,   107.378326,   18.0109711,           0.
    907,   102.580025,   50.2739067,           0.
    908,   113.426842,   52.9297295,           0.
    909,   92.4730682,   44.4104309,           0.
    910,   113.532593,   48.3698997,           0.
    911,   110.104446,   34.1732063,           0.
    912,   117.268997,   53.8369675,           0.
    913,   110.064735,   38.1919174,           0.
    914,   109.747284,   21.9177303,           0.
    915,   110.062607,   26.2134933,           0.
    916,   110.083885,   30.1663589,           0.
    917,   113.465172,   44.2126656,           0.
    918,   96.1941452,   26.2612629,           0.
    919,   95.9673233,    38.435257,           0.
    920,   96.1521606,   30.2937355,           0.
    921,   96.0808945,   34.3700066,           0.
    922,   94.4093857,   50.5540924,           0.
    923,   101.007011,   21.5871315,           0.
    924,   106.811531,   50.1730423,           0.
    925,   100.559761,   46.8148918,           0.
    926,   105.218285,   21.6187267,           0.
    927,   110.422852,    50.299839,           0.
    928,    109.37455,   46.5118103,           0.
    929,   92.5047379,   47.8018684,           0.
    930,   90.6362305,   50.6044006,           0.
    931,   95.8593063,     42.39254,           0.
    932,   96.1492767,   46.6032562,           0.
    933,   106.530655,   36.3240089,           0.
    934,   106.582542,   32.2287483,           0.
    935,   106.653961,   28.1677971,           0.
    936,   109.933914,   42.1887665,           0.
    937,   99.4828949,   36.4545898,           0.
    938,   99.5866623,   32.3211594,           0.
    939,    104.78965,   46.7501602,           0.
    940,   103.127518,   25.5796585,           0.
    941,   99.5828781,   28.2099361,           0.
    942,   99.2804565,   24.7027836,           0.
    943,   106.961929,    24.699482,           0.
    944,    103.03759,   34.3359795,           0.
    945,   103.095192,   30.1405468,           0.
    946,    99.310791,   40.4537735,           0.
    947,   88.6515121,    53.954525,           0.
    948,   106.478363,   40.3281937,           0.
    949,   102.801979,   42.9300423,           0.
    950,    106.67569,   43.7417946,           0.
    951,   98.9362259,   43.8389015,           0.
    952,   102.940384,    38.471096,           0.
    953,    84.776741,   53.8316536,           0.
    954,   68.0544281,   5.34170103,           0.
    955,   58.0668335,   61.7287636,           0.
    956,   57.7528877,   65.4514542,           0.
    957,   68.2407761,   26.1414471,           0.
    958,   68.2436371,   30.1637249,           0.
    959,   68.2498322,   34.1859932,           0.
    960,   68.2602539,    38.208477,           0.
    961,   68.2719193,   42.2264938,           0.
    962,   68.2535553,   46.1608467,           0.
    963,   64.6520309,    55.501152,           0.
    964,   68.1890869,   50.0312042,           0.
    965,   68.1612701,    53.801239,           0.
    966,   61.3409233,   58.0802536,           0.
    967,   37.9400673,   64.6851501,           0.
    968,   41.9386787,   64.6941452,           0.
    969,   45.9997177,   64.6772079,           0.
    970,    50.241478,   64.6287079,           0.
    971,   54.4888458,   64.8153381,           0.
    972,   3.57346106,   10.0172949,           0.
    973,   3.52762341,   14.0082064,           0.
    974,   3.48628116,   18.0282822,           0.
    975,   3.47318816,   22.0406494,           0.
    976,   3.47072816,   26.0490837,           0.
    977,   3.46998501,   30.0568275,           0.
    978,   3.46950054,   34.0644073,           0.
    979,   3.46918583,    38.071949,           0.
    980,   3.46899414,   42.0795174,           0.
    981,    3.4689734,   46.0870895,           0.
    982,   3.47097588,   50.0946808,           0.
    983,   3.50349832,   54.1250381,           0.
    984,   3.60761261,   58.3017197,           0.
    985,    3.6137166,   62.6823311,           0.
    986,   29.8848839,   3.45350575,           0.
    987,   25.9000378,   3.45385027,           0.
    988,   21.9151764,   3.45413494,           0.
    989,   17.9305401,   3.45437384,           0.
    990,   13.9345751,   3.48494935,           0.
    991,   9.79245186,   3.59954023,           0.
    992,   5.42635536,   3.61992621,           0.
    993,   33.8693771,   3.45370603,           0.
    994,   65.0487442,    3.1611402,           0.
    995,    27.893549,   6.90961647,           0.
    996,   19.9183941,   6.91195869,           0.
    997,   41.8385544,   3.45349288,           0.
    998,   37.8539696,   3.45376778,           0.
    999,   23.9076405,   6.91071987,           0.
   1000,   15.9148121,   6.93526459,           0.
   1001,   11.8603773,   7.02291441,           0.
   1002,   33.9460449,   64.6806335,           0.
   1003,   39.9607964,   61.2617683,           0.
   1004,   48.2275085,   61.1872101,           0.
   1005,   25.9552879,   64.6709518,           0.
   1006,   29.9504013,   64.6765289,           0.
   1007,   21.9603214,     64.65905,           0.
   1008,   17.9513645,   64.5880356,           0.
   1009,   13.9499655,   64.4911652,           0.
   1010,   9.99272251,   64.4890823,           0.
   1011,   6.62793827,   64.8295746,           0.
   1012,     44.01474,    61.260498,           0.
   1013,   53.2115211,   60.6133461,           0.
   1014,   6.93900776,   28.0533047,           0.
   1015,   6.95033789,   20.0335503,           0.
   1016,   7.17392588,   11.9246149,           0.
   1017,    3.2831676,   6.64537239,           0.
   1018,   7.13069677,   15.9716244,           0.
   1019,   7.03935814,   56.1330261,           0.
   1020,   6.93904209,   48.0909615,           0.
   1021,    6.9364357,   44.0833702,           0.
   1022,    6.9361887,   40.0759048,           0.
   1023,   6.93678284,   36.0684776,           0.
   1024,   6.94181442,   24.0446301,           0.
   1025,    6.9376111,   32.0610123,           0.
   1026,   6.96690321,   52.0970268,           0.
   1027,   64.7819595,   44.1481323,           0.
   1028,   64.7952805,   36.2070694,           0.
   1029,   68.2114487,   18.0728951,           0.
   1030,   68.2361069,   22.1155624,           0.
   1031,   64.8101349,   40.2125397,           0.
   1032,   64.7657089,   28.1570301,           0.
   1033,   64.7777328,   32.1828842,           0.
   1034,   57.3926888,   57.3835793,           0.
   1035,   60.9913597,   54.3277054,           0.
   1036,   7.34685564,      7.56671,           0.
   1037,   7.57404327,   60.6718407,           0.
   1038,   68.0225754,   9.71166229,           0.
   1039,   64.0027771,   7.06779861,           0.
   1040,   64.7074127,   48.0428047,           0.
   1041,   35.9569168,   61.2476273,           0.
   1042,   35.8628769,   6.90912104,           0.
   1043,   45.8228989,   3.45376348,           0.
   1044,   49.8075371,   3.45397067,           0.
   1045,   39.8475113,   6.90930843,           0.
   1046,   53.9074669,    3.5399847,           0.
   1047,   25.9023018,   10.3681202,           0.
   1048,   13.8110752,   10.3605051,           0.
   1049,   21.8936615,   10.3913116,           0.
   1050,   17.8328075,   10.4067497,           0.
   1051,   31.8782406,   6.90970802,           0.
   1052,   15.9553623,    60.859684,           0.
   1053,   19.9765491,    61.078392,           0.
   1054,   27.9563293,   61.2211647,           0.
   1055,   23.9648705,   61.1814613,           0.
   1056,   11.9180155,   60.7891731,           0.
   1057,   46.0472984,   57.8548164,           0.
   1058,   42.0021095,   57.8498802,           0.
   1059,   31.9559269,   61.2355614,           0.
   1060,   10.5593262,   18.1057205,           0.
   1061,   10.4350119,   22.0529404,           0.
   1062,   11.1987028,   13.8762932,           0.
   1063,   10.4015579,    38.072834,           0.
   1064,   10.4006453,    42.079834,           0.
   1065,   10.4030609,   34.0656433,           0.
   1066,   10.4015369,   46.0871162,           0.
   1067,   10.3963623,   50.0966492,           0.
   1068,   10.4114962,   26.0516796,           0.
   1069,   10.3667727,   54.1201019,           0.
   1070,   10.4056463,   30.0582829,           0.
   1071,   10.2781878,   10.1502075,           0.
   1072,   64.7621765,   24.1325111,           0.
   1073,   68.1385498,   13.9577599,           0.
   1074,      61.3013,   30.1822929,           0.
   1075,   61.3258247,   34.2141113,           0.
   1076,   61.3571281,   38.2344971,           0.
   1077,   64.7319794,   20.1042213,           0.
   1078,    61.349659,   42.1768913,           0.
   1079,   10.1513243,   57.6854553,           0.
   1080,   13.8427181,   56.7516518,           0.
   1081,   37.9818115,   57.8297348,           0.
   1082,   64.6375046,    51.960041,           0.
   1083,   61.2731018,   46.1368065,           0.
   1084,    33.871994,   10.3668938,           0.
   1085,   37.8565865,   10.3669271,           0.
   1086,   47.8162041,   6.90971661,           0.
   1087,   23.8964882,   13.9497643,           0.
   1088,   19.7904472,   14.0132113,           0.
   1089,   57.9626694,   3.44538498,           0.
   1090,   51.9318085,   7.09452677,           0.
   1091,   61.7739143,     3.318995,           0.
   1092,   43.8316727,   6.90976954,           0.
   1093,   44.0091209,   54.4624176,           0.
   1094,   29.8872375,   10.3677483,           0.
   1095,   18.0732765,   57.4394836,           0.
   1096,   21.9924526,   57.6329308,           0.
   1097,   25.9711437,   57.7362785,           0.
   1098,   29.9668388,    57.781002,           0.
   1099,   33.9722824,   57.8073273,           0.
   1100,   13.8689337,    32.063488,           0.
   1101,   13.8656197,   36.0707893,           0.
   1102,   13.9168196,   20.1469517,           0.
   1103,    13.773097,   16.7701321,           0.
   1104,   13.9191141,   48.1670952,           0.
   1105,   13.8631659,   40.0771027,           0.
   1106,   13.8715057,   44.0962601,           0.
   1107,   13.8305206,   52.2987709,           0.
   1108,   13.8717718,   28.0570469,           0.
   1109,   13.8822002,   24.0776539,           0.
   1110,   64.6496429,      16.0056,           0.
   1111,   61.2908821,   26.1526585,           0.
   1112,   61.2716484,    22.138092,           0.
   1113,   57.8857727,   36.2544899,           0.
   1114,   57.8498497,   32.2231903,           0.
   1115,   57.9149399,   40.2255096,           0.
   1116,   64.4165421,   11.7638435,           0.
   1117,   61.0287743,    50.309906,           0.
   1118,   40.0114708,   54.4246674,           0.
   1119,   48.0700188,   54.3804207,           0.
   1120,   31.8812389,   13.8263407,           0.
   1121,   45.8247833,   10.3677626,           0.
   1122,   35.8657265,   13.8260679,           0.
   1123,   49.8048325,    10.501009,           0.
   1124,    21.989748,   17.6070976,           0.
   1125,   57.8867378,   44.2047119,           0.
   1126,   56.5307617,   7.57557869,           0.
   1127,   41.8405075,   10.3675518,           0.
   1128,   20.1182442,   54.1069336,           0.
   1129,   27.8990955,   13.8913231,           0.
   1130,   15.6595259,   13.8767958,           0.
   1131,   24.0591736,   54.1888084,           0.
   1132,   28.0132313,     54.27174,           0.
   1133,   31.9954128,   54.3448257,           0.
   1134,   17.3342972,   42.0884514,           0.
   1135,   17.3293896,   34.0698128,           0.
   1136,   17.3267899,   38.0774002,           0.
   1137,   17.3815212,   46.0772285,           0.
   1138,   17.3329754,   30.0636406,           0.
   1139,   17.5419426,   17.8896923,           0.
   1140,   17.2850132,   22.1762505,           0.
   1141,   17.3107052,   26.1000233,           0.
   1142,   17.8138599,   50.4270554,           0.
   1143,   61.2311935,   18.0824757,           0.
   1144,   57.8274841,   28.1843681,           0.
   1145,    36.001976,   54.3882294,           0.
   1146,   57.8005524,    24.150032,           0.
   1147,   54.4083939,   34.2721939,           0.
   1148,    54.454113,   38.2761002,           0.
   1149,   61.0316544,   13.9796019,           0.
   1150,   60.5927277,    9.7806654,           0.
   1151,   60.1725693,   6.23768473,           0.
   1152,   56.7213783,   53.0262642,           0.
   1153,    57.731205,   16.0160675,           0.
   1154,   50.2826309,   57.4672546,           0.
   1155,   46.0290489,   51.1114273,           0.
   1156,   42.0393448,   51.0712166,           0.
   1157,   57.5340614,   48.3342896,           0.
   1158,   29.9943275,   17.2489872,           0.
   1159,   43.8213425,   13.8676605,           0.
   1160,   33.9086189,   17.2644615,           0.
   1161,   47.7555733,    13.989747,           0.
   1162,   16.7357235,   54.2047806,           0.
   1163,   53.7260246,   10.8955469,           0.
   1164,   39.8473587,   13.8333931,           0.
   1165,   26.1009483,   17.4250565,           0.
   1166,   26.1139088,   50.6347389,           0.
   1167,   22.1312618,    50.580101,           0.
   1168,   54.3768959,   42.3089256,           0.
   1169,   20.7820282,   40.0902328,           0.
   1170,    30.078825,   50.8097916,           0.
   1171,   20.7235279,   44.0796852,           0.
   1172,   20.7868652,   36.0785141,           0.
   1173,   20.8465672,   28.0810623,           0.
   1174,    20.810463,   32.0726433,           0.
   1175,   20.3864212,   20.6833744,           0.
   1176,   20.8136158,    24.107357,           0.
   1177,     20.43606,   47.5537872,           0.
   1178,   34.0425682,   50.9164619,           0.
   1179,   57.7042198,   20.0286026,           0.
   1180,   54.3731995,   30.2304459,           0.
   1181,   38.0412674,   50.9896736,           0.
   1182,   54.3454857,   26.1961422,           0.
   1183,   50.9784508,   36.3163185,           0.
   1184,   57.4242516,   12.0634365,           0.
   1185,   24.4655685,     21.44133,           0.
   1186,    53.887867,   17.8049736,           0.
   1187,   44.0625076,   47.8028603,           0.
   1188,   52.1292572,   53.7702904,           0.
   1189,   49.8819122,     50.90065,           0.
   1190,   41.7444458,   17.2766876,           0.
   1191,   28.2926464,   20.1500912,           0.
   1192,   31.7843971,   20.5660038,           0.
   1193,   45.5757751,    17.461195,           0.
   1194,    54.220871,    46.268177,           0.
   1195,   37.8496437,   17.2800255,           0.
   1196,   51.6243706,   14.1640062,           0.
   1197,    24.293848,   38.1783867,           0.
   1198,   24.1528835,   42.2718239,           0.
   1199,    28.262907,   47.2912407,           0.
   1200,   50.9388657,   40.2937508,           0.
   1201,   24.1115685,   46.6475945,           0.
   1202,   24.2917233,   34.1124306,           0.
   1203,   32.1324081,   47.4838943,           0.
   1204,   24.5705032,    25.976263,           0.
   1205,   24.3916359,   30.0921593,           0.
   1206,   54.3183861,   22.1920052,           0.
   1207,   50.9214172,   32.2886581,           0.
   1208,   36.0893059,   47.5693703,           0.
   1209,   40.0760345,   47.6609802,           0.
   1210,     50.84655,   28.2475929,           0.
   1211,   53.6381416,   50.0474586,           0.
   1212,   50.4050484,   44.4803238,           0.
   1213,   51.1849632,   20.7029591,           0.
   1214,   53.9474983,   56.4521484,           0.
   1215,   47.9786606,    47.822155,           0.
   1216,   39.9249687,   20.6778336,           0.
   1217,   28.9276409,   23.9106846,           0.
   1218,   43.4266319,   20.2351208,           0.
   1219,   42.2034912,   44.3595276,           0.
   1220,    54.878746,   14.1888065,           0.
   1221,   35.8619995,   20.6700268,           0.
   1222,    49.531311,   17.6167717,           0.
   1223,   28.1334324,   40.6474686,           0.
   1224,   27.8998985,   36.2272873,           0.
   1225,    30.254385,   44.2094498,           0.
   1226,   47.4865189,   38.4820213,           0.
   1227,    28.138279,   28.2165833,           0.
   1228,   27.9168434,   32.1614494,           0.
   1229,   50.8301888,   24.1806545,           0.
   1230,   47.2976074,   34.4728661,           0.
   1231,    34.015934,   44.2035522,           0.
   1232,   38.0466156,   44.1183815,           0.
   1233,   47.2846451,   30.3865089,           0.
   1234,   47.8973732,   41.8298225,           0.
   1235,    51.224926,   47.9037514,           0.
   1236,   47.2005692,   21.5066185,           0.
   1237,   42.7954483,    24.064991,           0.
   1238,   38.0817871,   24.2032585,           0.
   1239,   33.7171249,   24.1727047,           0.
   1240,   31.6073627,   38.1212997,           0.
   1241,   43.2841187,   36.9461403,           0.
   1242,   31.3435097,   34.1984825,           0.
   1243,   31.5537415,   30.4668713,           0.
   1244,   47.1052399,   26.1588974,           0.
   1245,   40.3883972,   40.6585236,           0.
   1246,   35.6465645,   40.2170715,           0.
   1247,    43.790123,   32.5583763,           0.
   1248,   40.1831894,   27.2485142,           0.
   1249,   35.9225807,   28.7021828,           0.
   1250,   44.5686646,   41.1547737,           0.
   1251,   31.6518726,   27.0938053,           0.
   1252,   43.5859833,   28.5251694,           0.
   1253,   34.8586082,   35.8842659,           0.
   1254,   34.2499199,   32.4986115,           0.
   1255,   38.7653198,   36.8652115,           0.
   1256,   40.7535934,    34.068943,           0.
   1257,   37.4845467,   33.1254883,           0.
   1258,   46.1859589,   44.5749092,           0.
   1259,   40.2866707,   30.7047787,           0.
   1260,   31.9315357,   41.4797668,           0.
   1261,    26.983036,   44.2135162,           0.
*Element, type=S3
  1, 275, 253, 200
  2, 253,  66, 200
  3, 298, 255, 297
  4, 200,  13,  14
  5, 202, 201,  27
  6, 202,   3,  28
  7, 247,  17, 203
  8, 254, 231, 230
  9, 231,  59, 230
 10, 205,  19,  20
 11, 204, 203,  18
 12, 206, 205,  20
 13, 251, 205, 248
 14, 207, 206,  21
 15, 313, 277, 209
 16, 313, 210, 208
 17, 210,   2,  24
 18, 211,  26, 201
 19,  38,   4,  39
 20, 228,  39,  40
 21, 236, 226, 225
 22, 242, 225, 224
 23, 309, 265, 306
 24, 268, 263,  35
 25, 265,  34, 263
 26, 262,  32,  33
 27, 213,  31, 212
 28, 214,  30, 213
 29, 215,  29, 214
 30,  53,  52,   5
 31, 216,  52,  53
 32, 260, 231, 254
 33, 218,  50, 217
 34, 219,  49, 218
 35, 220,  48, 219
 36, 221,  47, 220
 37, 222,  46, 221
 38, 223,  45, 222
 39, 224,  44, 223
 40, 225,  43, 224
 41, 226,  42, 225
 42, 227,  41, 226
 43, 228,  40, 227
 44,  66,   1,  13
 45, 200,  66,  13
 46, 253, 229,  65
 47, 338, 275, 303
 48, 256,  64, 229
 49, 334, 333, 295
 50, 257,  63, 256
 51, 257,  62,  63
 52, 252,  60,  61
 53, 232,  58, 231
 54, 259, 235, 234
 55, 233,  57, 232
 56, 235,  55, 234
 57, 302,  53,  54
 58, 274,  15, 249
 59, 249,  16, 247
 60, 201,  26,  27
 61, 282, 238, 281
 62, 202,  27,   3
 63, 215,  28,  29
 64, 203,  17,  18
 65, 204,  18,  19
 66, 205, 204,  19
 67, 291, 289, 248
 68, 206,  20,  21
 69, 241, 221, 220
 70, 207,  21,  22
 71, 250, 248, 206
 72, 209,  22,  23
 73, 208,  24,  25
 74, 211,  25,  26
 75, 211, 208,  25
 76, 209, 207,  22
 77, 210, 209,  23
 78, 210,  23,   2
 79, 210,  24, 208
 80, 293, 212, 262
 81, 393, 266, 308
 82, 212,  31,  32
 83, 283, 243, 282
 84, 266, 213, 264
 85, 213,  30,  31
 86, 267, 214, 266
 87, 214,  29,  30
 88, 215, 201, 202
 89, 215, 202,  28
 90, 234,  56, 233
 91, 216,  51,  52
 92, 217,  50,  51
 93, 217,  51, 216
 94, 347, 342, 314
 95, 218,  49,  50
 96, 245, 219, 218
 97, 219,  48,  49
 98, 364, 350, 355
 99, 220,  47,  48
100, 248, 205, 206
101, 221,  46,  47
102, 243, 223, 222
103, 222,  45,  46
104, 307, 263, 268
105, 223,  44,  45
106, 307, 306, 263
107, 224,  43,  44
108, 269, 268,  36
109, 225,  42,  43
110, 244, 226, 236
111, 226,  41,  42
112, 272, 227, 244
113, 227,  40,  41
114, 304,  38, 228
115, 228,  38,  39
116, 229,  64,  65
117, 290, 247, 287
118, 230,  59,  60
119, 334, 295, 301
120, 245, 218, 240
121, 231,  58,  59
122, 273, 240, 217
123, 232,  57,  58
124, 255, 233, 232
125, 233,  56,  57
126, 302, 273, 216
127, 234,  55,  56
128, 302, 235, 273
129, 235,  54,  55
130, 237, 224, 223
131, 268,  35,  36
132, 238, 222, 221
133, 284, 237, 283
134, 341, 325, 291
135, 317, 281, 314
136, 239, 220, 219
137, 260, 255, 232
138, 240, 218, 217
139, 261, 259, 234
140, 241, 238, 221
141, 241, 220, 239
142, 242, 236, 225
143, 242, 224, 237
144, 243, 237, 223
145, 243, 222, 238
146, 305, 272, 276
147, 244, 227, 226
148, 261, 233, 255
149, 245, 239, 219
150, 246, 203, 204
151, 251, 204, 205
152, 247,  16,  17
153, 287, 203, 246
154, 250, 206, 207
155, 337, 309, 306
156, 303, 249, 290
157, 249,  15,  16
158, 277, 207, 209
159, 271, 208, 211
160, 332, 331, 297
161, 251, 246, 204
162, 252, 230,  60
163, 258,  61,  62
164, 253,  65,  66
165, 275, 200, 274
166, 280, 241, 239
167, 292, 230, 252
168, 326, 278, 240
169, 260, 232, 231
170, 256,  63,  64
171, 294, 229, 275
172, 301, 295, 257
173, 258,  62, 257
174, 420, 414, 404
175, 258, 252,  61
176, 326, 273, 259
177, 261, 234, 233
178, 378, 357, 377
179, 350, 320, 330
180, 297, 260, 296
181, 299, 259, 261
182, 262, 212,  32
183, 265,  33,  34
184, 263,  34,  35
185, 310, 276, 286
186, 266, 214, 213
187, 264, 213, 212
188, 346, 318, 343
189, 265, 262,  33
190, 422, 408, 406
191, 267, 215, 214
192, 270, 201, 267
193, 267, 201, 215
194, 269,  36,  37
195, 305, 269, 272
196, 304, 269,  37
197, 304, 272, 269
198, 308, 266, 264
199, 270, 211, 201
200, 312, 291, 250
201, 271, 211, 270
202, 272, 228, 227
203, 276, 272, 244
204, 273, 217, 216
205, 273, 235, 259
206, 274, 200,  14
207, 274,  14,  15
208, 362, 354, 329
209, 275, 229, 253
210, 286, 244, 236
211, 285, 242, 284
212, 277, 250, 207
213, 313, 209, 210
214, 279, 245, 278
215, 278, 245, 240
216, 280, 239, 279
217, 279, 239, 245
218, 296, 260, 254
219, 281, 241, 280
220, 289, 288, 251
221, 281, 238, 241
222, 360, 339, 337
223, 282, 243, 238
224, 384, 381, 371
225, 283, 237, 243
226, 315, 284, 283
227, 284, 242, 237
228, 374, 310, 319
229, 285, 236, 242
230, 286, 276, 244
231, 286, 236, 285
232, 287, 247, 203
233, 322, 246, 288
234, 288, 246, 251
235, 289, 251, 248
236, 291, 248, 250
237, 400, 382, 384
238, 311, 303, 290
239, 290, 249, 247
240, 312, 250, 277
241, 399, 389, 365
242, 292, 254, 230
243, 300, 252, 258
244, 293, 264, 212
245, 309, 262, 265
246, 301, 256, 294
247, 294, 256, 229
248, 295, 258, 257
249, 301, 257, 256
250, 321, 279, 320
251, 328, 254, 292
252, 320, 278, 299
253, 297, 255, 260
254, 330, 299, 298
255, 298, 261, 255
256, 326, 299, 278
257, 299, 261, 298
258, 300, 292, 252
259, 300, 258, 295
260, 338, 311, 329
261, 338, 329, 294
262, 302, 216,  53
263, 302,  54, 235
264, 303, 275, 274
265, 303, 274, 249
266, 304,  37,  38
267, 304, 228, 272
268, 307, 268, 305
269, 305, 268, 269
270, 306, 265, 263
271, 336, 307, 310
272, 310, 305, 276
273, 310, 307, 305
274, 325, 324, 289
275, 327, 264, 293
276, 316, 284, 315
277, 309, 293, 262
278, 319, 286, 285
279, 418, 412, 409
280, 323, 290, 287
281, 392, 372, 391
282, 340, 277, 313
283, 363, 340, 271
284, 313, 208, 271
285, 340, 313, 271
286, 314, 281, 280
287, 321, 280, 279
288, 318, 283, 282
289, 343, 317, 342
290, 344, 316, 315
291, 316, 285, 284
292, 317, 282, 281
293, 376, 355, 332
294, 318, 315, 283
295, 318, 282, 317
296, 319, 310, 286
297, 319, 285, 316
298, 320, 279, 278
299, 330, 320, 299
300, 350, 347, 321
301, 321, 314, 280
302, 322, 287, 246
303, 348, 288, 324
304, 323, 311, 290
305, 323, 287, 322
306, 324, 288, 289
307, 325, 289, 291
308, 341, 291, 312
309, 353, 308, 327
310, 326, 240, 273
311, 326, 259, 299
312, 327, 308, 264
313, 339, 293, 309
314, 328, 296, 254
315, 335, 292, 300
316, 334, 301, 329
317, 329, 301, 294
318, 331, 298, 297
319, 331, 330, 298
320, 332, 297, 296
321, 352, 296, 328
322, 391, 351, 390
323, 367, 366, 342
324, 333, 300, 295
325, 357, 334, 354
326, 362, 311, 323
327, 349, 322, 348
328, 335, 328, 292
329, 335, 300, 333
330, 337, 306, 336
331, 336, 306, 307
332, 345, 316, 344
333, 374, 359, 336
334, 338, 294, 275
335, 338, 303, 311
336, 339, 327, 293
337, 339, 309, 337
338, 363, 271, 270
339, 340, 312, 277
340, 365, 312, 340
341, 408, 399, 406
342, 342, 317, 314
343, 347, 314, 321
344, 387, 366, 386
345, 343, 318, 317
346, 371, 344, 370
347, 346, 344, 315
348, 374, 345, 359
349, 345, 319, 316
350, 346, 315, 318
351, 368, 343, 366
352, 350, 321, 320
353, 355, 331, 332
354, 348, 322, 288
355, 372, 324, 351
356, 357, 356, 333
357, 349, 323, 322
358, 350, 330, 331
359, 355, 350, 331
360, 351, 324, 325
361, 369, 325, 341
362, 352, 332, 296
363, 358, 328, 335
364, 361, 327, 339
365, 384, 382, 381
366, 354, 334, 329
367, 362, 329, 311
368, 385, 355, 376
369, 376, 332, 352
370, 356, 335, 333
371, 357, 333, 334
372, 377, 349, 373
373, 373, 348, 372
374, 358, 352, 328
375, 358, 335, 356
376, 360, 337, 359
377, 359, 337, 336
378, 416, 384, 388
379, 361, 339, 360
380, 370, 346, 368
381, 361, 353, 327
382, 362, 323, 349
383, 377, 362, 349
384, 421, 406, 270
385, 421, 270, 267
386, 367, 347, 364
387, 364, 347, 350
388, 365, 341, 312
389, 365, 340, 363
390, 366, 343, 342
391, 367, 342, 347
392, 385, 364, 355
393, 386, 367, 385
394, 384, 371, 370
395, 368, 346, 343
396, 369, 351, 325
397, 389, 341, 365
398, 381, 359, 371
399, 370, 344, 346
400, 371, 359, 345
401, 371, 345, 344
402, 372, 348, 324
403, 411, 397, 410
404, 396, 373, 392
405, 373, 349, 348
406, 374, 336, 310
407, 374, 319, 345
408, 375, 308, 353
409, 394, 353, 383
410, 380, 352, 358
411, 414, 395, 392
412, 377, 357, 354
413, 377, 354, 362
414, 379, 356, 378
415, 378, 356, 357
416, 419, 418, 417
417, 379, 358, 356
418, 380, 376, 352
419, 380, 358, 379
420, 382, 360, 381
421, 381, 360, 359
422, 383, 361, 382
423, 382, 361, 360
424, 419, 417, 413
425, 383, 353, 361
426, 388, 368, 387
427, 403, 387, 402
428, 385, 367, 364
429, 398, 380, 397
430, 414, 410, 395
431, 386, 366, 367
432, 420, 411, 410
433, 387, 368, 366
434, 388, 384, 370
435, 388, 370, 368
436, 389, 369, 341
437, 399, 365, 363
438, 390, 351, 369
439, 405, 389, 401
440, 396, 395, 378
441, 391, 372, 351
442, 396, 392, 395
443, 392, 373, 372
444, 393, 267, 266
445, 393, 308, 375
446, 394, 375, 353
447, 409, 383, 400
448, 397, 379, 395
449, 395, 379, 378
450, 396, 378, 377
451, 396, 377, 373
452, 407, 385, 398
453, 397, 380, 379
454, 398, 385, 376
455, 398, 376, 380
456, 406, 399, 363
457, 408, 401, 399
458, 400, 383, 382
459, 419, 415, 418
460, 412, 394, 409
461, 401, 389, 399
462, 402, 387, 386
463, 407, 402, 386
464, 417, 403, 413
465, 403, 388, 387
466, 404, 391, 390
467, 415, 405, 412
468, 405, 390, 369
469, 405, 369, 389
470, 406, 363, 270
471, 422, 406, 421
472, 407, 386, 385
473, 411, 398, 397
474, 408, 375, 394
475, 412, 408, 394
476, 409, 394, 383
477, 417, 416, 403
478, 420, 419, 413
479, 410, 397, 395
480, 411, 402, 407
481, 411, 407, 398
482, 412, 405, 401
483, 412, 401, 408
484, 413, 403, 402
485, 413, 402, 411
486, 414, 392, 391
487, 414, 391, 404
488, 415, 404, 390
489, 415, 390, 405
490, 416, 400, 384
491, 416, 388, 403
492, 417, 409, 400
493, 417, 400, 416
494, 418, 415, 412
495, 418, 409, 417
496, 420, 413, 411
497, 419, 404, 415
498, 420, 410, 414
499, 420, 404, 419
500, 421, 267, 393
501, 422, 421, 393
502, 422, 393, 375
503, 422, 375, 408
 504, 463,   2,  23
 505, 548, 463, 427
 506, 644, 614, 643
 507, 489, 486, 429
 508, 505, 498, 454
 509, 589,  98,  99
 510,  13,   1,  67
 511, 438,  67,  68
 512, 485, 436, 435
 513, 483, 434, 433
 514, 537, 476, 521
 515, 478, 476,  17
 516, 476, 474,  18
 517, 474,  19,  18
 518, 425,  20, 424
 519, 426,  21, 425
 520, 427,  23,  22
 521,  83,   6,  84
 522, 447,  84,  85
 523, 465, 446, 445
 524, 466, 444, 443
 525, 526, 487, 508
 526, 490,  81, 487
 527, 482,  78,  79
 528, 429,  77, 428
 529, 430,  76, 429
 530, 431,  75, 430
 531, 432,  74, 431
 532, 433,  73, 432
 533, 434,  72, 433
 534, 435,  71, 434
 535, 436,  70, 435
 536, 437,  69, 436
 537, 438,  68, 437
 538,  98,  97,   7
 539, 439,  97,  98
 540, 448,  99, 100
 541, 470,  95,  96
 542, 551, 470, 538
 543, 513, 469, 468
 544, 464,  92,  93
 545, 441,  91, 440
 546, 442,  90, 441
 547, 443,  89, 442
 548, 444,  88, 443
 549, 445,  87, 444
 550, 446,  86, 445
 551, 447,  85, 446
 552, 449, 100, 101
 553, 589, 448, 538
 554, 449, 448, 100
 555, 450, 449, 101
 556, 451, 450, 102
 557, 452, 451, 103
 558, 453, 452, 104
 559, 457, 108, 109
 560, 497, 457, 458
 561, 456, 455, 107
 562, 458, 457, 109
 563, 557, 510, 460
 564, 557, 461, 459
 565, 461,   8, 112
 566, 462, 114, 423
 567, 423, 114, 115
 568, 511, 424, 474
 569, 424,  20,  19
 570, 534, 533, 494
 571, 480, 426, 425
 572, 425,  21,  20
 573, 475, 427, 426
 574, 426,  22,  21
 575, 463, 423, 115
 576, 427,  22, 426
 577, 428,  77,  78
 578, 471, 467, 441
 579, 455, 454, 106
 580, 429,  76,  77
 581, 533, 532, 484
 582, 430,  75,  76
 583, 495, 432, 484
 584, 431,  74,  75
 585, 577, 537, 521
 586, 432,  73,  74
 587, 522, 478, 481
 588, 433,  72,  73
 589, 520,  15,  14
 590, 434,  71,  72
 591, 493, 434, 483
 592, 435,  70,  71
 593, 509, 437, 492
 594, 436,  69,  70
 595, 481, 478,  16
 596, 437,  68,  69
 597, 477,  13, 438
 598, 438,  13,  67
 599, 470,  96, 439
 600, 439,  96,  97
 601, 440,  91,  92
 602, 514, 472, 467
 603, 629, 628, 596
 604, 441,  90,  91
 605, 472, 443, 442
 606, 442,  89,  90
 607, 473, 445, 444
 608, 443,  88,  89
 609, 552, 526, 549
 610, 444,  87,  88
 611, 488, 487,  82
 612, 445,  86,  87
 613, 508, 446, 465
 614, 446,  85,  86
 615, 488,  83, 447
 616, 447,  83,  84
 617, 450, 101, 102
 618, 470, 468,  95
 619, 451, 102, 103
 620, 513, 512, 469
 621, 452, 103, 104
 622, 501, 500, 450
 623, 453, 104, 105
 624, 681, 640, 668
 625, 454, 105, 106
 626, 540, 501, 502
 627, 454, 453, 105
 628, 503, 453, 498
 629, 455, 106, 107
 630, 662, 657, 631
 631, 456, 107, 108
 632, 505, 455, 496
 633, 457, 456, 108
 634, 592, 523, 565
 635, 458, 109, 110
 636, 504, 457, 497
 637, 460, 110, 111
 638, 459, 112, 113
 639, 462, 113, 114
 640, 462, 459, 113
 641, 460, 458, 110
 642, 461, 460, 111
 643, 461, 111,   8
 644, 461, 112, 459
 645, 548, 507, 423
 646, 506, 459, 462
 647, 463, 115,   2
 648, 463,  23, 427
 649, 464, 440,  92
 650, 469,  93,  94
 651, 636, 597, 605
 652, 490,  80,  81
 653, 467, 442, 441
 654, 517, 466, 516
 655, 471, 441, 440
 656, 535, 534, 486
 657, 468,  94,  95
 658, 579, 551, 538
 659, 469, 464,  93
 660, 469,  94, 468
 661, 538, 448, 499
 662, 499, 448, 449
 663, 519, 440, 464
 664, 582, 544, 543
 665, 472, 466, 443
 666, 472, 442, 467
 667, 473, 465, 445
 668, 473, 444, 466
 669, 474, 424,  19
 670, 476,  18,  17
 671, 548, 427, 475
 672, 603, 578, 600
 673, 478,  17,  16
 674, 493, 485, 435
 675, 520,  14, 477
 676, 477,  14,  13
 677, 481,  16,  15
 678, 553, 550, 528
 679, 479, 425, 424
 680, 546, 545, 496
 681, 480, 475, 426
 682, 480, 425, 479
 683, 509, 438, 437
 684, 492, 436, 485
 685, 482, 428,  78
 686, 491,  79,  80
 687, 495, 433, 432
 688, 484, 432, 431
 689, 494, 431, 430
 690, 651, 623, 621
 691, 522, 521, 478
 692, 493, 435, 434
 693, 486, 430, 429
 694, 489, 429, 428
 695, 487,  81,  82
 696, 508, 487, 488
 697, 488,  82,  83
 698, 508, 488, 447
 699, 525, 428, 482
 700, 516, 472, 514
 701, 561, 516, 560
 702, 491,  80, 490
 703, 518, 473, 517
 704, 491, 482,  79
 705, 550, 509, 492
 706, 492, 437, 436
 707, 531, 530, 483
 708, 567, 553, 522
 709, 494, 484, 431
 710, 494, 430, 486
 711, 574, 530, 573
 712, 495, 483, 433
 713, 496, 455, 456
 714, 504, 456, 457
 715, 510, 458, 460
 716, 556, 547, 497
 717, 498, 453, 454
 718, 505, 454, 455
 719, 500, 449, 450
 720, 500, 499, 449
 721, 501, 450, 451
 722, 543, 501, 540
 723, 502, 451, 452
 724, 502, 501, 451
 725, 503, 502, 452
 726, 542, 498, 539
 727, 503, 452, 453
 728, 570, 566, 534
 729, 547, 546, 504
 730, 504, 496, 456
 731, 545, 539, 505
 732, 588, 545, 587
 733, 507, 506, 462
 734, 620, 523, 592
 735, 507, 462, 423
 736, 523, 475, 480
 737, 508, 447, 446
 738, 549, 526, 508
 739, 567, 509, 550
 740, 509, 477, 438
 741, 510, 497, 458
 742, 557, 460, 461
 743, 511, 479, 424
 744, 537, 474, 476
 745, 559, 558, 512
 746, 512, 464, 469
 747, 579, 538, 499
 748, 544, 500, 543
 749, 515, 467, 471
 750, 515, 514, 467
 751, 564, 471, 519
 752, 584, 582, 543
 753, 597, 561, 596
 754, 516, 466, 472
 755, 527, 490, 526
 756, 517, 473, 466
 757, 571, 527, 552
 758, 518, 465, 473
 759, 519, 471, 440
 760, 519, 464, 512
 761, 520, 481,  15
 762, 520, 477, 509
 763, 521, 476, 478
 764, 625, 606, 569
 765, 567, 550, 553
 766, 528, 492, 485
 767, 524, 480, 479
 768, 524, 523, 480
 769, 555, 479, 511
 770, 608, 575, 603
 771, 525, 489, 428
 772, 536, 482, 491
 773, 526, 490, 487
 774, 549, 508, 465
 775, 552, 527, 526
 776, 527, 491, 490
 777, 529, 485, 493
 778, 529, 528, 485
 779, 530, 493, 483
 780, 530, 529, 493
 781, 531, 483, 495
 782, 573, 530, 531
 783, 532, 495, 484
 784, 532, 531, 495
 785, 533, 484, 494
 786, 575, 573, 531
 787, 534, 494, 486
 788, 578, 533, 566
 789, 535, 486, 489
 790, 541, 540, 502
 791, 568, 489, 525
 792, 560, 516, 514
 793, 536, 525, 482
 794, 536, 491, 527
 795, 537, 511, 474
 796, 569, 521, 522
 797, 538, 470, 439
 798, 589, 538, 439
 799, 539, 498, 505
 800, 545, 505, 496
 801, 541, 502, 503
 802, 542, 503, 498
 803, 542, 541, 503
 804, 581, 541, 580
 805, 583, 580, 542
 806, 615, 611, 580
 807, 584, 540, 581
 808, 543, 500, 501
 809, 579, 554, 551
 810, 544, 499, 500
 811, 546, 496, 504
 812, 587, 546, 586
 813, 547, 504, 497
 814, 622, 592, 565
 815, 556, 497, 510
 816, 565, 523, 524
 817, 548, 423, 463
 818, 620, 475, 523
 819, 549, 465, 518
 820, 552, 549, 518
 821, 567, 522, 481
 822, 550, 492, 528
 823, 551, 513, 468
 824, 551, 468, 470
 825, 562, 518, 517
 826, 610, 576, 605
 827, 569, 522, 553
 828, 572, 528, 529
 829, 559, 513, 554
 830, 554, 513, 551
 831, 555, 524, 479
 832, 585, 511, 537
 833, 591, 510, 557
 834, 624, 622, 565
 835, 557, 459, 506
 836, 591, 557, 506
 837, 599, 558, 559
 838, 558, 519, 512
 839, 559, 512, 513
 840, 582, 554, 544
 841, 563, 514, 515
 842, 563, 560, 514
 843, 676, 638, 628
 844, 561, 517, 516
 845, 562, 552, 518
 846, 562, 517, 561
 847, 602, 515, 564
 848, 580, 541, 542
 849, 564, 515, 471
 850, 564, 519, 558
 851, 594, 547, 556
 852, 593, 524, 555
 853, 566, 533, 534
 854, 570, 534, 535
 855, 567, 481, 520
 856, 567, 520, 509
 857, 568, 535, 489
 858, 576, 525, 536
 859, 577, 521, 569
 860, 572, 553, 528
 861, 601, 535, 568
 862, 598, 596, 560
 863, 571, 536, 527
 864, 636, 605, 571
 865, 574, 529, 530
 866, 609, 572, 574
 867, 614, 585, 577
 868, 575, 531, 532
 869, 614, 577, 606
 870, 574, 572, 529
 871, 578, 575, 532
 872, 685, 671, 683
 873, 576, 568, 525
 874, 576, 536, 571
 875, 585, 537, 577
 876, 625, 569, 553
 877, 578, 532, 533
 878, 619, 587, 618
 879, 579, 499, 544
 880, 579, 544, 554
 881, 612, 581, 611
 882, 583, 542, 539
 883, 613, 584, 612
 884, 581, 540, 541
 885, 590, 554, 582
 886, 584, 543, 540
 887, 588, 539, 545
 888, 604, 600, 566
 889, 630, 626, 595
 890, 599, 595, 558
 891, 685, 683, 664
 892, 585, 555, 511
 893, 586, 546, 547
 894, 650, 622, 624
 895, 648, 646, 619
 896, 587, 545, 546
 897, 616, 615, 583
 898, 588, 583, 539
 899, 589, 439,  98
 900, 589,  99, 448
 901, 599, 559, 590
 902, 590, 559, 554
 903, 591, 556, 510
 904, 651, 649, 592
 905, 649, 507, 620
 906, 649, 621, 507
 907, 593, 565, 524
 908, 617, 555, 585
 909, 594, 586, 547
 910, 623, 556, 591
 911, 630, 595, 599
 912, 595, 564, 558
 913, 596, 561, 560
 914, 598, 560, 563
 915, 636, 571, 552
 916, 597, 562, 561
 917, 635, 563, 602
 918, 642, 640, 611
 919, 613, 582, 584
 920, 661, 640, 642
 921, 600, 578, 566
 922, 604, 566, 570
 923, 601, 570, 535
 924, 610, 568, 576
 925, 602, 563, 515
 926, 602, 564, 595
 927, 664, 644, 659
 928, 603, 575, 578
 929, 631, 570, 601
 930, 645, 642, 615
 931, 605, 576, 571
 932, 638, 597, 628
 933, 606, 577, 569
 934, 639, 607, 637
 935, 607, 574, 573
 936, 608, 607, 573
 937, 608, 573, 575
 938, 632, 603, 627
 939, 625, 609, 606
 940, 609, 574, 607
 941, 628, 597, 596
 942, 610, 601, 568
 943, 611, 581, 580
 944, 615, 580, 583
 945, 640, 612, 611
 946, 612, 584, 581
 947, 613, 599, 590
 948, 613, 590, 582
 949, 617, 585, 614
 950, 643, 609, 639
 951, 616, 583, 588
 952, 663, 661, 642
 953, 619, 588, 587
 954, 634, 627, 600
 955, 637, 608, 632
 956, 617, 593, 555
 957, 618, 587, 586
 958, 633, 586, 594
 959, 656, 653, 627
 960, 619, 616, 588
 961, 620, 507, 548
 962, 620, 548, 475
 963, 621, 591, 506
 964, 621, 506, 507
 965, 670, 669, 652
 966, 624, 565, 593
 967, 623, 594, 556
 968, 623, 591, 621
 969, 647, 593, 617
 970, 693, 678, 686
 971, 625, 553, 572
 972, 625, 572, 609
 973, 668, 654, 626
 974, 626, 602, 595
 975, 627, 603, 600
 976, 634, 600, 604
 977, 641, 610, 638
 978, 629, 596, 598
 979, 658, 598, 635
 980, 657, 634, 604
 981, 630, 599, 613
 982, 681, 613, 612
 983, 631, 604, 570
 984, 641, 601, 610
 985, 644, 617, 614
 986, 632, 608, 603
 987, 633, 618, 586
 988, 652, 594, 623
 989, 657, 604, 631
 990, 646, 645, 616
 991, 635, 598, 563
 992, 635, 602, 626
 993, 636, 552, 562
 994, 636, 562, 597
 995, 693, 687, 678
 996, 637, 607, 608
 997, 638, 610, 605
 998, 638, 605, 597
 999, 659, 643, 639
1000, 639, 609, 607
1001, 681, 668, 630
1002, 642, 611, 615
1003, 676, 662, 641
1004, 641, 631, 601
1005, 645, 615, 616
1006, 692, 689, 680
1007, 643, 614, 606
1008, 643, 606, 609
1009, 659, 639, 637
1010, 647, 617, 644
1011, 646, 616, 619
1012, 689, 677, 675
1013, 648, 619, 618
1014, 666, 663, 645
1015, 655, 632, 653
1016, 647, 624, 593
1017, 660, 618, 633
1018, 673, 671, 653
1019, 649, 620, 592
1020, 651, 592, 622
1021, 670, 651, 622
1022, 665, 624, 647
1023, 651, 621, 649
1024, 670, 652, 651
1025, 652, 633, 594
1026, 652, 623, 651
1027, 653, 632, 627
1028, 656, 627, 634
1029, 690, 675, 654
1030, 654, 635, 626
1031, 685, 664, 659
1032, 655, 637, 632
1033, 674, 634, 657
1034, 667, 666, 646
1035, 662, 631, 641
1036, 691, 679, 662
1037, 658, 629, 598
1038, 658, 635, 654
1039, 659, 644, 643
1040, 659, 637, 655
1041, 660, 648, 618
1042, 669, 660, 633
1043, 690, 668, 640
1044, 663, 642, 645
1045, 676, 641, 638
1046, 677, 676, 629
1047, 666, 645, 646
1048, 692, 682, 688
1049, 665, 647, 664
1050, 664, 647, 644
1051, 672, 669, 650
1052, 665, 650, 624
1053, 667, 646, 648
1054, 688, 682, 684
1055, 678, 648, 660
1056, 694, 687, 673
1057, 668, 626, 630
1058, 690, 640, 661
1059, 669, 633, 652
1060, 672, 650, 665
1061, 670, 622, 650
1062, 670, 650, 669
1063, 671, 655, 653
1064, 673, 653, 656
1065, 686, 669, 672
1066, 683, 672, 665
1067, 688, 684, 673
1068, 694, 678, 687
1069, 674, 656, 634
1070, 679, 657, 662
1071, 675, 658, 654
1072, 680, 661, 663
1073, 676, 628, 629
1074, 677, 629, 658
1075, 677, 658, 675
1076, 692, 680, 682
1077, 678, 667, 648
1078, 686, 678, 660
1079, 679, 674, 657
1080, 691, 662, 676
1081, 690, 680, 675
1082, 682, 680, 663
1083, 681, 630, 613
1084, 681, 612, 640
1085, 682, 663, 666
1086, 684, 682, 666
1087, 683, 665, 664
1088, 693, 671, 687
1089, 684, 666, 667
1090, 688, 673, 656
1091, 685, 659, 655
1092, 685, 655, 671
1093, 686, 660, 669
1094, 693, 686, 672
1095, 687, 671, 673
1096, 694, 673, 684
1097, 688, 656, 674
1098, 692, 688, 674
1099, 691, 689, 679
1100, 689, 675, 680
1101, 690, 661, 680
1102, 690, 654, 668
1103, 691, 676, 677
1104, 691, 677, 689
1105, 692, 674, 679
1106, 692, 679, 689
1107, 693, 672, 683
1108, 693, 683, 671
1109, 694, 684, 667
1110, 694, 667, 678
1111, 736,   9, 116
1112, 790, 736, 707
1113, 752, 749, 705
1114, 869, 830, 868
1115, 880, 853, 820
1116, 849,  38,  37
1117, 128,  10, 129
1118, 697, 128, 129
1119, 714, 131, 713
1120, 698, 126, 127
1121, 699, 125, 126
1122, 700, 124, 125
1123, 701, 123, 124
1124, 794, 754, 750
1125, 763, 760, 709
1126, 704, 120, 696
1127, 705, 119, 704
1128, 706, 118, 705
1129, 707, 116, 117
1130, 142,  11, 143
1131, 727, 143, 144
1132, 738, 725, 724
1133, 739, 724, 723
1134, 789, 739, 786
1135, 768, 140, 141
1136, 759, 137, 138
1137, 756, 702, 701
1138, 757, 755, 696
1139, 710, 135, 709
1140, 760, 710, 709
1141, 794, 791, 754
1142, 845, 805, 804
1143, 816, 129, 130
1144,  38, 158,   4
1145, 715, 158,  38
1146, 728,  37,  36
1147, 737, 716, 155
1148, 819, 790, 758
1149, 717, 154, 716
1150, 718, 153, 717
1151, 719, 152, 718
1152, 720, 151, 719
1153, 721, 150, 720
1154, 722, 149, 721
1155, 723, 148, 722
1156, 724, 147, 723
1157, 725, 146, 724
1158, 726, 145, 725
1159, 727, 144, 726
1160, 851, 813, 772
1161, 780, 740, 716
1162, 851, 772, 815
1163, 772,  34,  33
1164, 773,  32, 729
1165, 729,  32,  31
1166, 730, 729,  31
1167, 731, 730,  30
1168, 732, 159, 160
1169, 838, 734, 732
1170, 734,   3, 159
1171, 735, 161, 695
1172, 695, 161, 162
1173, 740, 717, 716
1174, 696, 120, 121
1175, 703, 121, 122
1176, 698, 127, 697
1177, 697, 127, 128
1178, 713, 132, 712
1179, 699, 126, 698
1180, 712, 133, 711
1181, 700, 125, 699
1182, 711, 134, 710
1183, 701, 124, 700
1184, 765, 711, 764
1185, 702, 123, 701
1186, 703, 122, 702
1187, 702, 122, 123
1188, 709, 136, 708
1189, 703, 696, 121
1190, 787, 782, 743
1191, 704, 119, 120
1192, 749, 706, 705
1193, 705, 118, 119
1194, 758, 706, 749
1195, 706, 117, 118
1196, 736, 695, 162
1197, 707, 117, 706
1198, 708, 136, 137
1199, 741, 721, 720
1200, 756, 701, 754
1201, 709, 135, 136
1202, 751, 699, 698
1203, 710, 134, 135
1204, 751, 750, 699
1205, 711, 133, 134
1206, 816, 778, 697
1207, 712, 132, 133
1208, 766, 712, 765
1209, 713, 131, 132
1210, 816, 714, 778
1211, 714, 130, 131
1212, 742, 737, 156
1213, 715, 157, 158
1214, 716, 154, 155
1215, 737, 155, 156
1216, 743, 717, 740
1217, 717, 153, 154
1218, 744, 718, 743
1219, 718, 152, 153
1220, 744, 719, 718
1221, 719, 151, 152
1222, 757, 703, 753
1223, 720, 150, 151
1224, 746, 722, 721
1225, 721, 149, 150
1226, 739, 738, 724
1227, 722, 148, 149
1228, 762, 139, 761
1229, 723, 147, 148
1230, 768, 761, 140
1231, 724, 146, 147
1232, 748, 725, 738
1233, 725, 145, 146
1234, 777, 726, 748
1235, 726, 144, 145
1236, 769, 142, 727
1237, 727, 142, 143
1238, 849, 728, 817
1239, 770,  36,  35
1240, 730,  31,  30
1241, 930, 884, 929
1242, 731,  30,  29
1243, 800, 731, 733
1244, 733,  29,  28
1245, 838, 800, 733
1246, 735, 160, 161
1247, 735, 732, 160
1248, 733, 731,  29
1249, 734, 733,  28
1250, 734,  28,   3
1251, 734, 159, 732
1252, 758, 707, 706
1253, 774, 771, 730
1254, 736, 162,   9
1255, 736, 116, 707
1256, 742, 156, 157
1257, 864, 817, 811
1258, 747, 723, 722
1259, 818, 802, 779
1260, 746, 721, 741
1261, 847, 803, 818
1262, 780, 716, 737
1263, 755, 752, 704
1264, 745, 720, 719
1265, 867, 834, 866
1266, 742, 157, 715
1267, 849, 817, 715
1268, 782, 781, 744
1269, 743, 718, 717
1270, 784, 745, 781
1271, 799, 755, 796
1272, 745, 741, 720
1273, 745, 719, 744
1274, 783, 747, 746
1275, 823, 822, 786
1276, 747, 739, 723
1277, 747, 722, 746
1278, 802, 777, 779
1279, 748, 726, 725
1280, 774, 730, 731
1281, 752, 705, 704
1282, 754, 700, 750
1283, 750, 700, 699
1284, 778, 751, 698
1285, 767, 714, 713
1286, 755, 704, 696
1287, 799, 752, 755
1288, 753, 703, 702
1289, 805, 760, 804
1290, 754, 701, 700
1291, 843, 832, 808
1292, 757, 696, 703
1293, 796, 757, 793
1294, 764, 710, 760
1295, 756, 753, 702
1296, 793, 753, 792
1297, 835, 792, 834
1298, 790, 775, 695
1299, 790, 707, 758
1300, 759, 708, 137
1301, 762, 138, 139
1302, 763, 709, 708
1303, 841, 763, 801
1304, 761, 139, 140
1305, 818, 779, 788
1306, 803, 761, 802
1307, 762, 759, 138
1308, 801, 708, 759
1309, 786, 747, 783
1310, 795, 794, 750
1311, 764, 711, 710
1312, 806, 764, 805
1313, 765, 712, 711
1314, 807, 765, 806
1315, 766, 713, 712
1316, 839, 778, 767
1317, 767, 713, 766
1318, 769, 768, 141
1319, 777, 769, 727
1320, 769, 141, 142
1321, 777, 727, 726
1322, 770, 728,  36
1323, 813,  35,  34
1324, 932, 922, 929
1325, 771, 729, 730
1326, 773, 772,  33
1327, 810, 773, 729
1328, 773,  33,  32
1329, 810, 729, 771
1330, 776, 732, 735
1331, 831, 797, 798
1332, 775, 735, 695
1333, 797, 758, 749
1334, 854, 800, 838
1335, 953, 735, 775
1336, 779, 777, 748
1337, 777, 768, 769
1338, 778, 698, 697
1339, 778, 714, 767
1340, 788, 748, 738
1341, 885, 847, 818
1342, 812, 737, 742
1343, 811, 728, 770
1344, 781, 745, 744
1345, 782, 744, 743
1346, 787, 743, 740
1347, 829, 827, 782
1348, 785, 746, 741
1349, 834, 791, 833
1350, 784, 741, 745
1351, 837, 793, 835
1352, 785, 783, 746
1353, 785, 741, 784
1354, 885, 875, 847
1355, 786, 739, 747
1356, 821, 780, 820
1357, 863, 860, 827
1358, 788, 779, 748
1359, 789, 788, 738
1360, 789, 738, 739
1361, 885, 855, 875
1362, 790, 695, 736
1363, 819, 758, 797
1364, 792, 756, 791
1365, 791, 756, 754
1366, 837, 836, 796
1367, 792, 753, 756
1368, 825, 784, 824
1369, 793, 757, 753
1370, 795, 750, 751
1371, 865, 832, 843
1372, 839, 795, 751
1373, 808, 767, 766
1374, 798, 797, 749
1375, 796, 755, 757
1376, 840, 774, 800
1377, 798, 749, 752
1378, 799, 798, 752
1379, 831, 798, 830
1380, 837, 796, 793
1381, 860, 857, 824
1382, 800, 774, 731
1383, 838, 733, 734
1384, 801, 763, 708
1385, 809, 759, 762
1386, 802, 761, 768
1387, 802, 768, 777
1388, 818, 803, 802
1389, 803, 762, 761
1390, 804, 760, 763
1391, 890, 865, 876
1392, 844, 806, 805
1393, 805, 764, 760
1394, 832, 795, 808
1395, 806, 765, 764
1396, 843, 808, 807
1397, 807, 766, 765
1398, 839, 808, 795
1399, 808, 766, 807
1400, 809, 801, 759
1401, 809, 762, 803
1402, 815, 773, 810
1403, 842, 771, 814
1404, 864, 820, 812
1405, 850, 770, 813
1406, 812, 780, 737
1407, 817, 812, 742
1408, 813, 770,  35
1409, 813,  34, 772
1410, 827, 824, 781
1411, 814, 771, 774
1412, 912, 880, 882
1413, 815, 772, 773
1414, 816, 697, 129
1415, 816, 130, 714
1416, 817, 742, 715
1417, 817, 728, 811
1418, 826, 788, 789
1419, 904, 875, 855
1420, 953, 819, 883
1421, 819, 775, 790
1422, 880, 820, 864
1423, 820, 780, 812
1424, 821, 787, 740
1425, 821, 740, 780
1426, 822, 789, 786
1427, 823, 786, 783
1428, 828, 783, 785
1429, 876, 846, 844
1430, 824, 784, 781
1431, 827, 781, 782
1432, 870, 837, 835
1433, 825, 785, 784
1434, 826, 818, 788
1435, 826, 789, 822
1436, 829, 782, 787
1437, 893, 888, 860
1438, 828, 823, 783
1439, 828, 785, 825
1440, 862, 821, 853
1441, 852, 810, 842
1442, 830, 798, 799
1443, 836, 799, 796
1444, 930, 922, 900
1445, 856, 797, 831
1446, 833, 794, 832
1447, 832, 794, 795
1448, 876, 865, 846
1449, 833, 791, 794
1450, 889, 857, 888
1451, 834, 792, 791
1452, 859, 825, 857
1453, 835, 793, 792
1454, 898, 897, 868
1455, 836, 830, 799
1456, 905, 876, 877
1457, 870, 835, 867
1458, 838, 732, 776
1459, 854, 838, 776
1460, 839, 751, 778
1461, 839, 767, 808
1462, 840, 814, 774
1463, 854, 840, 800
1464, 841, 804, 763
1465, 848, 801, 809
1466, 842, 810, 771
1467, 913, 911, 888
1468, 846, 807, 806
1469, 846, 806, 844
1470, 845, 844, 805
1471, 905, 890, 876
1472, 873, 804, 841
1473, 858, 855, 822
1474, 865, 843, 846
1475, 846, 843, 807
1476, 847, 809, 803
1477, 855, 826, 822
1478, 848, 841, 801
1479, 848, 809, 847
1480, 849, 715,  38
1481, 849,  37, 728
1482, 850, 811, 770
1483, 851, 850, 813
1484, 879, 815, 852
1485, 882, 880, 850
1486, 927, 908, 903
1487, 852, 815, 810
1488, 912, 886, 853
1489, 853, 821, 820
1490, 953, 883, 947
1491, 884, 883, 856
1492, 904, 855, 887
1493, 858, 822, 823
1494, 856, 819, 797
1495, 884, 831, 869
1496, 857, 825, 824
1497, 860, 824, 827
1498, 861, 823, 828
1499, 914, 906, 904
1500, 859, 828, 825
1501, 871, 837, 870
1502, 863, 827, 829
1503, 950, 949, 948
1504, 861, 858, 823
1505, 861, 828, 859
1506, 862, 829, 787
1507, 862, 787, 821
1508, 894, 862, 886
1509, 881, 842, 874
1510, 864, 812, 817
1511, 880, 864, 811
1512, 866, 833, 865
1513, 865, 833, 832
1514, 866, 834, 833
1515, 926, 923, 902
1516, 892, 859, 889
1517, 867, 835, 834
1518, 868, 830, 836
1519, 871, 836, 837
1520, 900, 840, 854
1521, 869, 831, 830
1522, 918, 895, 905
1523, 921, 899, 920
1524, 899, 870, 896
1525, 871, 868, 836
1526, 874, 814, 872
1527, 872, 814, 840
1528, 873, 845, 804
1529, 878, 841, 848
1530, 951, 932, 931
1531, 874, 842, 814
1532, 875, 848, 847
1533, 887, 855, 858
1534, 877, 844, 845
1535, 877, 876, 844
1536, 902, 845, 873
1537, 943, 940, 926
1538, 878, 873, 841
1539, 878, 848, 875
1540, 879, 851, 815
1541, 903, 852, 881
1542, 880, 811, 850
1543, 882, 850, 851
1544, 928, 927, 924
1545, 881, 852, 842
1546, 882, 851, 879
1547, 908, 882, 879
1548, 953, 947, 776
1549, 883, 819, 856
1550, 884, 856, 831
1551, 909, 869, 897
1552, 885, 818, 826
1553, 885, 826, 855
1554, 910, 886, 908
1555, 886, 862, 853
1556, 906, 878, 904
1557, 891, 858, 861
1558, 888, 857, 860
1559, 893, 860, 863
1560, 896, 867, 895
1561, 889, 859, 857
1562, 895, 866, 890
1563, 890, 866, 865
1564, 891, 887, 858
1565, 892, 891, 861
1566, 892, 861, 859
1567, 916, 889, 911
1568, 917, 894, 910
1569, 907, 874, 901
1570, 894, 863, 829
1571, 894, 829, 862
1572, 895, 867, 866
1573, 945, 944, 938
1574, 899, 898, 871
1575, 896, 870, 867
1576, 897, 869, 868
1577, 898, 868, 871
1578, 899, 871, 870
1579, 952, 948, 949
1580, 935, 916, 934
1581, 920, 896, 918
1582, 900, 872, 840
1583, 947, 900, 854
1584, 901, 874, 872
1585, 922, 872, 900
1586, 902, 877, 845
1587, 906, 873, 878
1588, 903, 879, 852
1589, 924, 881, 907
1590, 904, 878, 875
1591, 914, 904, 887
1592, 905, 895, 890
1593, 923, 877, 902
1594, 914, 887, 891
1595, 906, 902, 873
1596, 939, 924, 907
1597, 907, 881, 874
1598, 912, 908, 886
1599, 908, 879, 903
1600, 909, 884, 869
1601, 931, 897, 919
1602, 928, 910, 927
1603, 910, 894, 886
1604, 911, 889, 888
1605, 913, 888, 893
1606, 912, 853, 880
1607, 912, 882, 908
1608, 936, 893, 917
1609, 952, 933, 948
1610, 915, 891, 892
1611, 915, 914, 891
1612, 916, 915, 892
1613, 945, 935, 934
1614, 916, 892, 889
1615, 944, 937, 938
1616, 917, 893, 863
1617, 917, 863, 894
1618, 918, 896, 895
1619, 942, 905, 923
1620, 919, 897, 898
1621, 921, 898, 899
1622, 934, 911, 933
1623, 920, 899, 896
1624, 938, 937, 921
1625, 921, 919, 898
1626, 922, 901, 872
1627, 930, 929, 922
1628, 923, 905, 877
1629, 926, 902, 906
1630, 924, 903, 881
1631, 939, 928, 924
1632, 925, 907, 901
1633, 932, 925, 901
1634, 926, 906, 914
1635, 943, 914, 915
1636, 927, 910, 908
1637, 927, 903, 924
1638, 950, 928, 939
1639, 928, 917, 910
1640, 929, 884, 909
1641, 932, 929, 909
1642, 947, 930, 900
1643, 930, 883, 884
1644, 931, 909, 897
1645, 946, 919, 937
1646, 932, 901, 922
1647, 932, 909, 931
1648, 933, 911, 913
1649, 948, 913, 936
1650, 945, 940, 935
1651, 934, 916, 911
1652, 943, 935, 940
1653, 935, 915, 916
1654, 936, 913, 893
1655, 936, 917, 928
1656, 937, 919, 921
1657, 938, 921, 920
1658, 941, 920, 918
1659, 945, 938, 941
1660, 939, 907, 925
1661, 951, 949, 925
1662, 942, 940, 941
1663, 940, 923, 926
1664, 941, 938, 920
1665, 942, 941, 918
1666, 942, 918, 905
1667, 942, 923, 940
1668, 943, 926, 914
1669, 943, 915, 935
1670, 944, 934, 933
1671, 952, 944, 933
1672, 945, 941, 940
1673, 945, 934, 944
1674, 951, 946, 949
1675, 946, 931, 919
1676, 947, 854, 776
1677, 947, 883, 930
1678, 948, 933, 913
1679, 950, 948, 936
1680, 949, 939, 925
1681, 952, 949, 946
1682, 950, 936, 928
1683, 950, 939, 949
1684, 951, 925, 932
1685, 951, 931, 946
1686, 952, 946, 937
1687, 952, 937, 944
1688, 953, 776, 735
1689, 953, 775, 819
1690, 1039,  954, 1038
1691,  994,  199,  954
1692, 1070, 1014, 1068
1693,  954,  128,  127
1694,  956,  955,  166
1695,  956,    8,  111
1696, 1029,  125,  124
1697, 1030,  123,  957
1698,  993,  190,  191
1699,  995,  987,  986
1700,  958,  957,  122
1701,  960,  120,  119
1702,  959,  958,  121
1703,  961,  960,  119
1704, 1189, 1188, 1119
1705,  962,  961,  118
1706, 1082, 1040,  964
1707, 1082,  965,  963
1708,  965,    9,  163
1709,  966,  165,  955
1710,   98,    7,  167
1711,  985,  167,  168
1712, 1056, 1009, 1010
1713, 1067, 1020, 1066
1714, 1055, 1005, 1007
1715, 1022, 1021,  980
1716, 1059, 1002, 1006
1717, 1007,  103,  102
1718, 1006,  104, 1005
1719, 1002,  106,  105
1720,  968,  107,  967
1721,  969,  108,  968
1722,  970,  109,  969
1723,  971,  110,  970
1724,  183,  182,   12
1725,  992,  182,  183
1726,  996,  989,  988
1727,  973,  180,  972
1728,  974,  179,  973
1729,  975,  178,  974
1730,  976,  177,  975
1731,  977,  176,  976
1732,  978,  175,  977
1733,  979,  174,  978
1734,  980,  173,  979
1735,  981,  172,  980
1736,  982,  171,  981
1737,  983,  170,  982
1738,  984,  169,  983
1739,  985,  168,  984
1740,  199,   10,  128
1741,  954,  199,  128
1742, 1116, 1073, 1110
1743, 1039,  994,  954
1744, 1151, 1039, 1150
1745, 1090, 1086, 1044
1746, 1044, 1043,  194
1747, 1090, 1044, 1046
1748, 1043,  193,  194
1749,  993,  986,  190
1750,  998,  191,  192
1751,  987,  189,  986
1752,  988,  188,  987
1753,  989,  187,  988
1754,  990,  186,  989
1755,  991,  185,  990
1756, 1036, 1017,  992
1757, 1038,  127,  126
1758, 1073,  125, 1029
1759,  955,  165,  166
1760, 1014,  977,  976
1761,  956,  166,    8
1762,  971,  111,  110
1763,  957,  123,  122
1764,  958,  122,  121
1765,  959,  121,  120
1766, 1018,  973, 1016
1767,  960,  959,  120
1768, 1211, 1188, 1189
1769,  961,  119,  118
1770, 1057, 1004, 1012
1771,  962,  118,  117
1772, 1040,  962,  964
1773,  964,  117,  116
1774,  963,  163,  164
1775,  966,  164,  165
1776,  966,  963,  164
1777,  964,  962,  117
1778,  965,  964,  116
1779,  965,  116,    9
1780,  965,  163,  963
1781, 1063, 1022, 1023
1782, 1035,  963,  966
1783,  967,  107,  106
1784, 1041,  967, 1002
1785, 1012,  968, 1003
1786,  968,  108,  107
1787, 1012, 1004,  969
1788,  969,  109,  108
1789, 1013,  970, 1004
1790,  970,  110,  109
1791,  971,  955,  956
1792,  971,  956,  111
1793,  972,  180,  181
1794, 1017,  182,  992
1795, 1033, 1032,  958
1796,  973,  179,  180
1797, 1018,  974,  973
1798,  974,  178,  179
1799, 1024,  975, 1015
1800,  975,  177,  178
1801, 1033,  959, 1028
1802,  976,  176,  177
1803, 1025,  977, 1014
1804,  977,  175,  176
1805, 1023,  979,  978
1806,  978,  174,  175
1807, 1007, 1005,  103
1808,  979,  173,  174
1809, 1008, 1007,  102
1810,  980,  172,  173
1811, 1009, 1008,  101
1812,  981,  171,  172
1813, 1026,  982, 1020
1814,  982,  170,  171
1815, 1010, 1009,  100
1816,  983,  169,  170
1817, 1019,  984,  983
1818,  984,  168,  169
1819, 1011,   98,  985
1820,  985,   98,  167
1821,  986,  189,  190
1822, 1051,  986,  993
1823,  999,  987,  995
1824,  987,  188,  189
1825, 1071, 1062, 1016
1826,  988,  187,  188
1827, 1000,  989,  996
1828,  989,  186,  187
1829, 1001,  990, 1000
1830,  990,  185,  186
1831, 1036,  992,  991
1832,  991,  184,  185
1833,  992,  183,  184
1834,  992,  184,  991
1835, 1123, 1121, 1086
1836, 1042,  993,  998
1837, 1091,  198,  994
1838,  994,  198,  199
1839, 1146, 1111, 1144
1840, 1088, 1049, 1087
1841, 1130, 1048, 1050
1842,  999,  996,  988
1843,  997,  192,  193
1844, 1045, 1042,  998
1845,  998,  993,  191
1846,  998,  192,  997
1847,  999,  988,  987
1848, 1047,  999,  995
1849, 1036, 1016,  972
1850, 1000,  990,  989
1851, 1071, 1036, 1001
1852, 1001,  991,  990
1853, 1002,  967,  106
1854, 1006,  105,  104
1855, 1004,  970,  969
1856, 1003,  968,  967
1857, 1188, 1154, 1119
1858, 1013,  971,  970
1859, 1005,  104,  103
1860, 1053, 1007, 1008
1861, 1064, 1022, 1063
1862, 1006, 1002,  105
1863, 1008,  102,  101
1864, 1171, 1134, 1169
1865, 1009,  101,  100
1866, 1056, 1052, 1009
1867, 1010,  100,   99
1868, 1069, 1026, 1067
1869, 1011, 1010,   99
1870, 1037,  985,  984
1871, 1011,   99,   98
1872, 1037, 1011,  985
1873, 1012,  969,  968
1874, 1115, 1113, 1076
1875, 1034,  955, 1013
1876, 1013,  955,  971
1877, 1024,  976,  975
1878, 1031, 1028,  960
1879, 1015,  975,  974
1880, 1062, 1060, 1018
1881, 1016,  973,  972
1882, 1071, 1048, 1062
1883, 1017,  972,  181
1884, 1017,  181,  182
1885, 1048, 1001, 1000
1886, 1018, 1015,  974
1887, 1026,  983,  982
1888, 1020,  982,  981
1889, 1021,  981,  980
1890, 1021, 1020,  981
1891, 1022,  980,  979
1892, 1096, 1055, 1053
1893, 1023, 1022,  979
1894, 1132, 1098, 1097
1895, 1025, 1023,  978
1896, 1099, 1041, 1059
1897, 1049,  999, 1047
1898, 1024, 1014,  976
1899, 1025,  978,  977
1900, 1068, 1014, 1024
1901, 1107, 1069, 1067
1902, 1026, 1019,  983
1903, 1031,  961, 1027
1904, 1027,  961,  962
1905, 1028,  959,  960
1906, 1031,  960,  961
1907, 1046, 1044,  195
1908, 1030, 1029,  124
1909, 1030,  124,  123
1910, 1072,  957, 1032
1911, 1078, 1076, 1031
1912, 1076, 1075, 1028
1913, 1032,  957,  958
1914, 1033,  958,  959
1915, 1075, 1074, 1033
1916, 1217, 1204, 1185
1917, 1034,  966,  955
1918, 1154, 1004, 1057
1919, 1083, 1078, 1027
1920, 1035,  966, 1034
1921, 1036,  972, 1017
1922, 1036,  991, 1001
1923, 1037, 1010, 1011
1924, 1037,  984, 1019
1925, 1038,  954,  127
1926, 1073, 1038,  126
1927, 1077, 1030, 1072
1928, 1089, 1046,  196
1929, 1040, 1027,  962
1930, 1082,  964,  965
1931, 1041, 1003,  967
1932, 1054, 1006, 1005
1933, 1084, 1051, 1042
1934, 1045,  998,  997
1935, 1043,  997,  193
1936, 1044,  194,  195
1937, 1046,  195,  196
1938, 1112, 1072, 1111
1939, 1092,  997, 1043
1940, 1074, 1032, 1033
1941, 1089,  196,  197
1942, 1143, 1077, 1112
1943, 1061, 1024, 1015
1944, 1094,  995, 1051
1945, 1050, 1000,  996
1946, 1176, 1140, 1175
1947, 1049,  996,  999
1948, 1122, 1120, 1084
1949, 1050, 1048, 1000
1950, 1050,  996, 1049
1951, 1051,  995,  986
1952, 1051,  993, 1042
1953, 1053, 1008, 1052
1954, 1052, 1008, 1009
1955, 1055, 1054, 1005
1956, 1055, 1007, 1053
1957, 1172, 1169, 1136
1958, 1059, 1006, 1054
1959, 1080, 1052, 1056
1960, 1066, 1021, 1064
1961, 1056, 1010, 1037
1962, 1079, 1037, 1019
1963, 1058, 1012, 1003
1964, 1058, 1057, 1012
1965, 1081, 1003, 1041
1966, 1133, 1098, 1132
1967, 1097, 1054, 1055
1968, 1059, 1041, 1002
1969, 1061, 1015, 1060
1970, 1060, 1015, 1018
1971, 1087, 1049, 1047
1972, 1068, 1024, 1061
1973, 1062, 1018, 1016
1974, 1130, 1103, 1062
1975, 1065, 1023, 1025
1976, 1065, 1063, 1023
1977, 1095, 1053, 1052
1978, 1064, 1021, 1022
1979, 1070, 1025, 1014
1980, 1101, 1065, 1100
1981, 1162, 1128, 1095
1982, 1066, 1020, 1021
1983, 1080, 1056, 1079
1984, 1067, 1026, 1020
1985, 1103, 1102, 1060
1986, 1109, 1068, 1061
1987, 1080, 1079, 1069
1988, 1069, 1019, 1026
1989, 1114, 1075, 1113
1990, 1070, 1065, 1025
1991, 1071, 1016, 1036
1992, 1071, 1001, 1048
1993, 1072, 1030,  957
1994, 1111, 1032, 1074
1995, 1073,  126,  125
1996, 1110, 1029, 1077
1997, 1085, 1084, 1042
1998, 1075, 1033, 1028
1999, 1076, 1028, 1031
2000, 1138, 1135, 1100
2001, 1078, 1031, 1027
2002, 1093, 1057, 1058
2003, 1126, 1090, 1046
2004, 1077, 1029, 1030
2005, 1083, 1027, 1040
2006, 1235, 1212, 1194
2007, 1079, 1056, 1037
2008, 1079, 1019, 1069
2009, 1142, 1107, 1104
2010, 1095, 1052, 1080
2011, 1081, 1058, 1003
2012, 1098, 1054, 1097
2013, 1082,  963, 1035
2014, 1117, 1082, 1035
2015, 1117, 1040, 1082
2016, 1117, 1083, 1040
2017, 1120, 1094, 1084
2018, 1085, 1042, 1045
2019, 1127, 1045, 1092
2020, 1174, 1138, 1173
2021, 1121, 1092, 1086
2022, 1086, 1043, 1044
2023, 1109, 1108, 1068
2024, 1129, 1047, 1094
2025, 1139, 1130, 1088
2026, 1088, 1050, 1049
2027, 1091, 1089,  197
2028, 1149, 1110, 1143
2029, 1126, 1046, 1089
2030, 1161, 1159, 1121
2031, 1091,  197,  198
2032, 1091,  994, 1039
2033, 1092, 1045,  997
2034, 1092, 1043, 1086
2035, 1115, 1076, 1078
2036, 1118, 1058, 1081
2037, 1094, 1047,  995
2038, 1094, 1051, 1084
2039, 1104, 1067, 1066
2040, 1096, 1053, 1095
2041, 1162, 1095, 1080
2042, 1097, 1055, 1096
2043, 1137, 1106, 1134
2044, 1098, 1059, 1054
2045, 1105, 1063, 1101
2046, 1219, 1187, 1209
2047, 1099, 1081, 1041
2048, 1099, 1059, 1098
2049, 1100, 1065, 1070
2050, 1108, 1070, 1068
2051, 1131, 1097, 1096
2052, 1101, 1063, 1065
2053, 1109, 1061, 1102
2054, 1102, 1061, 1060
2055, 1103, 1060, 1062
2056, 1130, 1062, 1048
2057, 1106, 1066, 1064
2058, 1167, 1166, 1131
2059, 1105, 1064, 1063
2060, 1201, 1166, 1167
2061, 1106, 1104, 1066
2062, 1106, 1064, 1105
2063, 1107, 1080, 1069
2064, 1107, 1067, 1104
2065, 1140, 1102, 1139
2066, 1108, 1100, 1070
2067, 1175, 1139, 1124
2068, 1124, 1088, 1087
2069, 1116, 1038, 1073
2070, 1110, 1073, 1029
2071, 1111, 1072, 1032
2072, 1144, 1074, 1114
2073, 1184, 1163, 1126
2074, 1112, 1077, 1072
2075, 1113, 1075, 1076
2076, 1148, 1147, 1113
2077, 1182, 1144, 1180
2078, 1114, 1074, 1075
2079, 1125, 1078, 1083
2080, 1156, 1155, 1093
2081, 1153, 1149, 1143
2082, 1116, 1039, 1038
2083, 1152, 1035, 1034
2084, 1214, 1154, 1188
2085, 1118, 1093, 1058
2086, 1145, 1081, 1099
2087, 1119, 1057, 1093
2088, 1187, 1155, 1156
2089, 1158, 1129, 1120
2090, 1122, 1084, 1085
2091, 1159, 1127, 1121
2092, 1123, 1086, 1090
2093, 1164, 1085, 1127
2094, 1210, 1180, 1207
2095, 1163, 1090, 1126
2096, 1193, 1190, 1159
2097, 1141, 1109, 1140
2098, 1165, 1087, 1129
2099, 1125, 1115, 1078
2100, 1157, 1083, 1117
2101, 1151, 1150, 1126
2102, 1151, 1126, 1089
2103, 1127, 1085, 1045
2104, 1127, 1092, 1121
2105, 1131, 1096, 1128
2106, 1128, 1096, 1095
2107, 1129, 1087, 1047
2108, 1129, 1094, 1120
2109, 1130, 1050, 1088
2110, 1139, 1088, 1124
2111, 1134, 1106, 1105
2112, 1132, 1097, 1131
2113, 1167, 1131, 1128
2114, 1133, 1099, 1098
2115, 1201, 1167, 1177
2116, 1145, 1099, 1133
2117, 1136, 1105, 1101
2118, 1135, 1101, 1100
2119, 1138, 1100, 1108
2120, 1260, 1240, 1246
2121, 1136, 1134, 1105
2122, 1136, 1101, 1135
2123, 1198, 1169, 1197
2124, 1137, 1104, 1106
2125, 1141, 1108, 1109
2126, 1176, 1141, 1140
2127, 1139, 1102, 1103
2128, 1139, 1103, 1130
2129, 1140, 1109, 1102
2130, 1185, 1175, 1124
2131, 1185, 1176, 1175
2132, 1141, 1138, 1108
2133, 1162, 1142, 1128
2134, 1142, 1104, 1137
2135, 1143, 1110, 1077
2136, 1179, 1153, 1143
2137, 1144, 1111, 1074
2138, 1180, 1114, 1147
2139, 1145, 1118, 1081
2140, 1170, 1133, 1132
2141, 1236, 1193, 1222
2142, 1146, 1112, 1111
2143, 1147, 1114, 1113
2144, 1148, 1113, 1115
2145, 1168, 1115, 1125
2146, 1155, 1119, 1093
2147, 1220, 1196, 1163
2148, 1149, 1116, 1110
2149, 1150, 1039, 1116
2150, 1150, 1116, 1149
2151, 1151, 1089, 1091
2152, 1151, 1091, 1039
2153, 1152, 1117, 1035
2154, 1214, 1188, 1152
2155, 1220, 1186, 1196
2156, 1179, 1143, 1112
2157, 1154, 1013, 1004
2158, 1154, 1057, 1119
2159, 1156, 1093, 1118
2160, 1181, 1118, 1145
2161, 1178, 1133, 1170
2162, 1235, 1215, 1212
2163, 1157, 1125, 1083
2164, 1157, 1117, 1152
2165, 1160, 1120, 1122
2166, 1160, 1158, 1120
2167, 1190, 1164, 1159
2168, 1161, 1121, 1123
2169, 1195, 1122, 1164
2170, 1202, 1197, 1172
2171, 1196, 1123, 1163
2172, 1186, 1153, 1179
2173, 1162, 1080, 1107
2174, 1162, 1107, 1142
2175, 1163, 1123, 1090
2176, 1184, 1126, 1150
2177, 1164, 1122, 1085
2178, 1164, 1127, 1159
2179, 1165, 1124, 1087
2180, 1165, 1129, 1158
2181, 1170, 1132, 1166
2182, 1166, 1132, 1131
2183, 1167, 1128, 1142
2184, 1177, 1142, 1137
2185, 1168, 1148, 1115
2186, 1194, 1125, 1157
2187, 1169, 1134, 1136
2188, 1172, 1136, 1135
2189, 1178, 1145, 1133
2190, 1261, 1223, 1225
2191, 1201, 1199, 1166
2192, 1171, 1137, 1134
2193, 1174, 1135, 1138
2194, 1204, 1173, 1176
2195, 1173, 1138, 1141
2196, 1191, 1185, 1165
2197, 1233, 1207, 1230
2198, 1174, 1172, 1135
2199, 1175, 1140, 1139
2200, 1185, 1124, 1165
2201, 1191, 1165, 1158
2202, 1176, 1173, 1141
2203, 1177, 1167, 1142
2204, 1177, 1137, 1171
2205, 1223, 1198, 1197
2206, 1181, 1145, 1178
2207, 1179, 1112, 1146
2208, 1206, 1186, 1179
2209, 1180, 1144, 1114
2210, 1207, 1147, 1183
2211, 1200, 1148, 1168
2212, 1181, 1156, 1118
2213, 1255, 1246, 1253
2214, 1182, 1146, 1144
2215, 1261, 1199, 1201
2216, 1183, 1147, 1148
2217, 1184, 1150, 1149
2218, 1184, 1149, 1153
2219, 1192, 1158, 1160
2220, 1204, 1176, 1185
2221, 1222, 1186, 1213
2222, 1206, 1179, 1146
2223, 1209, 1156, 1181
2224, 1208, 1181, 1178
2225, 1189, 1119, 1155
2226, 1214, 1152, 1034
2227, 1215, 1155, 1187
2228, 1235, 1211, 1189
2229, 1216, 1195, 1190
2230, 1193, 1159, 1161
2231, 1192, 1191, 1158
2232, 1205, 1173, 1204
2233, 1221, 1160, 1195
2234, 1224, 1223, 1197
2235, 1236, 1222, 1213
2236, 1213, 1186, 1206
2237, 1194, 1168, 1125
2238, 1211, 1194, 1157
2239, 1195, 1160, 1122
2240, 1195, 1164, 1190
2241, 1196, 1161, 1123
2242, 1220, 1163, 1184
2243, 1197, 1169, 1172
2244, 1202, 1172, 1174
2245, 1261, 1225, 1199
2246, 1198, 1171, 1169
2247, 1203, 1170, 1199
2248, 1199, 1170, 1166
2249, 1200, 1183, 1148
2250, 1212, 1200, 1168
2251, 1201, 1177, 1171
2252, 1201, 1171, 1198
2253, 1205, 1174, 1173
2254, 1228, 1205, 1227
2255, 1208, 1178, 1203
2256, 1203, 1178, 1170
2257, 1217, 1185, 1191
2258, 1217, 1191, 1192
2259, 1237, 1218, 1236
2260, 1205, 1202, 1174
2261, 1206, 1146, 1182
2262, 1229, 1182, 1210
2263, 1207, 1180, 1147
2264, 1230, 1183, 1226
2265, 1232, 1209, 1208
2266, 1209, 1181, 1208
2267, 1250, 1219, 1245
2268, 1209, 1187, 1156
2269, 1218, 1216, 1190
2270, 1210, 1182, 1180
2271, 1211, 1157, 1152
2272, 1211, 1152, 1188
2273, 1258, 1234, 1212
2274, 1212, 1168, 1194
2275, 1222, 1193, 1161
2276, 1229, 1206, 1182
2277, 1214, 1034, 1013
2278, 1214, 1013, 1154
2279, 1215, 1189, 1155
2280, 1258, 1219, 1250
2281, 1252, 1237, 1244
2282, 1218, 1190, 1193
2283, 1227, 1204, 1217
2284, 1239, 1192, 1221
2285, 1244, 1229, 1210
2286, 1247, 1230, 1241
2287, 1231, 1208, 1203
2288, 1234, 1226, 1200
2289, 1220, 1184, 1153
2290, 1220, 1153, 1186
2291, 1221, 1192, 1160
2292, 1221, 1195, 1216
2293, 1222, 1161, 1196
2294, 1222, 1196, 1186
2295, 1260, 1223, 1240
2296, 1224, 1197, 1202
2297, 1228, 1202, 1205
2298, 1243, 1242, 1228
2299, 1231, 1203, 1225
2300, 1225, 1203, 1199
2301, 1226, 1183, 1200
2302, 1245, 1219, 1232
2303, 1227, 1205, 1204
2304, 1251, 1243, 1227
2305, 1254, 1243, 1249
2306, 1228, 1224, 1202
2307, 1229, 1213, 1206
2308, 1244, 1210, 1233
2309, 1256, 1241, 1255
2310, 1230, 1207, 1183
2311, 1240, 1223, 1224
2312, 1232, 1208, 1231
2313, 1260, 1246, 1231
2314, 1232, 1219, 1209
2315, 1244, 1237, 1236
2316, 1233, 1210, 1207
2317, 1234, 1200, 1212
2318, 1258, 1212, 1215
2319, 1235, 1194, 1211
2320, 1235, 1189, 1215
2321, 1236, 1218, 1193
2322, 1236, 1213, 1229
2323, 1238, 1216, 1237
2324, 1237, 1216, 1218
2325, 1257, 1256, 1255
2326, 1238, 1221, 1216
2327, 1239, 1217, 1192
2328, 1239, 1221, 1238
2329, 1242, 1224, 1228
2330, 1250, 1241, 1226
2331, 1241, 1230, 1226
2332, 1250, 1245, 1241
2333, 1242, 1240, 1224
2334, 1243, 1228, 1227
2335, 1251, 1227, 1217
2336, 1249, 1239, 1238
2337, 1244, 1236, 1229
2338, 1252, 1248, 1237
2339, 1246, 1245, 1232
2340, 1253, 1246, 1240
2341, 1246, 1232, 1231
2342, 1253, 1240, 1242
2343, 1259, 1252, 1247
2344, 1247, 1233, 1230
2345, 1259, 1256, 1257
2346, 1248, 1238, 1237
2347, 1251, 1249, 1243
2348, 1249, 1238, 1248
2349, 1250, 1226, 1234
2350, 1258, 1250, 1234
2351, 1251, 1217, 1239
2352, 1251, 1239, 1249
2353, 1252, 1244, 1233
2354, 1252, 1233, 1247
2355, 1254, 1253, 1242
2356, 1257, 1253, 1254
2357, 1254, 1242, 1243
2358, 1259, 1249, 1248
2359, 1255, 1241, 1245
2360, 1255, 1245, 1246
2361, 1259, 1257, 1249
2362, 1256, 1247, 1241
2363, 1257, 1255, 1253
2364, 1257, 1254, 1249
2365, 1258, 1215, 1187
2366, 1258, 1187, 1219
2367, 1259, 1248, 1252
2368, 1259, 1247, 1256
2369, 1260, 1231, 1225
2370, 1260, 1225, 1223
2371, 1261, 1201, 1198
2372, 1261, 1198, 1223
*Orientation, name=Ori-1
1., 0., 0., 0., 1., 0.
3, 0.
** Region: (CompositeLayup-1-1: Generated From Layup)
*Elset, elset=CompositeLayup-1-1, generate
    1,  2372,     1
** Section: CompositeLayup-1-1
*Shell Section, elset=CompositeLayup-1-1, composite, orientation=Ori-1, layup=CompositeLayup-1
0.25, 1, ABQ_PLY_FABRIC, 45., Ply-1
0.25, 1, ABQ_PLY_FABRIC, -45., Ply-2
0.25, 1, ABQ_PLY_FABRIC, -45., Ply-3
0.25, 1, ABQ_PLY_FABRIC, 45., Ply-4
*End Part
**  
**
** ASSEMBLY
**
*Assembly, name=Assembly
**  
*Instance, name=Plate-1, part=PLATE
*End Instance
**  
*Nset, nset=Set-1, instance=Plate-1
   6,   7,  12,  84,  85,  86,  87,  88,  89,  90,  91,  92,  93,  94,  95,  96
  97, 167, 168, 169, 170, 171, 172, 173, 174, 175, 176, 177, 178, 179, 180, 181
 182,
*Elset, elset=Set-1, instance=Plate-1
  521,  522,  538,  541,  544,  600,  601,  604,  606,  608,  610,  612,  614,  650,  657, 1710
 1711, 1724, 1793, 1796, 1798, 1800, 1802, 1804, 1806, 1808, 1810, 1812, 1814, 1816, 1818, 1884
*Nset, nset=Set-2, instance=Plate-1
   4,   5,  11,  39,  40,  41,  42,  43,  44,  45,  46,  47,  48,  49,  50,  51
  52, 143, 144, 145, 146, 147, 148, 149, 150, 151, 152, 153, 154, 155, 156, 157
 158,
*Elset, elset=Set-2, instance=Plate-1
   19,   20,   30,   91,   92,   95,   97,   99,  101,  103,  105,  107,  109,  111,  113, 1130
 1131, 1144, 1213, 1214, 1215, 1217, 1219, 1221, 1223, 1225, 1227, 1229, 1231, 1233, 1235, 1256
*End Assembly
*Amplitude, name=Ramp, time=TOTAL TIME
             0.,              0.,            0.01,              1.
** 
** MATERIALS
** 
*Material, name=ABQ_PLY_FABRIC
*Density
 1.594e-09,
*Depvar, delete=16
     16,
*User Material, constants=40
27500., 27500.,   0.11,  2900., 27500., 27500.,   0.11,     0.
   604.,   291.,   604.,   291.,    75.,     0.,     0.,     0.
 20.438, 4.6257, 20.438, 4.6257, 0.3221,     1.,     0.,     0.
    75., 0.0008,  0.552,     0.,     0.,     0.,     0.,     0.
     0.,     1.,  1e+09,  1e+09, -1e+09,     0.,     0.,     0.
** ----------------------------------------------------------------
** 
** STEP: Step-1
** 
*Step, name=Step-1, nlgeom=NO
*Dynamic, Explicit
, 0.01
*Bulk Viscosity
0.06, 1.2
** 
** BOUNDARY CONDITIONS
** 
** Name: BC-1 Type: Symmetry/Antisymmetry/Encastre
*Boundary
Set-1, ENCASTRE
** Name: BC-2 Type: Displacement/Rotation
*Boundary, amplitude=Ramp
Set-2, 1, 1, 2.15789
** 
** OUTPUT REQUESTS
** 
*Restart, write, number interval=1, time marks=NO
** 
** FIELD OUTPUT: F-Output-1
** 
*Output, field, number interval=1
*Element Output, position=NODES, directions=YES
LE, PEEQ, SDV
** 
** HISTORY OUTPUT: H-Output-1
** 
*Output, history, variable=PRESELECT
*End Step
