*Heading
** Job name: Plate_nonlinear_198 Model name: Model-1
** Generated by: Abaqus/CAE 2024.HF3
*Preprint, echo=NO, model=NO, history=NO, contact=NO
**
** PARTS
**
*Part, name=PLATE
*Node
      1,   59.6328888,   178.080475,           0.
      2,   59.6328888,   93.5646515,           0.
      3,   73.0613251,   80.1362152,           0.
      4,   132.517532,   80.1362152,           0.
      5,   132.517532,   178.080475,           0.
      6,           0.,   178.080475,           0.
      7,           0.,   80.1362152,           0.
      8,   46.2044487,   80.1362152,           0.
      9,   59.6328888,   66.7077713,           0.
     10,   59.6328888,           0.,           0.
     11,   132.517532,           0.,           0.
     12,           0.,           0.,           0.
     13,   59.6328888,   173.385147,           0.
     14,   59.6328888,   168.689819,           0.
     15,   59.6328888,   163.994507,           0.
     16,   59.6328888,   159.299179,           0.
     17,   59.6328888,   154.603851,           0.
     18,   59.6328888,   149.908524,           0.
     19,   59.6328888,   145.213211,           0.
     20,   59.6328888,   140.517883,           0.
     21,   59.6328888,   135.822556,           0.
     22,   59.6328888,   131.127243,           0.
     23,   59.6328888,   126.431915,           0.
     24,   59.6328888,   121.736588,           0.
     25,   59.6328888,   117.041267,           0.
     26,   59.6328888,   112.345947,           0.
     27,   59.6328888,    107.65062,           0.
     28,   59.6328888,   102.955299,           0.
     29,   59.6328888,   98.2599716,           0.
     30,   64.7717285,   92.5424728,           0.
     31,   69.1282272,   89.6315536,           0.
     32,   72.0391464,   85.2750549,           0.
     33,   78.0160141,   80.1362152,           0.
     34,   82.9706955,   80.1362152,           0.
     35,   87.9253769,   80.1362152,           0.
     36,   92.8800583,   80.1362152,           0.
     37,   97.8347473,   80.1362152,           0.
     38,   102.789429,   80.1362152,           0.
     39,    107.74411,   80.1362152,           0.
     40,   112.698799,   80.1362152,           0.
     41,   117.653481,   80.1362152,           0.
     42,   122.608162,   80.1362152,           0.
     43,   127.562843,   80.1362152,           0.
     44,   132.517532,   85.0334244,           0.
     45,   132.517532,   89.9306412,           0.
     46,   132.517532,   94.8278503,           0.
     47,   132.517532,   99.7250671,           0.
     48,   132.517532,   104.622276,           0.
     49,   132.517532,   109.519493,           0.
     50,   132.517532,   114.416702,           0.
     51,   132.517532,   119.313919,           0.
     52,   132.517532,   124.211128,           0.
     53,   132.517532,   129.108337,           0.
     54,   132.517532,   134.005554,           0.
     55,   132.517532,   138.902771,           0.
     56,   132.517532,   143.799973,           0.
     57,   132.517532,   148.697189,           0.
     58,   132.517532,   153.594406,           0.
     59,   132.517532,   158.491623,           0.
     60,   132.517532,   163.388824,           0.
     61,   132.517532,   168.286041,           0.
     62,   132.517532,   173.183258,           0.
     63,   127.658554,   178.080475,           0.
     64,   122.799576,   178.080475,           0.
     65,   117.940605,   178.080475,           0.
     66,   113.081627,   178.080475,           0.
     67,   108.222649,   178.080475,           0.
     68,    103.36367,   178.080475,           0.
     69,   98.5046997,   178.080475,           0.
     70,   93.6457214,   178.080475,           0.
     71,   88.7867432,   178.080475,           0.
     72,   83.9277725,   178.080475,           0.
     73,   79.0687943,   178.080475,           0.
     74,    74.209816,   178.080475,           0.
     75,   69.3508377,   178.080475,           0.
     76,   64.4918671,   178.080475,           0.
     77,   54.6634827,   178.080475,           0.
     78,   49.6940727,   178.080475,           0.
     79,   44.7246666,   178.080475,           0.
     80,   39.7552605,   178.080475,           0.
     81,   34.7858505,   178.080475,           0.
     82,   29.8164444,   178.080475,           0.
     83,   24.8470364,   178.080475,           0.
     84,   19.8776302,   178.080475,           0.
     85,   14.9082222,   178.080475,           0.
     86,   9.93881512,   178.080475,           0.
     87,   4.96940756,   178.080475,           0.
     88,           0.,   173.183258,           0.
     89,           0.,   168.286041,           0.
     90,           0.,   163.388824,           0.
     91,           0.,   158.491623,           0.
     92,           0.,   153.594406,           0.
     93,           0.,   148.697189,           0.
     94,           0.,   143.799973,           0.
     95,           0.,   138.902771,           0.
     96,           0.,   134.005554,           0.
     97,           0.,   129.108337,           0.
     98,           0.,   124.211128,           0.
     99,           0.,   119.313919,           0.
    100,           0.,   114.416702,           0.
    101,           0.,   109.519493,           0.
    102,           0.,   104.622276,           0.
    103,           0.,   99.7250671,           0.
    104,           0.,   94.8278503,           0.
    105,           0.,   89.9306412,           0.
    106,           0.,   85.0334244,           0.
    107,   4.62044477,   80.1362152,           0.
    108,   9.24088955,   80.1362152,           0.
    109,   13.8613348,   80.1362152,           0.
    110,   18.4817791,   80.1362152,           0.
    111,   23.1022243,   80.1362152,           0.
    112,   27.7226696,   80.1362152,           0.
    113,   32.3431129,   80.1362152,           0.
    114,   36.9635582,   80.1362152,           0.
    115,   41.5840034,   80.1362152,           0.
    116,   47.2266273,   85.2750549,           0.
    117,   50.1375465,   89.6315536,           0.
    118,   54.4940491,   92.5424728,           0.
    119,   59.6328888,   61.9429321,           0.
    120,   59.6328888,   57.1780891,           0.
    121,   59.6328888,     52.41325,           0.
    122,   59.6328888,   47.6484108,           0.
    123,   59.6328888,   42.8835678,           0.
    124,   59.6328888,   38.1187286,           0.
    125,   59.6328888,   33.3538857,           0.
    126,   59.6328888,   28.5890446,           0.
    127,   59.6328888,   23.8242054,           0.
    128,   59.6328888,   19.0593643,           0.
    129,   59.6328888,   14.2945223,           0.
    130,   59.6328888,   9.52968216,           0.
    131,   59.6328888,   4.76484108,           0.
    132,   64.4918671,           0.,           0.
    133,   69.3508377,           0.,           0.
    134,    74.209816,           0.,           0.
    135,   79.0687943,           0.,           0.
    136,   83.9277725,           0.,           0.
    137,   88.7867432,           0.,           0.
    138,   93.6457214,           0.,           0.
    139,   98.5046997,           0.,           0.
    140,    103.36367,           0.,           0.
    141,   108.222649,           0.,           0.
    142,   113.081627,           0.,           0.
    143,   117.940605,           0.,           0.
    144,   122.799576,           0.,           0.
    145,   127.658554,           0.,           0.
    146,   132.517532,   4.71389484,           0.
    147,   132.517532,   9.42778969,           0.
    148,   132.517532,   14.1416845,           0.
    149,   132.517532,   18.8555794,           0.
    150,   132.517532,   23.5694733,           0.
    151,   132.517532,   28.2833691,           0.
    152,   132.517532,   32.9972649,           0.
    153,   132.517532,   37.7111588,           0.
    154,   132.517532,   42.4250526,           0.
    155,   132.517532,   47.1389465,           0.
    156,   132.517532,   51.8528442,           0.
    157,   132.517532,   56.5667381,           0.
    158,   132.517532,    61.280632,           0.
    159,   132.517532,   65.9945297,           0.
    160,   132.517532,   70.7084198,           0.
    161,   132.517532,   75.4223175,           0.
    162,   72.0391464,   74.9973679,           0.
    163,   69.1282272,   70.6408691,           0.
    164,   64.7717285,     67.72995,           0.
    165,   54.4940491,     67.72995,           0.
    166,   50.1375465,   70.6408691,           0.
    167,   47.2266273,   74.9973679,           0.
    168,           0.,   75.4223175,           0.
    169,           0.,   70.7084198,           0.
    170,           0.,   65.9945297,           0.
    171,           0.,    61.280632,           0.
    172,           0.,   56.5667381,           0.
    173,           0.,   51.8528442,           0.
    174,           0.,   47.1389465,           0.
    175,           0.,   42.4250526,           0.
    176,           0.,   37.7111588,           0.
    177,           0.,   32.9972649,           0.
    178,           0.,   28.2833691,           0.
    179,           0.,   23.5694733,           0.
    180,           0.,   18.8555794,           0.
    181,           0.,   14.1416845,           0.
    182,           0.,   9.42778969,           0.
    183,           0.,   4.71389484,           0.
    184,   4.96940756,           0.,           0.
    185,   9.93881512,           0.,           0.
    186,   14.9082222,           0.,           0.
    187,   19.8776302,           0.,           0.
    188,   24.8470364,           0.,           0.
    189,   29.8164444,           0.,           0.
    190,   34.7858505,           0.,           0.
    191,   39.7552605,           0.,           0.
    192,   44.7246666,           0.,           0.
    193,   49.6940727,           0.,           0.
    194,   54.6634827,           0.,           0.
    195,   64.0602341,   171.759384,           0.
    196,   73.9302368,   90.3759155,           0.
    197,   76.1178513,   84.9265976,           0.
    198,   63.7140198,   124.086548,           0.
    199,   63.7208023,   152.258743,           0.
    200,   63.7117195,    147.56189,           0.
    201,   63.7092285,   142.866058,           0.
    202,   63.7086983,   138.170395,           0.
    203,   63.7091675,   133.475128,           0.
    204,   63.7111435,   128.780609,           0.
    205,   63.7240944,   119.394157,           0.
    206,   63.7419167,   114.704651,           0.
    207,   63.7606697,    110.03212,           0.
    208,    63.753479,   105.379799,           0.
    209,   69.3466568,   94.7358398,           0.
    210,   63.7233124,   100.853271,           0.
    211,    64.085495,   96.4904709,           0.
    212,   100.315453,   84.4281235,           0.
    213,   95.3650742,   84.4320984,           0.
    214,   90.4313889,   84.4331894,           0.
    215,   85.5770874,   84.4414444,           0.
    216,   80.8297195,    84.563118,           0.
    217,   128.190643,   165.826065,           0.
    218,   128.187195,   160.974075,           0.
    219,   128.232529,   156.061844,           0.
    220,   128.275757,   151.149139,           0.
    221,   128.283829,   146.249161,           0.
    222,   128.285538,   141.351456,           0.
    223,   128.285934,   136.454178,           0.
    224,   128.285843,   131.557068,           0.
    225,   128.285034,   126.660141,           0.
    226,    128.28331,   121.763359,           0.
    227,   128.280838,   116.866447,           0.
    228,   128.277725,   111.969322,           0.
    229,   128.273605,   107.072205,           0.
    230,   128.253906,   102.157959,           0.
    231,   128.198181,   97.1971283,           0.
    232,   128.050568,   92.0872192,           0.
    233,    128.02092,    86.741806,           0.
    234,   71.8139496,   173.915024,           0.
    235,   96.0756607,   173.881805,           0.
    236,   100.934319,   173.879013,           0.
    237,   105.793678,   173.875626,           0.
    238,   110.659142,   173.861252,           0.
    239,   115.574577,   173.808258,           0.
    240,   120.648468,   173.661758,           0.
    241,   125.954819,   173.633987,           0.
    242,   67.8459091,   117.069229,           0.
    243,   63.7606621,   156.975021,           0.
    244,   67.8944855,   107.686714,           0.
    245,   67.7988892,   126.437798,           0.
    246,   67.8845062,   112.389633,           0.
    247,   67.8143311,   102.979294,           0.
    248,   67.8156662,   149.917877,           0.
    249,   67.7967224,   145.216583,           0.
    250,   67.7907486,   140.519104,           0.
    251,   67.7903976,   135.823196,           0.
    252,   67.7939758,   131.129745,           0.
    253,   67.8181839,   121.752342,           0.
    254,   63.8452988,   161.737152,           0.
    255,   91.2159119,   173.885178,           0.
    256,   67.7121735,    174.26622,           0.
    257,   98.5060196,   169.681549,           0.
    258,   108.255257,   169.646545,           0.
    259,   81.4824219,   173.866013,           0.
    260,   86.3518677,   173.881485,           0.
    261,   76.6085129,   173.855652,           0.
    262,   103.377655,   169.663864,           0.
    263,   113.178383,   169.611542,           0.
    264,   118.121605,   169.511337,           0.
    265,   123.848335,   94.6281815,           0.
    266,   124.011131,   104.593079,           0.
    267,   123.979599,   153.586853,           0.
    268,   124.059227,   134.005829,           0.
    269,   124.057579,   143.798019,           0.
    270,   124.054657,   124.213417,           0.
    271,    124.04277,   114.420914,           0.
    272,   124.059784,    138.90242,           0.
    273,   123.789825,   158.537567,           0.
    274,   124.039444,   148.686752,           0.
    275,   124.050133,    119.31778,           0.
    276,    128.55452,   169.952698,           0.
    277,   124.058662,   129.109558,           0.
    278,   124.032303,   109.518578,           0.
    279,   123.968231,   99.6173172,           0.
    280,   123.777306,   163.503708,           0.
    281,   105.269852,    84.436409,           0.
    282,   97.8523483,   88.7194443,           0.
    283,   88.0673904,   88.6723099,           0.
    284,   115.205742,   84.5061111,           0.
    285,   110.232254,   84.4770355,           0.
    286,   120.118538,   84.4930115,           0.
    287,   124.294312,   84.1213303,           0.
    288,   92.9329453,   88.7085724,           0.
    289,   83.4392166,   88.6193008,           0.
    290,   64.0196838,   166.641052,           0.
    291,   123.608627,   168.828842,           0.
    292,   123.152992,   89.0959854,           0.
    293,   68.8149719,   169.481415,           0.
    294,   67.9404221,   159.389053,           0.
    295,   71.8778381,   138.172409,           0.
    296,   71.8848343,   142.868973,           0.
    297,   71.8822021,    133.47905,           0.
    298,   71.8908768,   128.790787,           0.
    299,   71.9260178,   147.566971,           0.
    300,   71.9105911,   124.110085,           0.
    301,   71.9499359,   119.438705,           0.
    302,   72.0068283,   114.767365,           0.
    303,   72.0580826,   110.033051,           0.
    304,   72.0860901,   105.158195,           0.
    305,   67.8725128,   154.643539,           0.
    306,   74.0803528,   169.594803,           0.
    307,   93.6446228,   169.690201,           0.
    308,   83.9214478,   169.651871,           0.
    309,   115.736794,   165.421707,           0.
    310,   110.806587,   165.380249,           0.
    311,   105.860542,   165.379471,           0.
    312,   100.950928,   165.417892,           0.
    313,   88.7838745,    169.68573,           0.
    314,    79.006485,   169.529068,           0.
    315,   120.027069,   165.680725,           0.
    316,   119.838379,   141.347382,           0.
    317,   119.840141,    136.45369,           0.
    318,   119.631355,    155.90033,           0.
    319,   118.879967,    161.11261,           0.
    320,   119.834412,   126.664108,           0.
    321,   119.775963,   151.083344,           0.
    322,   119.823853,   146.225403,           0.
    323,   119.839638,   131.558899,           0.
    324,   119.793671,   111.969246,           0.
    325,   119.754044,    107.02169,           0.
    326,   119.827103,   121.770119,           0.
    327,   119.732361,    102.02549,           0.
    328,   119.739563,   97.0402679,           0.
    329,   119.813324,   116.872551,           0.
    330,   119.985176,   92.7148895,           0.
    331,    112.75042,   88.9535294,           0.
    332,   117.771843,    88.942894,           0.
    333,   85.6026688,   92.7445526,           0.
    334,   90.4529648,   92.9488144,           0.
    335,    95.391922,   93.0029297,           0.
    336,   102.791748,   88.7278137,           0.
    337,   107.738678,   88.7973633,           0.
    338,   68.0980988,   164.170761,           0.
    339,   78.9851761,   89.0507355,           0.
    340,   77.9948502,   93.6528931,           0.
    341,   115.394966,   93.9000702,           0.
    342,    72.104126,   161.811356,           0.
    343,   76.1907349,   112.432327,           0.
    344,   76.2736053,   107.636513,           0.
    345,   76.0481796,   121.806046,           0.
    346,    76.112793,   117.139572,           0.
    347,   72.0757217,   157.050079,           0.
    348,   76.0111694,   126.470062,           0.
    349,   75.9761047,   140.522125,           0.
    350,   75.9797897,   135.830093,           0.
    351,   76.0081787,   145.208679,           0.
    352,   75.9921036,   131.145828,           0.
    353,   72.0147171,   152.289627,           0.
    354,   96.0748444,   165.464722,           0.
    355,   76.4020844,   164.783432,           0.
    356,    72.043869,   99.7496262,           0.
    357,   108.412949,   160.972794,           0.
    358,   103.405708,   161.049179,           0.
    359,   86.3860092,   165.498779,           0.
    360,   91.2224579,   165.497864,           0.
    361,   81.5996552,   165.414352,           0.
    362,   115.613571,   124.223396,           0.
    363,   115.596176,   119.329391,           0.
    364,   115.391502,   104.468285,           0.
    365,   115.460114,   99.3803406,           0.
    366,   115.506905,   109.499062,           0.
    367,   115.627655,   138.899933,           0.
    368,   115.628166,   134.007263,           0.
    369,   115.624031,   129.115311,           0.
    370,   115.736496,   157.567444,           0.
    371,   115.624733,   143.777756,           0.
    372,     115.5644,   153.399902,           0.
    373,   115.614777,   148.610214,           0.
    374,   115.563728,   114.426765,           0.
    375,   87.7220612,   97.2630539,           0.
    376,   105.243233,   93.0639725,           0.
    377,    110.11132,   93.1906433,           0.
    378,   92.8412247,   97.3133621,           0.
    379,   100.324493,   93.0327911,           0.
    380,   71.8999252,   165.968353,           0.
    381,   80.4143219,   110.069908,           0.
    382,   80.3148346,   114.838959,           0.
    383,    80.216011,   119.524574,           0.
    384,    76.297699,    154.67572,           0.
    385,   80.1537781,    124.17363,           0.
    386,   80.1176147,   128.828094,           0.
    387,   80.0871887,   138.206665,           0.
    388,   80.0998001,   133.507278,           0.
    389,   80.0730667,   142.922638,           0.
    390,   76.1075363,   149.899994,           0.
    391,   111.850723,   97.1148682,           0.
    392,   76.3777313,   102.844749,           0.
    393,      98.4972,   161.155289,           0.
    394,   113.456024,   161.114166,           0.
    395,    88.769783,   161.319397,           0.
    396,   79.8612213,   161.652802,           0.
    397,   105.843826,   156.596008,           0.
    398,   93.6182632,   161.246338,           0.
    399,   83.9746704,    161.37442,           0.
    400,   111.391403,   121.788872,           0.
    401,    111.41069,   126.677254,           0.
    402,   111.437317,   141.334335,           0.
    403,   111.476318,   146.181641,           0.
    404,   111.429482,   136.452271,           0.
    405,   111.422844,   131.565063,           0.
    406,   111.359848,   116.898369,           0.
    407,   111.189095,    156.20842,           0.
    408,   111.518761,   150.975967,           0.
    409,   110.612656,   101.781769,           0.
    410,    111.23069,   107.121162,           0.
    411,   111.321678,   112.009239,           0.
    412,   102.782524,   97.3734589,           0.
    413,   107.646194,   97.3699722,           0.
    414,   97.8237305,   97.3600082,           0.
    415,   90.2778473,   101.629372,           0.
    416,    82.164566,   96.7562714,           0.
    417,   84.6867447,   112.493271,           0.
    418,   84.5148697,   117.251175,           0.
    419,   84.4354935,   121.894714,           0.
    420,   80.2417145,     152.1418,           0.
    421,   84.3938065,    126.53376,           0.
    422,   84.3703461,   131.202393,           0.
    423,   84.3449097,   140.781021,           0.
    424,   84.3920517,   135.957382,           0.
    425,   80.0796738,   147.568237,           0.
    426,   76.2910919,   159.525391,           0.
    427,   80.4641495,   105.239189,           0.
    428,   100.890434,   156.683533,           0.
    429,   91.0489655,   156.963013,           0.
    430,   95.9617615,   156.878265,           0.
    431,   86.1555099,   157.160568,           0.
    432,   80.9665146,   157.181717,           0.
    433,   107.142632,   124.247147,           0.
    434,   107.147659,   129.121185,           0.
    435,   107.084724,   119.364883,           0.
    436,   107.262886,   143.795654,           0.
    437,   107.166618,   138.892639,           0.
    438,   107.062836,   114.464149,           0.
    439,   107.428558,   148.654938,           0.
    440,   107.126953,   133.994476,           0.
    441,   77.1455841,   98.2331009,           0.
    442,   107.864372,   152.839905,           0.
    443,   107.111076,   109.584869,           0.
    444,   107.413208,   105.356575,           0.
    445,   100.252579,   101.778458,           0.
    446,   95.2189789,   101.649559,           0.
    447,   84.8420181,     102.1539,           0.
    448,   103.299271,   151.772934,           0.
    449,   88.9327087,   115.000229,           0.
    450,    88.895195,   119.605499,           0.
    451,   88.9007339,   124.246956,           0.
    452,   83.9608994,   149.869507,           0.
    453,   88.8892746,   128.924881,           0.
    454,   88.8909149,   133.674225,           0.
    455,   88.9086304,   138.579407,           0.
    456,   84.1026993,   145.489059,           0.
    457,   84.7179871,   107.577271,           0.
    458,   80.1988144,   101.045441,           0.
    459,   93.3844223,   152.626038,           0.
    460,   98.1559219,    152.53804,           0.
    461,   88.1307068,   152.391068,           0.
    462,    102.71817,   126.679848,           0.
    463,   102.644745,   121.820877,           0.
    464,   102.546051,   116.859306,           0.
    465,   102.682152,   131.522064,           0.
    466,   102.755287,   141.417435,           0.
    467,   102.667488,    136.41655,           0.
    468,   103.084221,   146.432449,           0.
    469,   102.724213,    111.88932,           0.
    470,    102.77504,   106.568382,           0.
    471,   97.4773712,   105.901314,           0.
    472,   105.247032,   101.704765,           0.
    473,   92.6253586,   105.758514,           0.
    474,   88.3968353,   105.426346,           0.
    475,   83.8910675,   153.748932,           0.
    476,   89.5813446,   109.914291,           0.
    477,   93.3034058,   117.227829,           0.
    478,   93.4742355,   121.900986,           0.
    479,   93.5216904,   126.627167,           0.
    480,    93.515419,   131.385178,           0.
    481,   93.5081787,   136.234573,           0.
    482,   88.9564743,   143.935806,           0.
    483,   95.6531601,   148.625443,           0.
    484,   91.1402893,    148.46283,           0.
    485,    98.096283,   124.252083,           0.
    486,   97.9534073,   119.364273,           0.
    487,   98.1125641,   129.057907,           0.
    488,     98.09935,   138.882767,           0.
    489,   98.0293808,   144.340698,           0.
    490,   98.0975266,   133.916504,           0.
    491,   97.6245041,   114.026886,           0.
    492,    94.879303,   109.764168,           0.
    493,   99.0960846,   109.630013,           0.
    494,   92.8642578,   113.186684,           0.
    495,   93.4932404,   141.200241,           0.
    496,   93.4545059,   145.313004,           0.
    497,   99.6443939,   148.741913,           0.
    498,   87.2582169,   148.029648,           0.
    499,   67.4027328,   98.9617004,           0.
    500,   81.6372986,   92.1647491,           0.
    501,   74.0922394,    95.349472,           0.
    502,   20.5924206,   84.3679428,           0.
    503,   25.3651886,   84.2492905,           0.
    504,   30.0134525,   84.2530594,           0.
    505,   34.5959244,   84.2286911,           0.
    506,   39.0723763,   84.2192001,           0.
    507,   55.1334534,   96.5094299,           0.
    508,   55.5523453,    119.39077,           0.
    509,   55.2211227,    171.65799,           0.
    510,   55.3032112,   166.549149,           0.
    511,   55.4827728,   161.682907,           0.
    512,   55.5306473,   156.956146,           0.
    513,   55.5457916,   152.255676,           0.
    514,   55.5528984,    147.56012,           0.
    515,   55.5562096,   142.865189,           0.
    516,   55.5574722,    138.17009,           0.
    517,   55.5579338,   133.474854,           0.
    518,   55.5580025,   128.779556,           0.
    519,   55.5551491,   124.084816,           0.
    520,   55.5381699,   114.698685,           0.
    521,   55.5100479,   110.007149,           0.
    522,   55.4740219,   105.382614,           0.
    523,   55.4911575,   100.876671,           0.
    524,   4.72420168,   87.5434875,           0.
    525,    4.4155674,   92.4076157,           0.
    526,   4.26921511,   97.2794876,           0.
    527,   4.24768066,   102.173187,           0.
    528,   4.24361801,   107.071373,           0.
    529,   4.23982143,   111.969063,           0.
    530,   4.23614216,   116.865952,           0.
    531,    4.2340312,   121.762833,           0.
    532,   4.23317194,   126.659836,           0.
    533,   4.23270559,   131.556992,           0.
    534,   4.23268604,   136.454163,           0.
    535,   4.23318958,   141.351181,           0.
    536,   4.23496008,   146.247971,           0.
    537,   4.23821688,   151.144943,           0.
    538,   4.24496365,   156.041718,           0.
    539,   4.29138517,   160.962677,           0.
    540,   4.43782234,    166.05748,           0.
    541,   4.46926117,   171.411194,           0.
    542,   27.3366013,   173.790314,           0.
    543,   32.3045921,   173.794983,           0.
    544,   37.2798576,   173.801224,           0.
    545,   42.3129539,   173.776688,           0.
    546,   47.2787895,   173.812866,           0.
    547,   49.8440666,   94.6224899,           0.
    548,   45.2783432,   89.9453506,           0.
    549,   43.3946228,     84.60392,           0.
    550,   37.0061684,   88.3308945,           0.
    551,   22.8187122,   88.5188446,           0.
    552,   10.1205359,   84.7269516,           0.
    553,   15.6466112,    84.415535,           0.
    554,   27.5734367,   88.4346771,           0.
    555,   32.3016129,   88.4136276,           0.
    556,   51.4726791,   126.433327,           0.
    557,   51.3950195,   112.379684,           0.
    558,   51.3354187,   107.731995,           0.
    559,   51.4390831,   117.060394,           0.
    560,   51.4604759,   121.744331,           0.
    561,    51.474865,   131.127518,           0.
    562,   51.4748001,   135.822296,           0.
    563,   51.4730797,   140.516891,           0.
    564,   51.4675407,    145.21022,           0.
    565,   51.4556618,   149.902405,           0.
    566,   51.4321938,   154.602798,           0.
    567,   51.3697891,   159.347809,           0.
    568,   51.1810722,   164.104218,           0.
    569,    51.396698,   103.014877,           0.
    570,   4.78434515,   82.9520874,           0.
    571,   8.47189522,   114.420944,           0.
    572,    8.4603157,   124.211906,           0.
    573,   8.48409557,   104.620781,           0.
    574,   8.65702724,   94.8372421,           0.
    575,   8.63741779,   163.401382,           0.
    576,    8.4840517,   153.586411,           0.
    577,   8.47012329,   148.692261,           0.
    578,   9.02307796,   89.9673996,           0.
    579,   8.46331024,   119.316452,           0.
    580,   8.45833683,   129.108627,           0.
    581,   8.45816708,   134.005508,           0.
    582,   8.45908737,   138.902054,           0.
    583,   8.46194649,    143.79747,           0.
    584,   8.52045441,   99.7191772,           0.
    585,   8.47972584,   109.523338,           0.
    586,   8.53211498,    158.47551,           0.
    587,   22.3407974,   173.703796,           0.
    588,   34.8073273,    169.53125,           0.
    589,   44.9953995,   169.502609,           0.
    590,   17.3263206,   173.583969,           0.
    591,   12.3856258,   173.599823,           0.
    592,   8.21708775,   174.030258,           0.
    593,   29.8338776,   169.520462,           0.
    594,   39.9115601,   169.435028,           0.
    595,   50.4022331,   169.373611,           0.
    596,   9.33535004,   168.938904,           0.
    597,   13.0721769,   88.1222763,           0.
    598,   34.8270874,   92.6040955,           0.
    599,   29.8362103,   92.6316833,           0.
    600,   24.9806461,   92.6423874,           0.
    601,   17.5431843,   89.2564011,           0.
    602,   47.3424149,   119.422256,           0.
    603,   47.3789597,   128.782898,           0.
    604,   47.3637123,   124.098961,           0.
    605,   47.3811035,   133.475113,           0.
    606,   47.3794861,   138.167877,           0.
    607,   47.3723068,   142.858551,           0.
    608,   47.3569069,   147.546341,           0.
    609,    47.331852,   152.237427,           0.
    610,   47.2006035,   161.720703,           0.
    611,   47.3002052,   156.957199,           0.
    612,   47.2839165,    114.76564,           0.
    613,   47.1488075,   105.174316,           0.
    614,   47.2073593,   110.064728,           0.
    615,   12.6757498,   136.452667,           0.
    616,   12.6739569,   131.556915,           0.
    617,   12.6791935,   141.347046,           0.
    618,    12.675478,   126.661469,           0.
    619,   12.6807165,   121.767609,           0.
    620,   12.6921158,   116.875725,           0.
    621,    12.688858,   146.239288,           0.
    622,   12.7675123,   160.912125,           0.
    623,   12.7453775,   156.026276,           0.
    624,   12.7098608,   151.131332,           0.
    625,   12.7072048,    111.98008,           0.
    626,   12.7158966,   107.072678,           0.
    627,    12.726428,   102.153099,           0.
    628,   13.0054016,   92.3468323,           0.
    629,   12.8067522,   97.2273331,           0.
    630,   12.5352402,   165.252731,           0.
    631,   24.8711472,   169.364731,           0.
    632,   14.7628202,   169.074554,           0.
    633,   37.4224815,   165.225296,           0.
    634,   32.4209862,   165.256851,           0.
    635,   42.8085594,   164.638657,           0.
    636,   19.8446865,   169.103271,           0.
    637,   51.4519424,    174.20108,           0.
    638,   27.2094193,   96.7484741,           0.
    639,   32.1504745,   96.7888336,           0.
    640,   17.1841488,   164.087952,           0.
    641,    43.180687,   117.145523,           0.
    642,   43.0896568,   112.495377,           0.
    643,   20.8331852,   92.4182968,           0.
    644,   43.2480621,   149.834534,           0.
    645,   43.2540703,   145.182846,           0.
    646,   43.1029625,   154.544418,           0.
    647,   43.2670746,   140.504639,           0.
    648,   43.2734337,   135.818527,           0.
    649,   43.2723427,   131.131012,           0.
    650,   43.2317619,   121.787933,           0.
    651,   43.2575684,   126.453018,           0.
    652,   42.8181877,   107.636322,           0.
    653,   43.0432014,   159.366821,           0.
    654,   47.3175735,    165.86795,           0.
    655,   47.1192169,   99.6426239,           0.
    656,   40.2998123,   92.6581879,           0.
    657,   16.9205418,   114.440315,           0.
    658,   16.8960953,   143.785767,           0.
    659,   16.9179058,    148.67334,           0.
    660,   17.1597004,   94.6536407,           0.
    661,   16.8997955,   119.330772,           0.
    662,   16.9386482,   109.533127,           0.
    663,   16.8869743,   124.219765,           0.
    664,   16.8809166,   129.111221,           0.
    665,   16.8848057,   138.895615,           0.
    666,   16.8795052,   134.003708,           0.
    667,    17.078125,   158.652161,           0.
    668,   17.1045685,   153.664505,           0.
    669,   17.1135044,   99.6618423,           0.
    670,   16.9793682,   104.635201,           0.
    671,   27.4583187,   165.135574,           0.
    672,   35.0456619,   161.090652,           0.
    673,   39.3245926,   161.452805,           0.
    674,   22.5442123,   164.899139,           0.
    675,   21.9281693,   96.9693909,           0.
    676,   38.9820633,   114.861099,           0.
    677,   29.5637665,   100.819382,           0.
    678,   38.7062569,   110.206459,           0.
    679,   39.0662575,   119.501221,           0.
    680,    39.110714,   147.396301,           0.
    681,   38.9192772,     151.8974,           0.
    682,   39.1318779,    142.80101,           0.
    683,   39.1461334,   128.800797,           0.
    684,   39.1147041,   124.144089,           0.
    685,   39.1479187,   138.148041,           0.
    686,   39.1503754,   133.475494,           0.
    687,   38.1404343,   156.898499,           0.
    688,   42.6160011,   102.717827,           0.
    689,   37.1031113,    96.956398,           0.
    690,   21.2527122,   116.650047,           0.
    691,   21.1189976,   111.813835,           0.
    692,   21.2321892,   146.331009,           0.
    693,   21.3326454,   151.122604,           0.
    694,   21.2865086,   141.535324,           0.
    695,   21.4075069,   121.588707,           0.
    696,   21.4602871,   126.723892,           0.
    697,   21.3709717,   131.812057,           0.
    698,   21.3696003,     136.7603,           0.
    699,   22.0123863,   156.371979,           0.
    700,   30.0314121,   160.937805,           0.
    701,   21.2140369,   107.118423,           0.
    702,     21.42062,     102.2911,           0.
    703,   25.0563602,    160.81636,           0.
    704,   20.7750454,   160.965515,           0.
    705,   34.5960464,   112.672104,           0.
    706,   34.7607002,   117.379402,           0.
    707,   35.0211411,   121.995483,           0.
    708,   34.7176552,   149.435043,           0.
    709,   34.7847824,   144.901871,           0.
    710,   35.1259804,   126.428833,           0.
    711,   34.8492279,   140.300858,           0.
    712,   34.9761047,   130.940231,           0.
    713,   34.8700333,   135.587708,           0.
    714,   37.7852402,   105.124863,           0.
    715,   34.6055565,   100.908417,           0.
    716,    25.282444,   100.367447,           0.
    717,   25.5186081,   113.598038,           0.
    718,   25.9448681,   118.555374,           0.
    719,   25.6514111,   148.922577,           0.
    720,   25.7890511,   144.265091,           0.
    721,   26.8270931,   124.187813,           0.
    722,   25.9009953,   139.586411,           0.
    723,   26.1704197,   129.777252,           0.
    724,   25.3256569,    153.03125,           0.
    725,   25.9847603,   134.766266,           0.
    726,   32.6258659,   156.814743,           0.
    727,   24.7947769,   109.494759,           0.
    728,   41.8172913,   97.9510651,           0.
    729,   26.3290062,   105.009552,           0.
    730,   30.2040195,   115.387733,           0.
    731,   34.9063263,   153.429031,           0.
    732,    30.726223,   120.298218,           0.
    733,   30.2559261,   147.003204,           0.
    734,   30.3526344,   142.300568,           0.
    735,   31.7086201,   124.223595,           0.
    736,   30.8948288,   128.078888,           0.
    737,    30.419735,   137.576233,           0.
    738,   30.5526466,   132.787766,           0.
    739,   38.7854385,   100.731712,           0.
    740,   34.6229897,   108.595833,           0.
    741,   32.1230927,   105.065437,           0.
    742,   30.1408978,   152.182205,           0.
    743,   27.5320969,   156.692398,           0.
    744,   41.0102654,   87.9515152,           0.
    745,    51.796917,   98.9332199,           0.
    746,   29.7412205,   109.974777,           0.
    747,   44.8717461,   94.9639435,           0.
    748,   69.3480072,   65.5093613,           0.
    749,   63.7741547,   40.4965134,           0.
    750,   73.7544098,   69.9185791,           0.
    751,   64.0270996,   6.45013523,           0.
    752,   63.9916763,   11.6428308,           0.
    753,   63.8427696,   16.5975704,           0.
    754,   63.7880592,   21.4189758,           0.
    755,   63.7709846,   26.2033653,           0.
    756,   63.7663536,   30.9710789,           0.
    757,   63.7680931,   35.7341537,           0.
    758,   63.7885246,   45.2565498,           0.
    759,   63.8002129,   49.9995003,           0.
    760,   63.7896156,   54.7077789,           0.
    761,   63.7521973,   59.2883072,           0.
    762,   100.933594,   4.20102692,           0.
    763,    96.073822,   4.19670153,           0.
    764,   91.2153397,   4.19594669,           0.
    765,    86.356636,   4.19496393,           0.
    766,   81.4772644,   4.23141956,           0.
    767,    76.591774,   4.27786922,           0.
    768,   71.7728424,   4.26581097,           0.
    769,   128.049728,   73.7604218,           0.
    770,   128.383667,   58.9301186,           0.
    771,   128.410583,   54.2090263,           0.
    772,   128.422073,   49.4950447,           0.
    773,   128.426819,   44.7815208,           0.
    774,   128.428528,   40.0682373,           0.
    775,   128.428009,   35.3549194,           0.
    776,   128.425446,   30.6419048,           0.
    777,   128.421356,   25.9304123,           0.
    778,   128.406647,   21.2195454,           0.
    779,   128.352493,   16.4772663,           0.
    780,   128.194138,   11.5782719,           0.
    781,   128.139374,   6.40996313,           0.
    782,   120.144753,   75.9096298,           0.
    783,   95.3708725,   75.8321152,           0.
    784,    90.440834,   75.8107681,           0.
    785,   85.5648956,    75.741951,           0.
    786,    80.757515,   75.5918121,           0.
    787,   76.0451508,    75.290329,           0.
    788,   128.294052,   63.7035828,           0.
    789,   124.261658,   18.8736839,           0.
    790,   124.303406,   23.5845909,           0.
    791,   124.265823,   56.5814438,           0.
    792,   124.335655,   37.7126541,           0.
    793,   128.101578,   68.6242752,           0.
    794,   124.306801,   51.8530388,           0.
    795,   124.326141,   47.1372566,           0.
    796,   124.333107,   42.4243698,           0.
    797,   124.331581,   33.0012474,           0.
    798,   124.322128,   28.2923279,           0.
    799,   124.125946,   14.1203718,           0.
    800,   64.0977249,   63.7228508,           0.
    801,   67.9362946,   42.8597145,           0.
    802,   67.9742813,   52.3677216,           0.
    803,   67.9022141,   33.3505516,           0.
    804,   67.9030533,   28.5868645,           0.
    805,    67.912384,   23.7918644,           0.
    806,   67.9480133,   18.9664326,           0.
    807,   68.0706406,    14.132741,           0.
    808,   67.9655838,   47.6121979,           0.
    809,   67.8959427,   57.1296654,           0.
    810,   67.9142075,   38.1058693,           0.
    811,   105.799248,   4.23919201,           0.
    812,   93.6423416,   8.38589859,           0.
    813,   115.576996,   4.34779692,           0.
    814,    110.67852,    4.3057189,           0.
    815,   88.7814255,   8.38549232,           0.
    816,   83.9042282,   8.43992519,           0.
    817,   78.9664307,   8.61633873,           0.
    818,   98.5000305,   8.39159203,           0.
    819,   74.0375824,    8.6146822,           0.
    820,    120.40136,   4.30208588,           0.
    821,    124.48848,   3.90760064,           0.
    822,   115.224129,   75.8569641,           0.
    823,   88.0689316,   71.4116898,           0.
    824,   100.321541,    75.845993,           0.
    825,   105.275383,   75.8543701,           0.
    826,    92.947876,   71.4958572,           0.
    827,   83.2737045,   71.2588959,           0.
    828,   123.407318,   8.78057766,           0.
    829,   68.7739792,   8.76008701,           0.
    830,   67.4580078,   61.2123222,           0.
    831,   120.326698,    12.344758,           0.
    832,    120.22963,   44.7781105,           0.
    833,   120.235504,   40.0683937,           0.
    834,   120.214684,   30.6498547,           0.
    835,   120.206947,   49.4910355,           0.
    836,   120.228844,   35.3594933,           0.
    837,   120.167648,   25.9365215,           0.
    838,   120.160156,   54.2345314,           0.
    839,   120.104675,   16.4824066,           0.
    840,   120.112648,   21.1975994,           0.
    841,   124.164925,    61.350399,           0.
    842,   72.0586395,   26.1630669,           0.
    843,   72.0488129,   35.7183533,           0.
    844,   72.0477142,   30.9566174,           0.
    845,    72.066124,   21.3194752,           0.
    846,   72.0638657,   16.4897423,           0.
    847,   72.0787659,    40.459938,           0.
    848,   72.2419662,   54.9104576,           0.
    849,   72.1873703,   49.9930496,           0.
    850,   72.1289139,   45.2087593,           0.
    851,    103.35289,   8.43451691,           0.
    852,   118.115837,   8.67500877,           0.
    853,   113.161087,   8.70498466,           0.
    854,   91.1988678,   12.5665302,           0.
    855,   96.0636902,   12.5743904,           0.
    856,   86.3379288,   12.5983839,           0.
    857,   81.5232239,   12.7342377,           0.
    858,   76.3336029,    13.442441,           0.
    859,   108.215912,   8.52912617,           0.
    860,   117.844307,    71.562912,           0.
    861,   102.810837,   71.5445251,           0.
    862,   110.246941,    75.842865,           0.
    863,    85.654335,   66.9739456,           0.
    864,   90.5161438,   67.1063461,           0.
    865,   97.8723145,   71.5378723,           0.
    866,   123.976852,   66.1416016,           0.
    867,   78.6309738,   70.9835663,           0.
    868,   67.6833267,   3.89520669,           0.
    869,   123.221436,   71.4586716,           0.
    870,   77.0358963,   67.0712204,           0.
    871,   72.2201462,    60.515892,           0.
    872,   115.786118,   13.4830627,           0.
    873,    119.97628,   63.7644043,           0.
    874,   116.081352,   51.8760147,           0.
    875,   115.874138,   23.5453949,           0.
    876,   116.126183,   42.4199944,           0.
    877,   116.032227,   28.3197632,           0.
    878,   116.106194,   47.1347046,           0.
    879,   116.125565,     37.71492,           0.
    880,   115.889458,   18.7203712,           0.
    881,   116.098824,   33.0198097,           0.
    882,    120.08857,   59.0059624,           0.
    883,   76.2144318,   38.0617981,           0.
    884,   76.2705231,   42.7902451,           0.
    885,   76.2405548,   18.7625275,           0.
    886,   76.3220062,   23.6778049,           0.
    887,   76.1986313,   33.3197556,           0.
    888,   76.2279587,   28.5391979,           0.
    889,   76.4787216,   52.3772736,           0.
    890,   76.3557587,   47.5562019,           0.
    891,   71.8559341,   12.2879391,           0.
    892,   100.918434,   12.6085405,           0.
    893,    79.795845,   16.5490227,           0.
    894,    88.753212,   16.7566738,           0.
    895,   93.6263046,   16.7634163,           0.
    896,     83.94104,   16.7659149,           0.
    897,   110.563019,   12.7983646,           0.
    898,   105.760124,   12.6659355,           0.
    899,   112.816963,   71.4410172,           0.
    900,   124.317383,   76.2802277,           0.
    901,   100.333511,   67.2322922,           0.
    902,    107.78373,   71.4919586,           0.
    903,   87.9745407,   62.5671806,           0.
    904,   95.4174042,   67.2133636,           0.
    905,   116.000816,   61.4272804,           0.
    906,   111.965179,   49.5225906,           0.
    907,   80.4002762,   40.3750725,           0.
    908,   112.014496,   40.0661469,           0.
    909,   111.142944,   21.0146828,           0.
    910,   111.818024,   26.0683746,           0.
    911,   112.001404,   35.3793297,           0.
    912,   111.995499,   44.7780609,           0.
    913,   111.945839,   30.7074146,           0.
    914,    80.472847,    45.119381,           0.
    915,   80.3607941,   35.6439095,           0.
    916,   76.7087173,     57.33321,           0.
    917,   120.118843,   67.9281082,           0.
    918,   116.058792,   56.6549187,           0.
    919,    80.348587,   30.9037018,           0.
    920,    81.013237,   21.0439911,           0.
    921,   80.4106598,   26.1887856,           0.
    922,   80.5706711,   49.9190636,           0.
    923,   98.4941254,   16.7829628,           0.
    924,   74.0373154,   65.1152954,           0.
    925,   108.168129,   16.8041763,           0.
    926,   86.2694778,   20.9370346,           0.
    927,   91.1680679,   21.0303593,           0.
    928,   103.357834,   16.8020573,           0.
    929,   115.620972,   66.6482697,           0.
    930,   97.8397293,   62.9237328,           0.
    931,   105.295837,   67.0786057,           0.
    932,   92.9295273,   62.7636147,           0.
    933,   83.0481644,    62.590538,           0.
    934,   110.288536,   67.0285263,           0.
    935,   80.9118652,    66.906601,           0.
    936,   112.309937,   16.5641327,           0.
    937,   77.8116837,   62.6388016,           0.
    938,    112.02787,   59.1165886,           0.
    939,   84.5616074,   42.6999893,           0.
    940,   84.4974213,   37.9395523,           0.
    941,    107.86969,    47.154644,           0.
    942,   107.936989,   42.4256554,           0.
    943,   107.942848,   37.7198677,           0.
    944,   108.048958,   24.4034729,           0.
    945,   107.913795,   33.0302238,           0.
    946,   107.864029,   28.4044819,           0.
    947,   84.4215927,   33.2004433,           0.
    948,    84.607254,   47.5188255,           0.
    949,   111.957481,   54.3292656,           0.
    950,    84.381012,   28.5181179,           0.
    951,   96.0626831,    20.987896,           0.
    952,   88.5498123,   25.6717243,           0.
    953,   80.7287369,    54.754673,           0.
    954,   100.968803,   21.0452709,           0.
    955,   102.655258,    62.875042,           0.
    956,   84.1248398,   24.4719315,           0.
    957,   95.3962097,   58.3839455,           0.
    958,   90.4504013,   58.1542702,           0.
    959,   85.1447144,   57.6569786,           0.
    960,   107.833168,    62.187542,           0.
    961,   107.827393,   56.8715515,           0.
    962,   88.5465317,    40.248703,           0.
    963,   88.4362411,   35.4587975,           0.
    964,    103.94812,   44.7863503,           0.
    965,   88.5769043,   45.1220551,           0.
    966,   103.975029,   40.0631523,           0.
    967,   80.6884079,   58.9948425,           0.
    968,   103.974403,    35.324707,           0.
    969,   103.643593,   25.6272526,           0.
    970,   103.983574,   30.6712322,           0.
    971,   112.354271,   63.2816391,           0.
    972,   88.3140335,   30.7707367,           0.
    973,   107.739075,   51.9858551,           0.
    974,   93.7003632,   25.2580566,           0.
    975,   105.888374,   20.9494858,           0.
    976,   84.6798172,   52.3547134,           0.
    977,   98.4916916,   25.2561283,           0.
    978,   100.231125,   58.6907616,           0.
    979,   104.324867,   59.0367012,           0.
    980,   92.8840714,   53.2252235,           0.
    981,   88.3617783,   54.2783279,           0.
    982,    88.613266,   50.0245743,           0.
    983,   92.3853226,   37.7466888,           0.
    984,   103.167488,   54.5028114,           0.
    985,   92.4503326,   42.6407852,           0.
    986,    100.11911,   42.4505959,           0.
    987,   100.112946,   37.6545715,           0.
    988,   100.147026,   32.9012604,           0.
    989,   103.846107,   49.4457245,           0.
    990,   96.2727966,   40.1020546,           0.
    991,   100.374519,   51.0372047,           0.
    992,   96.2240295,   35.1923599,           0.
    993,   92.2217712,    32.975647,           0.
    994,    100.21505,   47.0790558,           0.
    995,    100.48333,   28.8571301,           0.
    996,   92.5878296,   47.6278496,           0.
    997,   96.1554947,   29.8994446,           0.
    998,   91.7882919,    28.915123,           0.
    999,   96.3858337,   44.9456444,           0.
   1000,   96.7536697,   49.7087975,           0.
   1001,   98.1345139,   54.2581253,           0.
   1002,   55.2243042,   6.53151369,           0.
   1003,   50.8170395,   65.1248703,           0.
   1004,   45.2595749,    70.505455,           0.
   1005,   43.2892838,   76.8661728,           0.
   1006,   55.4679375,   16.6829453,           0.
   1007,   55.4963074,   21.4429703,           0.
   1008,   55.5041351,   26.2073193,           0.
   1009,   55.5069618,   30.9717751,           0.
   1010,   55.5076942,   35.7362823,           0.
   1011,   55.5050583,   40.5003204,           0.
   1012,   55.4940338,   45.2626343,           0.
   1013,   55.4746895,   50.0254059,           0.
   1014,   55.4521103,   54.8434639,           0.
   1015,   55.4838333,   59.5046577,           0.
   1016,   55.3113747,   63.7714119,           0.
   1017,   6.33971596,    75.896698,           0.
   1018,   11.3886471,   75.9299011,           0.
   1019,   16.1589661,   76.0696106,           0.
   1020,   20.7869072,   76.0961761,           0.
   1021,   25.4088058,    76.089798,           0.
   1022,   30.0391788,   76.0732498,           0.
   1023,   34.7065353,   76.0695724,           0.
   1024,   39.3488846,   76.3352814,           0.
   1025,   4.53811121,    6.3875699,           0.
   1026,   4.22960758,   16.4485397,           0.
   1027,   4.11136389,   21.2034626,           0.
   1028,   4.09028864,   25.9248219,           0.
   1029,   4.08598566,   30.6400528,           0.
   1030,   4.08500528,   35.3541756,           0.
   1031,   4.08487272,   40.0681496,           0.
   1032,   4.08493423,   44.7822647,           0.
   1033,   4.08403587,   49.4963913,           0.
   1034,   4.08175182,   54.2104149,           0.
   1035,   4.07854795,   58.9243927,           0.
   1036,   4.15513182,    63.670681,           0.
   1037,   4.20401525,   68.3572235,           0.
   1038,   32.2932816,    4.2767148,           0.
   1039,   27.3266392,   4.27256727,           0.
   1040,   22.3602982,   4.26890755,           0.
   1041,   17.4344463,   4.25479889,           0.
   1042,   12.5114927,   4.23629475,           0.
   1043,   37.4205513,   72.1430817,           0.
   1044,   23.0650787,   72.0136566,           0.
   1045,   27.7299976,    71.985672,           0.
   1046,    18.417572,   71.9961548,           0.
   1047,   13.7721081,   71.8940811,           0.
   1048,   32.5170822,    71.984375,           0.
   1049,   4.48026228,   11.5472088,           0.
   1050,   8.17032051,   51.8554268,           0.
   1051,   8.14441967,   56.5453682,           0.
   1052,   8.29577923,   61.2973442,           0.
   1053,    8.3291769,   18.8466415,           0.
   1054,   8.20987129,   23.5665607,           0.
   1055,   8.18178272,   28.2830963,           0.
   1056,   8.17436218,   32.9972878,           0.
   1057,   8.17286777,   37.7111206,           0.
   1058,   8.17375565,   42.4253502,           0.
   1059,   8.17425346,   47.1402893,           0.
   1060,   8.38381577,   66.0881882,           0.
   1061,   51.2465286,   52.5571938,           0.
   1062,   51.3603325,    42.871357,           0.
   1063,    51.382843,   33.3540268,           0.
   1064,    55.273674,   11.7371778,           0.
   1065,   51.3705826,   23.8269329,           0.
   1066,   51.3785896,    28.591198,           0.
   1067,   51.3165588,   19.0562077,           0.
   1068,   51.3693314,   57.4070282,           0.
   1069,   51.3774223,   38.1141396,           0.
   1070,   51.3123856,   47.6646156,           0.
   1071,    37.272747,    4.2808671,           0.
   1072,   47.2702255,   4.34695816,           0.
   1073,   42.2918472,   4.31875563,           0.
   1074,   29.7986355,   8.52772713,           0.
   1075,   19.8212433,   8.64172363,           0.
   1076,   24.8257999,   8.53801346,           0.
   1077,   14.7831755,    8.6235075,           0.
   1078,   8.57068157,    71.247673,           0.
   1079,   15.9690914,   67.9313507,           0.
   1080,     35.08395,   67.8268356,           0.
   1081,   30.1429729,   67.8581009,           0.
   1082,    25.361845,   67.8729935,           0.
   1083,    20.648056,   67.9108582,           0.
   1084,   12.2661524,   40.0674362,           0.
   1085,   12.2671108,   35.3544083,           0.
   1086,   12.2805424,   30.6420975,           0.
   1087,   12.3451662,   25.9257145,           0.
   1088,    12.500761,   21.2025604,           0.
   1089,   12.2689056,   44.7822838,           0.
   1090,   12.2652197,   49.4980087,           0.
   1091,   12.2191191,   54.1743088,           0.
   1092,   12.2942057,   58.7791443,           0.
   1093,   13.0010681,   63.8016777,           0.
   1094,    8.5951786,   14.0758705,           0.
   1095,   42.2099571,   73.1105347,           0.
   1096,   47.2340202,   40.4765778,           0.
   1097,    47.252861,    35.729126,           0.
   1098,      47.2556,    30.975359,           0.
   1099,   47.2520752,   26.2172108,           0.
   1100,    47.222744,   21.4102249,           0.
   1101,   47.1776276,   45.2345657,           0.
   1102,   47.0855331,   55.0980911,           0.
   1103,   47.1084824,    50.078022,           0.
   1104,   51.1258736,    14.211236,           0.
   1105,    52.052578,   61.3017349,           0.
   1106,   3.82288265,   72.3264694,           0.
   1107,   9.39036751,    8.7207365,           0.
   1108,   34.7929573,   8.55549049,           0.
   1109,   51.4535522,   3.96858454,           0.
   1110,   44.9511642,   8.67930031,           0.
   1111,   27.2983246,   12.7536659,           0.
   1112,   22.3732738,   12.8466339,           0.
   1113,   17.0698452,   13.4810953,           0.
   1114,   39.8964348,   8.71759415,           0.
   1115,   50.3591919,   8.82654762,           0.
   1116,    11.939353,   68.1925964,           0.
   1117,   40.7626305,   67.9768524,           0.
   1118,   47.4375153,   60.7453423,           0.
   1119,   18.1489525,   63.8434219,           0.
   1120,   32.5046921,   63.6404457,           0.
   1121,   22.9334164,    63.708744,           0.
   1122,   27.7209721,    63.716629,           0.
   1123,   16.8144169,   23.5888939,           0.
   1124,   16.5547256,   28.3348408,           0.
   1125,   16.4135666,   33.0145988,           0.
   1126,   16.3728428,   37.7122841,           0.
   1127,    16.261467,   56.4483681,           0.
   1128,   16.3258133,    51.832943,           0.
   1129,    16.369873,   42.4227524,           0.
   1130,   16.3620167,   47.1356621,           0.
   1131,   47.2459908,   12.3596859,           0.
   1132,   12.6507549,    16.445179,           0.
   1133,   43.0602188,   42.8068657,           0.
   1134,   42.9716263,   47.5672035,           0.
   1135,   42.9940033,   23.7692928,           0.
   1136,    43.115448,   28.5949268,           0.
   1137,   43.1284027,   33.3514977,           0.
   1138,   43.1081505,   38.0829201,           0.
   1139,   42.7242737,   52.5326462,           0.
   1140,   47.1375961,    16.598711,           0.
   1141,   12.4978647,   12.2692785,           0.
   1142,   32.3384819,   12.7912426,           0.
   1143,   24.8159847,   16.9784775,           0.
   1144,    20.583519,   16.6521931,           0.
   1145,    42.742981,   13.5790339,           0.
   1146,   37.3754692,   12.9130983,           0.
   1147,    25.365387,   59.6662292,           0.
   1148,   30.0738621,   59.5757141,           0.
   1149,   46.0850601,   66.2649994,           0.
   1150,   38.8349495,   45.1436386,           0.
   1151,   20.7234974,   26.2052059,           0.
   1152,   20.7169781,   35.2351151,           0.
   1153,   20.6514301,   30.5942802,           0.
   1154,   20.7189903,   40.0394669,           0.
   1155,   38.8841591,    40.398735,           0.
   1156,   20.7269154,   44.8295364,           0.
   1157,   20.2493896,   54.2553368,           0.
   1158,   20.5382862,   49.6312637,           0.
   1159,   16.8977718,   18.7588882,           0.
   1160,   38.5695457,   49.9507179,           0.
   1161,   38.7512283,   26.3590412,           0.
   1162,   38.8355789,   31.0294514,           0.
   1163,   38.8149185,   35.6923332,           0.
   1164,   42.9455147,   18.8835316,           0.
   1165,     42.67416,   57.6220055,           0.
   1166,   29.8237514,   17.0589714,           0.
   1167,   21.6498299,   21.2297459,           0.
   1168,   39.2478638,   16.7095909,           0.
   1169,   34.8725281,   16.9908524,           0.
   1170,   20.3634663,   59.2221565,           0.
   1171,   16.0138321,   60.4189529,           0.
   1172,   8.26963902,   3.86892033,           0.
   1173,   37.9691734,   21.2661705,           0.
   1174,   27.6310883,   55.6525726,           0.
   1175,   34.4124527,   42.7524338,           0.
   1176,   34.3942909,   47.5858879,           0.
   1177,   24.1211624,   28.1182384,           0.
   1178,   25.7824707,   32.1147079,           0.
   1179,   25.3762722,   37.5788345,           0.
   1180,   34.3756332,   37.9642525,           0.
   1181,   25.2873306,   42.5462456,           0.
   1182,    25.148447,   47.5422668,           0.
   1183,   34.4360199,   28.8896351,           0.
   1184,   24.5079746,   52.3372688,           0.
   1185,   34.5297356,   33.3775711,           0.
   1186,   34.8325081,     59.47575,           0.
   1187,   37.8306427,    55.193924,           0.
   1188,   27.0667629,   21.3483276,           0.
   1189,   42.1976585,   62.6159973,           0.
   1190,    32.267765,   21.3361492,           0.
   1191,   24.5555096,    24.686985,           0.
   1192,   23.6234608,   56.2267113,           0.
   1193,   29.2022419,    26.574091,           0.
   1194,   29.8293552,   50.7811928,           0.
   1195,   29.8005428,   45.2370987,           0.
   1196,   29.8730564,   40.2481842,           0.
   1197,   30.1112232,   35.4271774,           0.
   1198,   30.8123379,   31.2766361,           0.
   1199,   34.5252838,   24.8850174,           0.
   1200,   32.4749451,   55.4028702,           0.
   1201,   34.6197548,   51.7829208,           0.
   1202,    37.386364,   63.5264893,           0.
   1203,   38.9842682,   59.6868324,           0.
*Element, type=S3
  1, 256,  76, 195
  2, 195,  13,  14
  3, 301, 300, 253
  4, 197, 196,  32
  5, 197,   3,  33
  6, 222,  56, 221
  7, 293, 256, 195
  8, 243,  17, 199
  9, 361, 359, 308
 10, 236,  69, 235
 11, 200, 199,  18
 12, 201, 200,  19
 13, 202, 201,  20
 14, 203, 202,  21
 15, 204,  23, 198
 16, 205, 198,  24
 17, 206, 205,  25
 18, 213,  37, 212
 19, 208, 207,  27
 20, 304, 303, 244
 21, 209,  31, 196
 22, 210, 208,  28
 23, 211,   2,  30
 24,  43,   4,  44
 25, 233,  44,  45
 26, 265, 232, 231
 27, 266, 230, 229
 28, 332, 292, 330
 29, 286,  41,  42
 30, 281,  38,  39
 31, 325, 278, 324
 32, 214,  36, 213
 33, 215,  35, 214
 34, 215,  34,  35
 35,  63,  62,   5
 36, 241,  62,  63
 37, 258, 238, 237
 38, 218,  60, 217
 39, 219,  59, 218
 40, 220,  58, 219
 41, 221,  57, 220
 42, 358, 357, 311
 43, 223,  55, 222
 44, 224,  54, 223
 45, 225,  53, 224
 46, 226,  52, 225
 47, 227,  51, 226
 48, 228,  50, 227
 49, 229,  49, 228
 50, 230,  48, 229
 51, 231,  47, 230
 52, 232,  46, 231
 53, 233,  45, 232
 54,  76,   1,  13
 55, 195,  76,  13
 56, 256, 234,  75
 57, 234,  74,  75
 58, 426, 396, 355
 59, 342, 338, 294
 60, 314, 308, 259
 61, 260,  72, 259
 62, 255,  70,  71
 63, 237,  68, 236
 64, 238,  67, 237
 65, 239,  66, 238
 66, 240,  65, 239
 67, 291, 276, 241
 68, 290,  15, 254
 69, 380, 293, 338
 70, 207, 206,  26
 71, 196,  31,  32
 72, 197,  32,   3
 73, 216,  33,  34
 74, 198,  23,  24
 75, 205,  24,  25
 76, 199,  17,  18
 77, 200,  18,  19
 78, 201,  19,  20
 79, 273, 267, 219
 80, 202,  20,  21
 81, 273, 219, 218
 82, 203,  21,  22
 83, 274, 220, 267
 84, 204, 203,  22
 85, 317, 272, 316
 86, 204,  22,  23
 87, 277, 270, 225
 88, 206,  25,  26
 89, 244, 207, 208
 90, 207,  26,  27
 91, 336, 212, 281
 92, 208,  27,  28
 93, 288, 213, 282
 94, 210,  28,  29
 95, 247, 244, 208
 96, 209,  30,  31
 97, 501, 196, 340
 98, 211, 210,  29
 99, 499, 211, 209
100, 211,  29,   2
101, 211,  30, 209
102, 212,  37,  38
103, 275, 226, 270
104, 366, 364, 325
105, 213,  36,  37
106, 288, 214, 213
107, 214,  35,  36
108, 289, 215, 283
109, 216,  34, 215
110, 339, 197, 216
111, 216, 197,  33
112, 217,  60,  61
113, 276,  62, 241
114, 389, 349, 387
115, 218,  59,  60
116, 249, 248, 200
117, 219,  58,  59
118, 250, 249, 201
119, 220,  57,  58
120, 296, 250, 295
121, 221,  56,  57
122, 251, 250, 202
123, 222,  55,  56
124, 252, 204, 245
125, 223,  54,  55
126, 277, 224, 268
127, 224,  53,  54
128, 300, 298, 245
129, 225,  52,  53
130, 253, 205, 242
131, 226,  51,  52
132, 275, 271, 227
133, 227,  50,  51
134, 278, 229, 228
135, 228,  49,  50
136, 279, 231, 230
137, 229,  48,  49
138, 377, 337, 331
139, 230,  47,  48
140, 286, 284,  41
141, 231,  46,  47
142, 292, 232, 265
143, 232,  45,  46
144, 287,  43, 233
145, 233,  43,  44
146, 254,  16, 243
147, 261,  74, 234
148, 235,  69,  70
149, 307, 235, 255
150, 262, 236, 257
151, 236,  68,  69
152, 319, 280, 315
153, 237,  67,  68
154, 263, 238, 258
155, 238,  66,  67
156, 264, 239, 263
157, 239,  65,  66
158, 291, 241, 240
159, 240,  64,  65
160, 241,  63,  64
161, 241,  64, 240
162, 242, 205, 206
163, 246, 206, 207
164, 243,  16,  17
165, 305, 199, 248
166, 247, 208, 210
167, 288, 283, 214
168, 245, 204, 198
169, 253, 245, 198
170, 246, 242, 206
171, 246, 207, 244
172, 499, 247, 210
173, 500, 339, 289
174, 248, 199, 200
175, 249, 200, 201
176, 250, 201, 202
177, 274, 269, 221
178, 251, 202, 203
179, 350, 349, 295
180, 252, 251, 203
181, 297, 295, 251
182, 252, 203, 204
183, 298, 297, 252
184, 253, 198, 205
185, 329, 275, 326
186, 338, 254, 294
187, 254,  15,  16
188, 255, 235,  70
189, 260,  71,  72
190, 256,  75,  76
191, 293, 195, 290
192, 262, 258, 237
193, 257, 236, 235
194, 319, 318, 273
195, 262, 237, 236
196, 259,  72,  73
197, 261, 259,  73
198, 495, 481, 488
199, 260, 255,  71
200, 261,  73,  74
201, 306, 234, 293
202, 311, 310, 258
203, 310, 309, 263
204, 291, 280, 217
205, 263, 239, 238
206, 315, 291, 264
207, 264, 240, 239
208, 364, 327, 325
209, 285,  40, 284
210, 271, 228, 227
211, 327, 266, 325
212, 299, 249, 296
213, 267, 220, 219
214, 268, 224, 223
215, 272, 223, 222
216, 269, 222, 221
217, 274, 221, 220
218, 270, 226, 225
219, 277, 225, 224
220, 302, 301, 242
221, 374, 329, 363
222, 272, 268, 223
223, 272, 222, 269
224, 280, 273, 218
225, 394, 370, 319
226, 357, 310, 311
227, 442, 407, 397
228, 275, 227, 226
229, 326, 270, 320
230, 276, 217,  61
231, 276,  61,  62
232, 323, 268, 317
233, 348, 300, 345
234, 278, 266, 229
235, 278, 228, 271
236, 279, 265, 231
237, 279, 230, 266
238, 280, 218, 217
239, 309, 264, 263
240, 281, 212,  38
241, 285,  39,  40
242, 303, 302, 246
243, 282, 213, 212
244, 344, 343, 303
245, 283, 215, 214
246, 284,  40,  41
247, 413, 376, 377
248, 328, 279, 327
249, 285, 281,  39
250, 287, 286,  42
251, 292, 286, 287
252, 287,  42,  43
253, 292, 287, 233
254, 457, 427, 447
255, 334, 333, 283
256, 500, 340, 339
257, 289, 216, 215
258, 290, 195,  14
259, 290,  14,  15
260, 291, 217, 276
261, 291, 240, 264
262, 292, 233, 232
263, 330, 265, 328
264, 293, 234, 256
265, 294, 254, 243
266, 305, 294, 243
267, 347, 342, 294
268, 295, 250, 251
269, 297, 251, 252
270, 321, 274, 267
271, 296, 249, 250
272, 298, 252, 245
273, 424, 388, 422
274, 300, 245, 253
275, 323, 320, 277
276, 475, 432, 420
277, 299, 248, 249
278, 301, 253, 242
279, 385, 345, 383
280, 302, 242, 246
281, 363, 326, 362
282, 303, 246, 244
283, 346, 302, 343
284, 304, 244, 247
285, 458, 441, 416
286, 499, 356, 247
287, 333, 289, 283
288, 305, 243, 199
289, 353, 248, 299
290, 314, 261, 306
291, 306, 261, 234
292, 307, 257, 235
293, 313, 255, 260
294, 308, 260, 259
295, 314, 259, 261
296, 310, 263, 258
297, 311, 258, 262
298, 312, 262, 257
299, 394, 309, 310
300, 312, 311, 262
301, 455, 424, 454
302, 354, 257, 307
303, 351, 296, 349
304, 313, 307, 255
305, 313, 260, 308
306, 380, 342, 355
307, 380, 355, 306
308, 315, 280, 291
309, 315, 264, 309
310, 316, 272, 269
311, 322, 269, 274
312, 352, 298, 348
313, 317, 268, 272
314, 321, 267, 318
315, 318, 267, 273
316, 319, 273, 280
317, 319, 315, 309
318, 320, 270, 277
319, 323, 277, 268
320, 372, 321, 318
321, 372, 318, 370
322, 322, 316, 269
323, 322, 274, 321
324, 388, 352, 386
325, 368, 317, 367
326, 324, 278, 271
327, 329, 271, 275
328, 377, 376, 337
329, 325, 266, 278
330, 326, 275, 270
331, 383, 346, 382
332, 332, 331, 284
333, 327, 279, 266
334, 341, 330, 328
335, 328, 265, 279
336, 476, 457, 474
337, 329, 324, 271
338, 341, 332, 330
339, 330, 292, 265
340, 337, 285, 331
341, 331, 285, 284
342, 332, 284, 286
343, 332, 286, 292
344, 334, 283, 288
345, 335, 288, 282
346, 335, 334, 288
347, 427, 344, 392
348, 379, 282, 336
349, 409, 391, 365
350, 336, 282, 212
351, 337, 336, 281
352, 337, 281, 285
353, 377, 331, 341
354, 338, 293, 290
355, 338, 290, 254
356, 339, 196, 197
357, 339, 216, 289
358, 441, 392, 356
359, 340, 196, 339
360, 341, 331, 332
361, 365, 327, 364
362, 347, 294, 305
363, 432, 384, 420
364, 343, 302, 303
365, 344, 303, 304
366, 392, 304, 356
367, 375, 333, 334
368, 345, 300, 301
369, 346, 345, 301
370, 346, 301, 302
371, 415, 375, 378
372, 353, 347, 305
373, 399, 361, 396
374, 479, 451, 478
375, 348, 298, 300
376, 349, 296, 295
377, 350, 295, 297
378, 352, 350, 297
379, 421, 385, 419
380, 371, 367, 316
381, 351, 299, 296
382, 352, 297, 298
383, 386, 348, 385
384, 353, 305, 248
385, 390, 299, 351
386, 354, 312, 257
387, 360, 307, 313
388, 361, 314, 355
389, 355, 314, 306
390, 356, 304, 247
391, 501, 441, 356
392, 358, 311, 312
393, 393, 312, 354
394, 475, 452, 461
395, 403, 402, 371
396, 359, 313, 308
397, 361, 308, 314
398, 360, 354, 307
399, 360, 313, 359
400, 426, 342, 347
401, 384, 347, 353
402, 362, 326, 320
403, 369, 320, 323
404, 382, 343, 381
405, 363, 329, 326
406, 366, 325, 324
407, 374, 366, 324
408, 365, 341, 328
409, 365, 328, 327
410, 406, 363, 400
411, 411, 410, 366
412, 367, 317, 316
413, 371, 316, 322
414, 404, 367, 402
415, 368, 323, 317
416, 369, 362, 320
417, 369, 323, 368
418, 370, 318, 319
419, 394, 319, 309
420, 373, 322, 321
421, 498, 484, 461
422, 407, 394, 357
423, 397, 357, 358
424, 373, 371, 322
425, 373, 321, 372
426, 374, 324, 329
427, 464, 435, 463
428, 378, 334, 335
429, 378, 375, 334
430, 413, 412, 376
431, 376, 336, 337
432, 391, 341, 365
433, 391, 377, 341
434, 414, 335, 379
435, 410, 409, 364
436, 379, 335, 282
437, 379, 336, 376
438, 380, 306, 293
439, 380, 338, 342
440, 411, 374, 406
441, 381, 343, 344
442, 418, 382, 417
443, 382, 346, 343
444, 419, 383, 418
445, 383, 345, 346
446, 390, 384, 353
447, 432, 431, 399
448, 401, 400, 362
449, 385, 348, 345
450, 437, 402, 436
451, 386, 352, 348
452, 387, 349, 350
453, 388, 387, 350
454, 388, 350, 352
455, 422, 386, 421
456, 439, 436, 403
457, 389, 351, 349
458, 390, 353, 299
459, 425, 351, 389
460, 409, 365, 364
461, 413, 377, 391
462, 500, 416, 340
463, 392, 344, 304
464, 393, 358, 312
465, 398, 354, 360
466, 394, 310, 357
467, 407, 357, 397
468, 395, 360, 359
469, 399, 359, 361
470, 396, 361, 355
471, 426, 355, 342
472, 408, 372, 407
473, 428, 358, 393
474, 398, 393, 354
475, 398, 360, 395
476, 420, 384, 390
477, 399, 395, 359
478, 400, 363, 362
479, 401, 362, 369
480, 405, 369, 368
481, 451, 419, 450
482, 402, 367, 371
483, 403, 371, 373
484, 408, 373, 372
485, 448, 439, 442
486, 468, 466, 436
487, 404, 368, 367
488, 405, 401, 369
489, 405, 368, 404
490, 435, 400, 433
491, 406, 374, 363
492, 407, 372, 370
493, 407, 370, 394
494, 460, 428, 430
495, 408, 403, 373
496, 410, 364, 366
497, 444, 410, 443
498, 472, 445, 412
499, 443, 411, 438
500, 411, 366, 374
501, 438, 406, 435
502, 469, 438, 464
503, 412, 379, 376
504, 413, 391, 409
505, 472, 409, 444
506, 414, 378, 335
507, 414, 379, 412
508, 458, 447, 427
509, 446, 378, 414
510, 416, 333, 375
511, 447, 375, 415
512, 417, 382, 381
513, 474, 447, 415
514, 485, 479, 478
515, 418, 383, 382
516, 450, 418, 449
517, 419, 385, 383
518, 425, 420, 390
519, 475, 461, 431
520, 434, 433, 401
521, 421, 386, 385
522, 490, 480, 487
523, 422, 388, 386
524, 423, 389, 387
525, 424, 423, 387
526, 424, 387, 388
527, 487, 480, 479
528, 425, 390, 351
529, 456, 389, 423
530, 426, 347, 384
531, 432, 426, 384
532, 427, 381, 344
533, 458, 427, 392
534, 428, 397, 358
535, 430, 393, 398
536, 429, 398, 395
537, 431, 429, 395
538, 430, 428, 393
539, 430, 398, 429
540, 431, 395, 399
541, 452, 420, 425
542, 432, 399, 396
543, 432, 396, 426
544, 433, 400, 401
545, 434, 401, 405
546, 440, 405, 404
547, 453, 421, 451
548, 486, 485, 478
549, 435, 406, 400
550, 436, 402, 403
551, 439, 403, 408
552, 454, 422, 453
553, 437, 404, 402
554, 470, 444, 443
555, 438, 411, 406
556, 442, 439, 408
557, 448, 442, 397
558, 440, 434, 405
559, 440, 404, 437
560, 501, 356, 209
561, 441, 340, 416
562, 442, 408, 407
563, 448, 397, 428
564, 471, 445, 470
565, 443, 410, 411
566, 472, 444, 470
567, 444, 409, 410
568, 491, 464, 486
569, 445, 414, 412
570, 446, 415, 378
571, 446, 414, 445
572, 447, 416, 375
573, 476, 474, 473
574, 496, 489, 483
575, 468, 439, 448
576, 449, 418, 417
577, 476, 417, 457
578, 463, 433, 462
579, 450, 419, 418
580, 478, 450, 477
581, 451, 421, 419
582, 456, 452, 425
583, 496, 482, 495
584, 465, 462, 434
585, 453, 422, 421
586, 489, 488, 466
587, 454, 424, 422
588, 481, 454, 480
589, 455, 423, 424
590, 456, 425, 389
591, 482, 423, 455
592, 457, 417, 381
593, 457, 381, 427
594, 458, 392, 441
595, 458, 416, 447
596, 459, 430, 429
597, 461, 459, 429
598, 460, 448, 428
599, 460, 430, 459
600, 461, 429, 431
601, 498, 482, 484
602, 462, 433, 434
603, 465, 434, 440
604, 491, 486, 477
605, 463, 435, 433
606, 493, 491, 492
607, 464, 438, 435
608, 467, 440, 437
609, 480, 453, 479
610, 466, 437, 436
611, 468, 436, 439
612, 467, 465, 440
613, 467, 437, 466
614, 497, 460, 483
615, 483, 460, 459
616, 493, 470, 469
617, 469, 443, 438
618, 472, 470, 445
619, 470, 443, 469
620, 493, 492, 471
621, 471, 446, 445
622, 472, 412, 413
623, 472, 413, 409
624, 473, 415, 446
625, 473, 446, 471
626, 474, 457, 447
627, 474, 415, 473
628, 475, 431, 432
629, 475, 420, 452
630, 494, 491, 477
631, 476, 449, 417
632, 477, 450, 449
633, 494, 476, 492
634, 486, 478, 477
635, 478, 451, 450
636, 487, 485, 462
637, 479, 453, 451
638, 490, 467, 488
639, 480, 454, 453
640, 490, 481, 480
641, 481, 455, 454
642, 482, 456, 423
643, 495, 488, 489
644, 497, 483, 489
645, 484, 483, 459
646, 484, 459, 461
647, 498, 461, 452
648, 485, 463, 462
649, 487, 462, 465
650, 486, 464, 463
651, 486, 463, 485
652, 490, 488, 481
653, 487, 479, 485
654, 488, 467, 466
655, 489, 466, 468
656, 497, 489, 468
657, 496, 495, 489
658, 490, 487, 465
659, 490, 465, 467
660, 494, 492, 491
661, 491, 469, 464
662, 492, 476, 473
663, 492, 473, 471
664, 493, 471, 470
665, 493, 469, 491
666, 494, 477, 449
667, 494, 449, 476
668, 495, 482, 455
669, 495, 455, 481
670, 496, 483, 484
671, 496, 484, 482
672, 497, 468, 448
673, 497, 448, 460
674, 498, 452, 456
675, 498, 456, 482
676, 499, 210, 211
677, 499, 209, 356
678, 500, 289, 333
679, 500, 333, 416
680, 501, 209, 196
681, 501, 340, 441
 682, 507,   2,  29
 683, 612, 559, 602
 684, 547, 118, 507
 685, 570, 106,   7
 686, 551, 502, 503
 687, 745, 507, 523
 688,  13,   1,  77
 689, 509,  13,  77
 690, 546,  79, 545
 691, 510,  15,  14
 692, 511,  16,  15
 693, 512,  17,  16
 694, 609, 608, 565
 695, 514,  18, 513
 696, 515,  19, 514
 697, 516,  20, 515
 698, 517,  21, 516
 699, 518,  22, 517
 700, 695, 661, 690
 701, 520,  25, 508
 702, 521,  26, 520
 703, 522,  27, 521
 704, 523,  29,  28
 705,  88,  87,   6
 706, 541,  88,  89
 707, 640, 636, 632
 708, 586, 538, 576
 709, 577, 576, 537
 710, 590, 587,  84
 711, 587,  83,  84
 712, 640, 632, 630
 713, 672, 633, 634
 714, 594, 544, 588
 715, 637,  77,  78
 716, 570,   7, 107
 717, 570, 524, 106
 718, 578, 524, 552
 719, 504, 112, 113
 720, 527, 103, 526
 721, 528, 102, 527
 722, 599, 555, 598
 723, 530, 100, 529
 724, 661, 620, 657
 725, 580, 532, 572
 726, 581, 533, 580
 727, 582, 534, 581
 728, 534,  96, 533
 729, 648, 606, 647
 730, 537,  93, 536
 731, 538,  92, 537
 732, 539,  91, 538
 733, 540,  90, 539
 734, 541,  89, 540
 735, 552, 108, 109
 736, 553, 110, 502
 737, 502, 110, 111
 738, 503, 111, 112
 739, 550, 505, 506
 740, 503, 502, 111
 741, 504, 503, 112
 742, 506, 505, 114
 743, 549,   8, 116
 744, 526, 104, 525
 745, 525, 105, 524
 746, 505, 113, 114
 747, 660, 601, 643
 748, 505, 504, 113
 749, 744, 656, 550
 750, 506, 114, 115
 751, 548, 117, 547
 752, 549, 506, 115
 753, 548, 116, 117
 754, 507, 118,   2
 755, 521,  27,  26
 756, 508,  25,  24
 757, 519,  24,  23
 758, 510,  14, 509
 759, 509,  14,  13
 760, 545,  80, 544
 761, 511,  15, 510
 762, 544,  81, 543
 763, 512,  16, 511
 764, 543,  82, 542
 765, 513,  17, 512
 766, 536,  94, 535
 767, 513,  18,  17
 768, 535,  95, 534
 769, 514,  19,  18
 770, 533,  97, 532
 771, 515,  20,  19
 772, 532,  98, 531
 773, 516,  21,  20
 774, 531,  99, 530
 775, 517,  22,  21
 776, 519,  23, 518
 777, 518,  23,  22
 778, 579, 530, 571
 779, 519, 508,  24
 780, 626, 625, 585
 781, 520,  26,  25
 782, 639, 638, 599
 783, 522,  28,  27
 784, 558, 521, 557
 785, 523,  28, 522
 786, 529, 101, 528
 787, 523, 507,  29
 788, 524, 105, 106
 789, 570, 552, 524
 790, 597, 578, 552
 791, 525, 104, 105
 792, 526, 103, 104
 793, 584, 526, 574
 794, 747, 655, 728
 795, 527, 102, 103
 796, 614, 557, 612
 797, 528, 101, 102
 798, 559, 557, 520
 799, 529, 100, 101
 800, 560, 519, 556
 801, 530,  99, 100
 802, 561, 556, 518
 803, 531,  98,  99
 804, 562, 561, 517
 805, 532,  97,  98
 806, 563, 562, 516
 807, 533,  96,  97
 808, 564, 563, 515
 809, 534,  95,  96
 810, 565, 564, 514
 811, 535,  94,  95
 812, 566, 565, 513
 813, 536,  93,  94
 814, 632, 596, 630
 815, 537,  92,  93
 816, 576, 538, 537
 817, 538,  91,  92
 818, 591, 590,  85
 819, 539,  90,  91
 820, 596, 540, 575
 821, 540,  89,  90
 822, 592,  87, 541
 823, 541,  87,  88
 824, 567, 566, 512
 825, 542,  82,  83
 826, 568, 567, 511
 827, 543,  81,  82
 828, 654, 610, 568
 829, 544,  80,  81
 830, 637, 595, 509
 831, 545,  79,  80
 832, 637, 546, 595
 833, 546,  78,  79
 834, 547, 117, 118
 835, 569, 522, 558
 836, 744, 550, 506
 837, 744, 549, 548
 838, 549, 115,   8
 839, 549, 116, 548
 840, 554, 551, 503
 841, 555, 505, 550
 842, 554, 503, 504
 843, 555, 504, 505
 844, 553, 109, 110
 845, 553, 552, 109
 846, 601, 502, 551
 847, 628, 578, 597
 848, 555, 554, 504
 849, 600, 554, 599
 850, 655, 569, 613
 851, 688, 655, 613
 852, 556, 519, 518
 853, 561, 518, 517
 854, 557, 521, 520
 855, 559, 520, 508
 856, 652, 614, 642
 857, 558, 522, 521
 858, 560, 559, 508
 859, 651, 603, 649
 860, 560, 508, 519
 861, 619, 618, 572
 862, 562, 517, 516
 863, 618, 616, 580
 864, 563, 516, 515
 865, 616, 615, 581
 866, 564, 515, 514
 867, 682, 645, 680
 868, 565, 514, 513
 869, 607, 606, 563
 870, 566, 513, 512
 871, 608, 607, 564
 872, 567, 512, 511
 873, 588, 544, 543
 874, 568, 511, 510
 875, 594, 589, 545
 876, 595, 568, 510
 877, 589, 546, 545
 878, 745, 569, 655
 879, 569, 523, 522
 880, 570, 107, 108
 881, 570, 108, 552
 882, 571, 530, 529
 883, 585, 529, 528
 884, 572, 532, 531
 885, 579, 572, 531
 886, 573, 528, 527
 887, 584, 527, 526
 888, 574, 526, 525
 889, 578, 574, 525
 890, 575, 540, 539
 891, 586, 539, 538
 892, 577, 537, 536
 893, 742, 719, 733
 894, 583, 536, 535
 895, 742, 733, 708
 896, 578, 525, 524
 897, 597, 552, 553
 898, 579, 531, 530
 899, 620, 619, 579
 900, 605, 603, 561
 901, 580, 533, 532
 902, 606, 605, 562
 903, 581, 534, 533
 904, 617, 582, 615
 905, 582, 535, 534
 906, 583, 577, 536
 907, 583, 535, 582
 908, 670, 627, 669
 909, 584, 573, 527
 910, 585, 571, 529
 911, 585, 528, 573
 912, 624, 577, 621
 913, 586, 575, 539
 914, 587, 542,  83
 915, 590,  84,  85
 916, 593, 543, 542
 917, 593, 588, 543
 918, 654, 595, 589
 919, 594, 545, 544
 920, 591,  85,  86
 921, 674, 636, 640
 922, 592, 591,  86
 923, 596, 591, 592
 924, 592,  86,  87
 925, 596, 592, 541
 926, 631, 542, 587
 927, 623, 622, 586
 928, 646, 644, 609
 929, 635, 589, 594
 930, 595, 510, 509
 931, 595, 546, 589
 932, 596, 541, 540
 933, 630, 575, 622
 934, 601, 597, 553
 935, 660, 628, 601
 936, 598, 555, 550
 937, 613, 569, 558
 938, 627, 626, 573
 939, 599, 554, 555
 940, 629, 574, 628
 941, 600, 551, 554
 942, 601, 553, 502
 943, 643, 551, 600
 944, 602, 559, 560
 945, 604, 560, 556
 946, 603, 556, 561
 947, 605, 561, 562
 948, 604, 602, 560
 949, 604, 556, 603
 950, 606, 562, 563
 951, 649, 605, 648
 952, 607, 563, 564
 953, 647, 607, 645
 954, 608, 564, 565
 955, 621, 583, 617
 956, 609, 565, 566
 957, 687, 653, 673
 958, 611, 566, 567
 959, 653, 646, 611
 960, 610, 567, 568
 961, 633, 594, 588
 962, 611, 609, 566
 963, 611, 567, 610
 964, 625, 620, 571
 965, 612, 557, 559
 966, 614, 613, 558
 967, 662, 657, 625
 968, 614, 558, 557
 969, 642, 612, 641
 970, 615, 582, 581
 971, 616, 581, 580
 972, 618, 580, 572
 973, 723, 696, 721
 974, 645, 608, 644
 975, 617, 583, 582
 976, 619, 572, 579
 977, 663, 619, 661
 978, 620, 579, 571
 979, 706, 705, 676
 980, 625, 571, 585
 981, 679, 676, 641
 982, 709, 680, 708
 983, 621, 577, 583
 984, 622, 575, 586
 985, 623, 586, 576
 986, 624, 623, 576
 987, 668, 624, 659
 988, 624, 576, 577
 989, 659, 621, 658
 990, 626, 585, 573
 991, 691, 690, 657
 992, 627, 573, 584
 993, 638, 600, 599
 994, 629, 584, 574
 995, 669, 629, 660
 996, 628, 574, 578
 997, 628, 597, 601
 998, 675, 643, 600
 999, 629, 627, 584
1000, 640, 630, 622
1001, 630, 596, 575
1002, 631, 593, 542
1003, 636, 587, 590
1004, 632, 590, 591
1005, 632, 591, 596
1006, 634, 588, 593
1007, 634, 633, 588
1008, 671, 593, 631
1009, 699, 668, 693
1010, 654, 635, 610
1011, 635, 594, 633
1012, 636, 631, 587
1013, 636, 590, 632
1014, 637, 509,  77
1015, 637,  78, 546
1016, 639, 599, 598
1017, 727, 717, 691
1018, 689, 598, 656
1019, 678, 642, 676
1020, 667, 622, 623
1021, 704, 674, 640
1022, 641, 612, 602
1023, 650, 602, 604
1024, 740, 678, 705
1025, 642, 614, 612
1026, 643, 601, 551
1027, 675, 600, 638
1028, 644, 608, 609
1029, 646, 609, 611
1030, 665, 658, 617
1031, 645, 607, 608
1032, 653, 611, 610
1033, 687, 681, 646
1034, 711, 682, 709
1035, 647, 606, 607
1036, 666, 616, 664
1037, 648, 605, 606
1038, 664, 618, 663
1039, 649, 603, 605
1040, 650, 641, 602
1041, 651, 650, 604
1042, 651, 604, 603
1043, 718, 690, 717
1044, 714, 688, 652
1045, 652, 613, 614
1046, 653, 610, 635
1047, 673, 635, 633
1048, 654, 568, 595
1049, 654, 589, 635
1050, 739, 728, 688
1051, 745, 655, 547
1052, 656, 598, 550
1053, 747, 728, 656
1054, 657, 620, 625
1055, 662, 625, 626
1056, 658, 621, 617
1057, 665, 617, 615
1058, 693, 659, 692
1059, 659, 624, 621
1060, 675, 669, 660
1061, 660, 629, 628
1062, 721, 695, 718
1063, 661, 619, 620
1064, 670, 626, 627
1065, 715, 639, 689
1066, 696, 663, 695
1067, 663, 618, 619
1068, 738, 737, 725
1069, 664, 616, 618
1070, 666, 665, 615
1071, 685, 647, 682
1072, 666, 615, 616
1073, 697, 664, 696
1074, 667, 640, 622
1075, 668, 667, 623
1076, 668, 623, 624
1077, 742, 731, 726
1078, 702, 669, 675
1079, 669, 627, 629
1080, 702, 701, 670
1081, 670, 662, 626
1082, 671, 634, 593
1083, 674, 671, 631
1084, 681, 680, 644
1085, 700, 634, 671
1086, 673, 653, 635
1087, 673, 633, 672
1088, 674, 631, 636
1089, 704, 703, 674
1090, 675, 660, 643
1091, 716, 702, 675
1092, 676, 642, 641
1093, 679, 641, 650
1094, 702, 670, 669
1095, 677, 638, 639
1096, 678, 652, 642
1097, 746, 717, 727
1098, 684, 650, 651
1099, 707, 706, 679
1100, 680, 645, 644
1101, 681, 644, 646
1102, 687, 646, 653
1103, 733, 719, 720
1104, 694, 692, 658
1105, 682, 647, 645
1106, 683, 651, 649
1107, 686, 649, 648
1108, 684, 679, 650
1109, 684, 651, 683
1110, 725, 697, 723
1111, 685, 648, 647
1112, 686, 683, 649
1113, 686, 648, 685
1114, 687, 673, 672
1115, 726, 687, 672
1116, 739, 714, 715
1117, 688, 613, 652
1118, 689, 639, 598
1119, 728, 689, 656
1120, 690, 661, 657
1121, 691, 657, 662
1122, 701, 691, 662
1123, 741, 714, 740
1124, 692, 659, 658
1125, 694, 658, 665
1126, 724, 693, 719
1127, 693, 668, 659
1128, 698, 665, 666
1129, 734, 720, 722
1130, 710, 707, 684
1131, 695, 663, 661
1132, 712, 710, 683
1133, 696, 664, 663
1134, 713, 685, 711
1135, 697, 666, 664
1136, 698, 694, 665
1137, 698, 666, 697
1138, 704, 699, 703
1139, 699, 667, 668
1140, 700, 672, 634
1141, 703, 700, 671
1142, 701, 662, 670
1143, 746, 730, 717
1144, 716, 675, 638
1145, 729, 702, 716
1146, 703, 671, 674
1147, 743, 699, 724
1148, 704, 640, 667
1149, 704, 667, 699
1150, 705, 678, 676
1151, 706, 676, 679
1152, 707, 679, 684
1153, 730, 718, 717
1154, 710, 684, 683
1155, 732, 721, 718
1156, 708, 680, 681
1157, 731, 687, 726
1158, 720, 719, 692
1159, 709, 682, 680
1160, 712, 683, 686
1161, 736, 721, 735
1162, 722, 720, 694
1163, 711, 685, 682
1164, 713, 712, 686
1165, 738, 725, 723
1166, 713, 686, 685
1167, 737, 722, 725
1168, 714, 652, 678
1169, 740, 714, 678
1170, 715, 677, 639
1171, 739, 715, 689
1172, 716, 638, 677
1173, 729, 727, 701
1174, 717, 690, 691
1175, 727, 691, 701
1176, 732, 718, 730
1177, 718, 695, 690
1178, 719, 693, 692
1179, 720, 692, 694
1180, 722, 694, 698
1181, 734, 733, 720
1182, 735, 721, 732
1183, 721, 696, 695
1184, 738, 723, 736
1185, 737, 734, 722
1186, 736, 723, 721
1187, 723, 697, 696
1188, 743, 703, 699
1189, 724, 699, 693
1190, 725, 722, 698
1191, 725, 698, 697
1192, 726, 672, 700
1193, 743, 726, 700
1194, 729, 701, 702
1195, 746, 729, 741
1196, 747, 656, 548
1197, 728, 655, 688
1198, 729, 716, 677
1199, 746, 741, 740
1200, 730, 705, 706
1201, 732, 730, 706
1202, 731, 708, 681
1203, 731, 681, 687
1204, 732, 706, 707
1205, 735, 732, 707
1206, 733, 709, 708
1207, 742, 708, 731
1208, 734, 711, 709
1209, 734, 709, 733
1210, 735, 707, 710
1211, 736, 735, 710
1212, 736, 710, 712
1213, 738, 736, 712
1214, 737, 713, 711
1215, 737, 711, 734
1216, 738, 712, 713
1217, 738, 713, 737
1218, 739, 689, 728
1219, 739, 688, 714
1220, 746, 740, 705
1221, 741, 715, 714
1222, 741, 729, 677
1223, 741, 677, 715
1224, 743, 742, 726
1225, 742, 724, 719
1226, 743, 700, 703
1227, 743, 724, 742
1228, 744, 506, 549
1229, 744, 548, 656
1230, 745, 547, 507
1231, 745, 523, 569
1232, 746, 705, 730
1233, 746, 727, 729
1234, 747, 548, 547
1235, 747, 547, 655
1236,  800,    9,  119
1237,  830,  800,  761
1238,  848,  809,  802
1239,  838,  835,  794
1240,  808,  802,  759
1241,  900,   43,   42
1242,  131,   10,  132
1243,  751,  131,  132
1244,  768,  134,  767
1245,  752,  129,  130
1246,  753,  128,  129
1247,  754,  127,  128
1248,  755,  126,  127
1249,  845,  805,  806
1250,  855,  854,  812
1251,  758,  123,  749
1252,  759,  122,  758
1253,  760,  121,  759
1254,  761,  119,  120
1255,  145,   11,  146
1256,  781,  146,  147
1257,  789,  779,  778
1258,  790,  778,  777
1259,  840,  790,  837
1260,  820,  143,  144
1261,  811,  140,  141
1262,  804,  756,  755
1263,  804,  803,  756
1264,  812,  764,  763
1265,  845,  842,  805
1266,  766,  136,  765
1267,  893,  885,  858
1268,  868,  132,  133
1269,   43,  161,    4
1270,  769,  161,   43
1271,  782,   42,   41
1272,  788,  770,  158
1273,  788,  158,  159
1274,  771,  157,  770
1275,  772,  156,  771
1276,  773,  155,  772
1277,  774,  154,  773
1278,  775,  153,  774
1279,  776,  152,  775
1280,  777,  151,  776
1281,  778,  150,  777
1282,  779,  149,  778
1283,  780,  148,  779
1284,  781,  147,  780
1285,  917,  873,  866
1286,  841,  791,  770
1287,  825,   39,   38
1288,  825,   38,  824
1289,  824,   37,  783
1290,  783,   37,   36
1291,  784,  783,   36
1292,  785,  784,   35
1293,  787,  786,   33
1294,  867,  787,  750
1295,  787,    3,  162
1296,  748,  163,  164
1297,  791,  771,  770
1298,  749,  123,  124
1299,  757,  124,  125
1300,  750,  162,  163
1301,  750,  163,  748
1302,  752,  130,  751
1303,  751,  130,  131
1304,  767,  135,  766
1305,  753,  129,  752
1306,  765,  137,  764
1307,  754,  128,  753
1308,  764,  138,  763
1309,  755,  127,  754
1310,  818,  812,  763
1311,  756,  126,  755
1312,  757,  125,  756
1313,  756,  125,  126
1314,  763,  139,  762
1315,  757,  749,  124
1316,  808,  758,  801
1317,  758,  122,  123
1318,  808,  759,  758
1319,  759,  121,  122
1320,  809,  760,  802
1321,  760,  120,  121
1322,  800,  748,  164
1323,  761,  120,  760
1324,  762,  139,  140
1325,  792,  775,  774
1326,  805,  804,  755
1327,  763,  138,  139
1328,  806,  805,  754
1329,  764,  137,  138
1330,  807,  806,  753
1331,  765,  136,  137
1332,  868,  829,  751
1333,  766,  135,  136
1334,  817,  766,  816
1335,  767,  134,  135
1336,  868,  768,  829
1337,  768,  133,  134
1338,  793,  788,  159
1339,  769,  160,  161
1340,  770,  157,  158
1341,  984,  979,  978
1342,  794,  771,  791
1343,  771,  156,  157
1344,  795,  772,  794
1345,  772,  155,  156
1346,  835,  832,  795
1347,  773,  154,  155
1348,  911,  879,  908
1349,  774,  153,  154
1350,  797,  776,  775
1351,  775,  152,  153
1352,  790,  789,  778
1353,  776,  151,  152
1354,  814,  142,  813
1355,  777,  150,  151
1356,  820,  813,  143
1357,  778,  149,  150
1358,  799,  779,  789
1359,  779,  148,  149
1360,  828,  780,  799
1361,  780,  147,  148
1362,  821,  145,  781
1363,  781,  145,  146
1364,  900,  782,  869
1365,  822,   41,   40
1366,  784,   36,   35
1367,  935,  867,  870
1368,  785,   35,   34
1369,  823,  784,  785
1370,  786,  785,   34
1371,  827,  785,  786
1372,  786,   34,   33
1373,  827,  823,  785
1374,  787,   33,    3
1375,  787,  162,  750
1376,  793,  159,  160
1377,  917,  869,  860
1378,  798,  777,  776
1379,  872,  852,  831
1380,  797,  775,  792
1381,  897,  853,  872
1382,  841,  770,  788
1383,  935,  827,  867
1384,  796,  774,  773
1385,  907,  884,  883
1386,  793,  160,  769
1387,  900,  869,  769
1388,  833,  796,  832
1389,  794,  772,  771
1390,  847,  810,  843
1391,  795,  773,  772
1392,  796,  792,  774
1393,  796,  773,  795
1394,  919,  915,  887
1395,  836,  792,  833
1396,  798,  790,  777
1397,  798,  776,  797
1398,  852,  828,  831
1399,  799,  780,  779
1400,  800,  164,    9
1401,  800,  119,  761
1402,  801,  758,  749
1403,  810,  749,  757
1404,  967,  953,  959
1405,  802,  760,  759
1406,  803,  757,  756
1407,  854,  815,  812
1408,  805,  755,  754
1409,  815,  764,  812
1410,  806,  754,  753
1411,  816,  765,  815
1412,  807,  753,  752
1413,  920,  885,  893
1414,  829,  807,  752
1415,  819,  768,  767
1416,  850,  801,  847
1417,  849,  848,  802
1418,  871,  809,  848
1419,  809,  761,  760
1420,  810,  801,  749
1421,  810,  757,  803
1422,  811,  762,  140
1423,  814,  141,  142
1424,  818,  763,  762
1425,  997,  992,  993
1426,  813,  142,  143
1427,  872,  831,  839
1428,  853,  813,  852
1429,  814,  811,  141
1430,  846,  845,  806
1431,  815,  765,  764
1432,  856,  815,  854
1433,  816,  766,  765
1434,  857,  816,  856
1435,  817,  767,  766
1436,  851,  762,  811
1437,  837,  798,  834
1438,  891,  829,  819
1439,  819,  767,  817
1440,  821,  820,  144
1441,  828,  821,  781
1442,  821,  144,  145
1443,  828,  781,  780
1444,  822,  782,   41
1445,  862,   40,   39
1446,  826,  784,  823
1447,  937,  871,  916
1448,  824,   38,   37
1449,  865,  783,  826
1450,  902,  862,  825
1451,  902,  825,  861
1452,  979,  960,  955
1453,  826,  783,  784
1454,  867,  827,  786
1455,  871,  748,  830
1456,  831,  828,  799
1457,  828,  820,  821
1458,  829,  752,  751
1459,  829,  768,  819
1460,  830,  748,  800
1461,  830,  761,  809
1462,  839,  799,  789
1463,  936,  897,  872
1464,  832,  796,  795
1465,  835,  795,  794
1466,  947,  940,  915
1467,  833,  792,  796
1468,  834,  798,  797
1469,  836,  834,  797
1470,  838,  794,  791
1471,  937,  933,  935
1472,  836,  797,  792
1473,  879,  833,  876
1474,  909,  880,  875
1475,  837,  790,  798
1476,  882,  841,  873
1477,  861,  825,  824
1478,  839,  831,  799
1479,  840,  839,  789
1480,  840,  789,  790
1481,  936,  909,  925
1482,  866,  788,  793
1483,  860,  782,  822
1484,  844,  804,  842
1485,  842,  804,  805
1486,  843,  810,  803
1487,  844,  843,  803
1488,  844,  803,  804
1489,  888,  842,  886
1490,  846,  806,  807
1491,  894,  856,  854
1492,  891,  846,  807
1493,  858,  819,  817
1494,  890,  850,  884
1495,  847,  801,  810
1496,  961,  938,  960
1497,  849,  802,  808
1498,  850,  849,  808
1499,  914,  884,  907
1500,  850,  808,  801
1501,  884,  847,  883
1502,  851,  818,  762
1503,  859,  811,  814
1504,  852,  813,  820
1505,  852,  820,  828
1506,  872,  853,  852
1507,  853,  814,  813
1508,  855,  812,  818
1509,  926,  920,  896
1510,  892,  818,  851
1511,  877,  875,  837
1512,  885,  846,  858
1513,  856,  816,  815
1514,  893,  858,  857
1515,  857,  817,  816
1516,  891,  858,  846
1517,  858,  817,  857
1518,  859,  851,  811
1519,  859,  814,  853
1520,  899,  822,  862
1521,  929,  905,  873
1522,  865,  824,  783
1523,  904,  901,  865
1524,  862,  822,   40
1525,  862,   39,  825
1526,  864,  823,  863
1527,  863,  823,  827
1528,  918,  882,  905
1529,  864,  826,  823
1530,  865,  861,  824
1531,  904,  826,  864
1532,  866,  841,  788
1533,  869,  866,  793
1534,  867,  786,  787
1535,  870,  867,  750
1536,  868,  751,  132
1537,  868,  133,  768
1538,  869,  793,  769
1539,  869,  782,  860
1540,  924,  750,  748
1541,  953,  889,  922
1542,  871,  830,  809
1543,  916,  848,  889
1544,  880,  839,  840
1545,  975,  925,  909
1546,  960,  934,  931
1547,  873,  841,  866
1548,  878,  835,  874
1549,  874,  835,  838
1550,  875,  840,  837
1551,  877,  837,  834
1552,  876,  833,  832
1553,  878,  876,  832
1554,  881,  834,  836
1555,  940,  939,  907
1556,  878,  832,  835
1557,  922,  890,  914
1558,  879,  836,  833
1559,  945,  911,  943
1560,  880,  872,  839
1561,  880,  840,  875
1562,  881,  877,  834
1563,  881,  836,  879
1564,  882,  838,  791
1565,  882,  791,  841
1566,  883,  847,  843
1567,  887,  843,  844
1568,  912,  878,  906
1569,  884,  850,  847
1570,  886,  845,  885
1571,  885,  845,  846
1572,  886,  842,  845
1573,  895,  854,  855
1574,  887,  883,  843
1575,  888,  887,  844
1576,  888,  844,  842
1577,  921,  886,  920
1578,  889,  848,  849
1579,  890,  889,  849
1580,  890,  849,  850
1581,  939,  914,  907
1582,  891,  807,  829
1583,  891,  819,  858
1584,  892,  855,  818
1585,  898,  851,  859
1586,  896,  857,  856
1587,  896,  856,  894
1588,  895,  894,  854
1589,  970,  945,  968
1590,  923,  855,  892
1591,  910,  909,  875
1592,  920,  893,  896
1593,  896,  893,  857
1594,  897,  859,  853
1595,  936,  925,  897
1596,  898,  892,  851
1597,  898,  859,  897
1598,  971,  929,  934
1599,  899,  860,  822
1600,  900,  769,   43
1601,  900,   42,  782
1602,  901,  861,  865
1603,  932,  930,  904
1604,  902,  899,  862
1605,  931,  861,  901
1606,  903,  864,  863
1607,  948,  914,  939
1608,  904,  865,  826
1609,  932,  864,  903
1610,  905,  882,  873
1611,  929,  873,  917
1612,  906,  878,  874
1613,  949,  918,  938
1614,  915,  883,  887
1615,  942,  912,  941
1616,  908,  879,  876
1617,  912,  908,  876
1618,  975,  909,  944
1619,  910,  875,  877
1620,  913,  877,  881
1621,  992,  987,  990
1622,  911,  881,  879
1623,  966,  942,  964
1624,  912,  876,  878
1625, 1000,  994,  991
1626,  913,  910,  877
1627,  913,  881,  911
1628,  958,  957,  932
1629,  914,  890,  884
1630,  915,  907,  883
1631,  919,  887,  888
1632,  937,  924,  871
1633,  916,  871,  848
1634,  917,  866,  869
1635,  929,  917,  860
1636,  918,  874,  838
1637,  918,  838,  882
1638,  921,  888,  886
1639,  950,  947,  919
1640,  920,  886,  885
1641,  926,  896,  894
1642,  956,  920,  926
1643,  921,  919,  888
1644,  967,  959,  933
1645,  922,  889,  890
1646,  923,  895,  855
1647,  928,  892,  898
1648,  924,  870,  750
1649,  924,  748,  871
1650,  925,  898,  897
1651,  944,  909,  910
1652,  927,  894,  895
1653,  927,  926,  894
1654,  977,  954,  969
1655,  951,  895,  923
1656,  928,  923,  892
1657,  928,  898,  925
1658,  929,  860,  899
1659,  934,  899,  902
1660,  930,  901,  904
1661,  965,  939,  962
1662,  931,  902,  861
1663,  955,  901,  930
1664,  932,  904,  864
1665,  981,  959,  976
1666,  933,  903,  863
1667,  935,  933,  863
1668,  934,  929,  899
1669,  934,  902,  931
1670,  935,  863,  827
1671,  937,  935,  870
1672,  936,  872,  880
1673,  936,  880,  909
1674,  937,  870,  924
1675,  967,  937,  916
1676,  938,  918,  905
1677,  971,  960,  938
1678,  940,  907,  915
1679, 1000,  996,  999
1680,  947,  915,  919
1681,  943,  908,  942
1682,  941,  912,  906
1683,  973,  949,  961
1684,  990,  987,  986
1685,  942,  908,  912
1686,  963,  962,  940
1687,  943,  911,  908
1688,  954,  951,  923
1689,  946,  910,  913
1690,  945,  913,  911
1691,  987,  966,  986
1692,  946,  944,  910
1693,  946,  913,  945
1694,  950,  919,  921
1695,  972,  950,  952
1696,  982,  981,  976
1697,  948,  922,  914
1698,  949,  906,  874
1699,  949,  874,  918
1700,  956,  950,  921
1701,  952,  926,  927
1702,  951,  927,  895
1703,  954,  923,  928
1704,  956,  952,  950
1705,  974,  927,  951
1706,  953,  916,  889
1707,  976,  922,  948
1708,  975,  954,  928
1709,  969,  944,  946
1710,  955,  931,  901
1711,  978,  930,  957
1712,  956,  921,  920
1713,  956,  926,  952
1714, 1001,  978,  957
1715,  957,  930,  932
1716,  958,  932,  903
1717,  959,  958,  903
1718,  959,  903,  933
1719,  976,  959,  953
1720,  971,  938,  905
1721,  960,  931,  955
1722,  984,  961,  979
1723,  961,  949,  938
1724,  962,  939,  940
1725,  963,  940,  947
1726,  972,  947,  950
1727,  968,  943,  966
1728,  964,  942,  941
1729,  989,  973,  984
1730,  965,  948,  939
1731,  985,  962,  983
1732,  990,  985,  983
1733,  966,  943,  942
1734,  967,  933,  937
1735,  967,  916,  953
1736,  997,  977,  995
1737,  968,  945,  943
1738,  975,  969,  954
1739,  970,  969,  946
1740,  970,  946,  945
1741,  988,  968,  987
1742,  971,  905,  929
1743,  971,  934,  960
1744,  972,  963,  947
1745,  998,  952,  974
1746,  973,  941,  906
1747,  973,  906,  949
1748,  974,  952,  927
1749,  977,  974,  951
1750,  975,  928,  925
1751,  975,  944,  969
1752,  976,  953,  922
1753,  982,  948,  965
1754,  977,  951,  954
1755,  995,  969,  970
1756,  978,  955,  930
1757, 1001,  991,  984
1758,  979,  961,  960
1759,  979,  955,  978
1760,  980,  957,  958
1761,  981,  980,  958
1762,  981,  958,  959
1763,  982,  976,  948
1764,  996,  965,  985
1765,  982,  980,  981
1766,  983,  962,  963
1767,  993,  963,  972
1768,  991,  989,  984
1769,  984,  973,  961
1770, 1000,  999,  994
1771,  985,  965,  962
1772,  986,  966,  964
1773,  994,  989,  991
1774,  992,  988,  987
1775,  987,  968,  966
1776,  997,  988,  992
1777,  988,  970,  968
1778,  989,  964,  941
1779,  989,  941,  973
1780,  999,  990,  986
1781,  992,  990,  983
1782, 1001,  984,  978
1783,  996,  980,  982
1784,  993,  983,  963
1785,  993,  992,  983
1786,  998,  997,  993
1787,  997,  995,  988
1788,  994,  986,  964
1789,  994,  964,  989
1790,  995,  977,  969
1791,  995,  970,  988
1792,  996,  982,  965
1793,  999,  996,  985
1794,  998,  993,  972
1795,  997,  974,  977
1796,  998,  972,  952
1797,  998,  974,  997
1798,  999,  985,  990
1799,  999,  986,  994
1800, 1001, 1000,  991
1801, 1000,  980,  996
1802, 1001,  957,  980
1803, 1001,  980, 1000
1804, 1109,  194, 1002
1805, 1002,  131,  130
1806, 1004,  166,  167
1807, 1095,  167, 1005
1808, 1005,    8,  115
1809, 1081, 1048, 1045
1810, 1006,  129,  128
1811, 1071,  190,  191
1812, 1007, 1006,  128
1813, 1008, 1007,  127
1814, 1009, 1008,  126
1815, 1010, 1009,  125
1816, 1011, 1010,  124
1817, 1012, 1011,  123
1818, 1013, 1012,  122
1819, 1090, 1059, 1089
1820, 1016, 1015,  119
1821, 1105, 1016, 1003
1822, 1016,    9,  165
1823,  107,    7,  168
1824, 1017,  107,  168
1825, 1037,  170, 1036
1826, 1018,  109,  108
1827, 1019,  110,  109
1828, 1020,  111,  110
1829, 1082, 1081, 1045
1830, 1149,  166, 1004
1831, 1023,  114,  113
1832,  184,  183,   12
1833, 1025,  183,  184
1834, 1042,  186, 1041
1835, 1100, 1065, 1099
1836, 1027,  180, 1026
1837, 1028,  179, 1027
1838, 1029,  178, 1028
1839, 1030,  177, 1029
1840, 1031,  176, 1030
1841, 1032,  175, 1031
1842, 1033,  174, 1032
1843, 1046, 1020, 1019
1844, 1034,  173, 1033
1845, 1116, 1079, 1047
1846, 1051, 1034, 1050
1847, 1106,  168,  169
1848,  194,   10,  131
1849, 1002,  194,  131
1850, 1109, 1072,  193
1851, 1131, 1115, 1104
1852, 1115, 1110, 1072
1853, 1073,  192, 1072
1854, 1108, 1038, 1071
1855, 1040,  188, 1039
1856, 1075, 1041, 1040
1857, 1041,  187, 1040
1858, 1172,  184,  185
1859, 1064,  129, 1006
1860, 1104, 1006, 1067
1861, 1014, 1013,  121
1862, 1003,  165,  166
1863, 1023,  113, 1022
1864, 1022,  112, 1021
1865, 1005,  167,    8
1866, 1024,  115,  114
1867, 1007,  128,  127
1868, 1039,  189, 1038
1869, 1008,  127,  126
1870, 1094, 1026, 1049
1871, 1009,  126,  125
1872, 1054, 1027, 1053
1873, 1010,  125,  124
1874, 1055, 1028, 1054
1875, 1011,  124,  123
1876, 1056, 1029, 1055
1877, 1012,  123,  122
1878, 1057, 1030, 1056
1879, 1013,  122,  121
1880, 1058, 1031, 1057
1881, 1014,  121,  120
1882, 1203, 1202, 1186
1883, 1015, 1014,  120
1884, 1068, 1014, 1015
1885, 1015,  120,  119
1886, 1068, 1061, 1014
1887, 1016,  119,    9
1888, 1016,  165, 1003
1889, 1018,  108, 1017
1890, 1017,  108,  107
1891, 1036,  171, 1035
1892, 1019,  109, 1018
1893, 1035,  172, 1034
1894, 1020,  110, 1019
1895, 1058, 1032, 1031
1896, 1021,  111, 1020
1897, 1092, 1051, 1091
1898, 1021,  112,  111
1899, 1048, 1023, 1022
1900, 1022,  113,  112
1901, 1043, 1024, 1023
1902, 1024,  114, 1023
1903, 1095, 1005, 1024
1904, 1024, 1005,  115
1905, 1049, 1026,  181
1906, 1025,  182,  183
1907, 1026,  180,  181
1908, 1049,  181,  182
1909, 1088, 1087, 1054
1910, 1027,  179,  180
1911, 1099, 1066, 1098
1912, 1028,  178,  179
1913, 1086, 1085, 1056
1914, 1029,  177,  178
1915, 1097, 1069, 1096
1916, 1030,  176,  177
1917, 1101, 1096, 1062
1918, 1031,  175,  176
1919, 1070, 1013, 1061
1920, 1032,  174,  175
1921, 1046, 1044, 1020
1922, 1033,  173,  174
1923, 1047, 1046, 1019
1924, 1034,  172,  173
1925, 1106, 1078, 1017
1926, 1035,  171,  172
1927, 1052, 1035, 1051
1928, 1036,  170,  171
1929, 1106, 1037, 1078
1930, 1037,  169,  170
1931, 1038,  189,  190
1932, 1067, 1007, 1065
1933, 1076, 1039, 1074
1934, 1039,  188,  189
1935, 1141, 1132, 1094
1936, 1040,  187,  188
1937, 1077, 1042, 1041
1938, 1041,  186,  187
1939, 1172, 1042, 1107
1940, 1042,  185,  186
1941, 1117, 1043, 1080
1942, 1045, 1022, 1021
1943, 1045, 1021, 1044
1944, 1044, 1021, 1020
1945, 1050, 1034, 1033
1946, 1048, 1022, 1045
1947, 1047, 1019, 1018
1948, 1171, 1170, 1119
1949, 1078, 1047, 1018
1950, 1060, 1037, 1036
1951, 1081, 1080, 1048
1952, 1048, 1043, 1023
1953, 1049,  182, 1025
1954, 1107, 1042, 1077
1955, 1059, 1033, 1032
1956, 1189, 1118, 1149
1957, 1127, 1092, 1091
1958, 1051, 1035, 1034
1959, 1093, 1060, 1052
1960, 1052, 1036, 1035
1961, 1199, 1193, 1190
1962, 1053, 1027, 1026
1963, 1066, 1009, 1063
1964, 1054, 1028, 1027
1965, 1087, 1086, 1055
1966, 1055, 1029, 1028
1967, 1069, 1011, 1062
1968, 1056, 1030, 1029
1969, 1085, 1084, 1057
1970, 1057, 1031, 1030
1971, 1089, 1058, 1084
1972, 1059, 1032, 1058
1973, 1129, 1084, 1126
1974, 1059, 1050, 1033
1975, 1116, 1078, 1060
1976, 1060, 1036, 1052
1977, 1061, 1013, 1014
1978, 1120, 1080, 1081
1979, 1062, 1011, 1012
1980, 1070, 1062, 1012
1981, 1063, 1009, 1010
1982, 1069, 1063, 1010
1983, 1064, 1002,  130
1984, 1064,  130,  129
1985, 1065, 1007, 1008
1986, 1066, 1065, 1008
1987, 1066, 1008, 1009
1988, 1098, 1063, 1097
1989, 1145, 1110, 1131
1990, 1067, 1006, 1007
1991, 1105, 1068, 1015
1992, 1202, 1189, 1117
1993, 1069, 1010, 1011
1994, 1126, 1085, 1125
1995, 1070, 1012, 1013
1996, 1129, 1089, 1084
1997, 1071, 1038,  190
1998, 1073,  191,  192
1999, 1072,  192,  193
2000, 1115, 1002, 1064
2001, 1164, 1145, 1140
2002, 1073, 1071,  191
2003, 1076, 1075, 1040
2004, 1074, 1039, 1038
2005, 1113, 1077, 1075
2006, 1076, 1040, 1039
2007, 1193, 1188, 1190
2008, 1111, 1076, 1074
2009, 1141, 1113, 1132
2010, 1077, 1041, 1075
2011, 1078, 1018, 1017
2012, 1078, 1037, 1060
2013, 1083, 1046, 1079
2014, 1079, 1046, 1047
2015, 1117, 1095, 1043
2016, 1080, 1043, 1048
2017, 1082, 1045, 1044
2018, 1160, 1150, 1134
2019, 1083, 1082, 1044
2020, 1091, 1050, 1090
2021, 1083, 1044, 1046
2022, 1170, 1147, 1121
2023, 1084, 1058, 1057
2024, 1085, 1057, 1056
2025, 1086, 1056, 1055
2026, 1163, 1138, 1155
2027, 1087, 1055, 1054
2028, 1153, 1124, 1151
2029, 1088, 1054, 1053
2030, 1143, 1112, 1111
2031, 1132, 1053, 1094
2032, 1112, 1076, 1111
2033, 1139, 1134, 1103
2034, 1089, 1059, 1058
2035, 1134, 1133, 1101
2036, 1090, 1050, 1059
2037, 1119, 1079, 1093
2038, 1091, 1051, 1050
2039, 1171, 1093, 1092
2040, 1092, 1052, 1051
2041, 1116, 1093, 1079
2042, 1093, 1052, 1092
2043, 1094, 1053, 1026
2044, 1107, 1094, 1049
2045, 1095, 1004,  167
2046, 1095, 1024, 1043
2047, 1096, 1069, 1062
2048, 1101, 1062, 1070
2049, 1125, 1086, 1124
2050, 1097, 1063, 1069
2051, 1124, 1087, 1123
2052, 1098, 1066, 1063
2053, 1135, 1100, 1099
2054, 1099, 1065, 1066
2055, 1146, 1114, 1145
2056, 1100, 1067, 1065
2057, 1103, 1070, 1061
2058, 1130, 1089, 1129
2059, 1102, 1061, 1068
2060, 1118, 1068, 1105
2061, 1103, 1101, 1070
2062, 1103, 1061, 1102
2063, 1104, 1064, 1006
2064, 1140, 1131, 1104
2065, 1105, 1015, 1016
2066, 1118, 1105, 1003
2067, 1106, 1017,  168
2068, 1106,  169, 1037
2069, 1107, 1049, 1025
2070, 1172, 1107, 1025
2071, 1108, 1074, 1038
2072, 1114, 1071, 1073
2073, 1109,  193,  194
2074, 1115, 1109, 1002
2075, 1110, 1073, 1072
2076, 1131, 1110, 1115
2077, 1167, 1159, 1144
2078, 1142, 1074, 1108
2079, 1159, 1123, 1088
2080, 1112, 1075, 1076
2081, 1159, 1113, 1144
2082, 1113, 1075, 1112
2083, 1114, 1108, 1071
2084, 1114, 1073, 1110
2085, 1115, 1072, 1109
2086, 1115, 1064, 1104
2087, 1116, 1047, 1078
2088, 1116, 1060, 1093
2089, 1149, 1118, 1003
2090, 1117, 1004, 1095
2091, 1118, 1102, 1068
2092, 1149, 1003,  166
2093, 1121, 1083, 1119
2094, 1119, 1083, 1079
2095, 1122, 1081, 1082
2096, 1158, 1157, 1128
2097, 1121, 1082, 1083
2098, 1171, 1127, 1170
2099, 1122, 1120, 1081
2100, 1122, 1082, 1121
2101, 1136, 1135, 1099
2102, 1123, 1087, 1088
2103, 1137, 1136, 1098
2104, 1124, 1086, 1087
2105, 1138, 1096, 1133
2106, 1125, 1085, 1086
2107, 1198, 1197, 1178
2108, 1126, 1084, 1085
2109, 1128, 1091, 1090
2110, 1128, 1127, 1091
2111, 1130, 1090, 1089
2112, 1192, 1174, 1147
2113, 1197, 1185, 1180
2114, 1154, 1126, 1152
2115, 1160, 1134, 1139
2116, 1130, 1128, 1090
2117, 1140, 1104, 1067
2118, 1145, 1131, 1140
2119, 1132, 1088, 1053
2120, 1141, 1094, 1107
2121, 1133, 1096, 1101
2122, 1134, 1101, 1103
2123, 1139, 1103, 1102
2124, 1158, 1130, 1156
2125, 1169, 1146, 1168
2126, 1136, 1099, 1098
2127, 1137, 1098, 1097
2128, 1162, 1161, 1136
2129, 1138, 1137, 1097
2130, 1178, 1153, 1177
2131, 1138, 1097, 1096
2132, 1155, 1133, 1150
2133, 1165, 1139, 1102
2134, 1148, 1122, 1147
2135, 1140, 1067, 1100
2136, 1164, 1100, 1135
2137, 1141, 1107, 1077
2138, 1141, 1077, 1113
2139, 1142, 1111, 1074
2140, 1146, 1108, 1114
2141, 1167, 1151, 1123
2142, 1166, 1111, 1142
2143, 1144, 1113, 1112
2144, 1144, 1112, 1143
2145, 1168, 1145, 1164
2146, 1145, 1114, 1110
2147, 1173, 1164, 1135
2148, 1146, 1142, 1108
2149, 1147, 1122, 1121
2150, 1157, 1127, 1128
2151, 1203, 1187, 1165
2152, 1148, 1120, 1122
2153, 1149, 1004, 1117
2154, 1189, 1149, 1117
2155, 1156, 1129, 1154
2156, 1150, 1133, 1134
2157, 1151, 1124, 1123
2158, 1167, 1123, 1159
2159, 1152, 1126, 1125
2160, 1153, 1152, 1125
2161, 1153, 1125, 1124
2162, 1193, 1191, 1188
2163, 1181, 1154, 1179
2164, 1154, 1129, 1126
2165, 1155, 1138, 1133
2166, 1175, 1155, 1150
2167, 1176, 1175, 1150
2168, 1156, 1130, 1129
2169, 1192, 1170, 1157
2170, 1158, 1128, 1130
2171, 1195, 1182, 1181
2172, 1184, 1157, 1158
2173, 1159, 1088, 1132
2174, 1159, 1132, 1113
2175, 1200, 1186, 1148
2176, 1201, 1194, 1176
2177, 1161, 1135, 1136
2178, 1162, 1136, 1137
2179, 1163, 1162, 1137
2180, 1193, 1178, 1177
2181, 1163, 1137, 1138
2182, 1180, 1155, 1175
2183, 1164, 1140, 1100
2184, 1173, 1135, 1161
2185, 1165, 1102, 1118
2186, 1203, 1189, 1202
2187, 1166, 1143, 1111
2188, 1169, 1142, 1146
2189, 1167, 1144, 1143
2190, 1188, 1143, 1166
2191, 1173, 1169, 1168
2192, 1168, 1146, 1145
2193, 1199, 1173, 1161
2194, 1169, 1166, 1142
2195, 1170, 1121, 1119
2196, 1170, 1127, 1157
2197, 1171, 1119, 1093
2198, 1171, 1092, 1127
2199, 1172, 1025,  184
2200, 1172,  185, 1042
2201, 1173, 1168, 1164
2202, 1199, 1190, 1173
2203, 1174, 1148, 1147
2204, 1182, 1156, 1181
2205, 1176, 1150, 1160
2206, 1196, 1195, 1181
2207, 1201, 1187, 1200
2208, 1195, 1194, 1182
2209, 1177, 1153, 1151
2210, 1191, 1151, 1167
2211, 1185, 1163, 1180
2212, 1178, 1152, 1153
2213, 1179, 1154, 1152
2214, 1179, 1152, 1178
2215, 1180, 1163, 1155
2216, 1196, 1180, 1175
2217, 1196, 1181, 1179
2218, 1181, 1156, 1154
2219, 1194, 1184, 1182
2220, 1182, 1158, 1156
2221, 1183, 1161, 1162
2222, 1185, 1183, 1162
2223, 1192, 1184, 1174
2224, 1184, 1158, 1182
2225, 1185, 1162, 1163
2226, 1197, 1180, 1196
2227, 1186, 1120, 1148
2228, 1200, 1187, 1186
2229, 1187, 1160, 1139
2230, 1187, 1139, 1165
2231, 1188, 1167, 1143
2232, 1190, 1188, 1166
2233, 1189, 1165, 1118
2234, 1202, 1117, 1080
2235, 1190, 1166, 1169
2236, 1190, 1169, 1173
2237, 1191, 1177, 1151
2238, 1191, 1167, 1188
2239, 1192, 1147, 1170
2240, 1192, 1157, 1184
2241, 1198, 1183, 1185
2242, 1193, 1177, 1191
2243, 1201, 1200, 1194
2244, 1194, 1174, 1184
2245, 1195, 1175, 1176
2246, 1195, 1176, 1194
2247, 1196, 1175, 1195
2248, 1197, 1196, 1179
2249, 1197, 1179, 1178
2250, 1198, 1178, 1193
2251, 1198, 1193, 1183
2252, 1198, 1185, 1197
2253, 1199, 1161, 1183
2254, 1199, 1183, 1193
2255, 1200, 1148, 1174
2256, 1200, 1174, 1194
2257, 1201, 1176, 1160
2258, 1201, 1160, 1187
2259, 1202, 1080, 1120
2260, 1202, 1120, 1186
2261, 1203, 1186, 1187
2262, 1203, 1165, 1189
*Orientation, name=Ori-1
1., 0., 0., 0., 1., 0.
3, 0.
** Region: (CompositeLayup-1-1: Generated From Layup)
*Elset, elset=CompositeLayup-1-1, generate
    1,  2262,     1
** Section: CompositeLayup-1-1
*Shell Section, elset=CompositeLayup-1-1, composite, orientation=Ori-1, layup=CompositeLayup-1
0.25, 1, ABQ_PLY_FABRIC, 45., Ply-1
0.25, 1, ABQ_PLY_FABRIC, -45., Ply-2
0.25, 1, ABQ_PLY_FABRIC, -45., Ply-3
0.25, 1, ABQ_PLY_FABRIC, 45., Ply-4
*End Part
**  
**
** ASSEMBLY
**
*Assembly, name=Assembly
**  
*Instance, name=Plate-1, part=PLATE
*End Instance
**  
*Nset, nset=Set-1, instance=Plate-1
   6,   7,  12,  88,  89,  90,  91,  92,  93,  94,  95,  96,  97,  98,  99, 100
 101, 102, 103, 104, 105, 106, 168, 169, 170, 171, 172, 173, 174, 175, 176, 177
 178, 179, 180, 181, 182, 183
*Elset, elset=Set-1, instance=Plate-1
  685,  705,  706,  788,  791,  792,  795,  797,  799,  801,  803,  805,  807,  809,  811,  813
  815,  817,  819,  821, 1823, 1832, 1847, 1906, 1907, 1908, 1910, 1912, 1914, 1916, 1918, 1920
 1922, 1924, 1926, 1928, 1930
*Nset, nset=Set-2, instance=Plate-1
   4,   5,  11,  44,  45,  46,  47,  48,  49,  50,  51,  52,  53,  54,  55,  56
  57,  58,  59,  60,  61,  62, 146, 147, 148, 149, 150, 151, 152, 153, 154, 155
 156, 157, 158, 159, 160, 161
*Elset, elset=Set-2, instance=Plate-1
   24,   25,   35,  112,  115,  117,  119,  121,  123,  125,  127,  129,  131,  133,  135,  137
  139,  141,  143,  231, 1255, 1256, 1269, 1273, 1339, 1340, 1343, 1345, 1347, 1349, 1351, 1353
 1355, 1357, 1359, 1361, 1376
*End Assembly
*Amplitude, name=Ramp, time=TOTAL TIME
             0.,              0.,            0.01,              1.
** 
** MATERIALS
** 
*Material, name=ABQ_PLY_FABRIC
*Density
 1.594e-09,
*Depvar, delete=16
     16,
*User Material, constants=40
27500., 27500.,   0.11,  2900., 27500., 27500.,   0.11,     0.
   604.,   291.,   604.,   291.,    75.,     0.,     0.,     0.
 20.438, 4.6257, 20.438, 4.6257, 0.3221,     1.,     0.,     0.
    75., 0.0008,  0.552,     0.,     0.,     0.,     0.,     0.
     0.,     1.,  1e+09,  1e+09, -1e+09,     0.,     0.,     0.
** ----------------------------------------------------------------
** 
** STEP: Step-1
** 
*Step, name=Step-1, nlgeom=NO
*Dynamic, Explicit
, 0.01
*Bulk Viscosity
0.06, 1.2
** 
** BOUNDARY CONDITIONS
** 
** Name: BC-1 Type: Symmetry/Antisymmetry/Encastre
*Boundary
Set-1, ENCASTRE
** Name: BC-2 Type: Displacement/Rotation
*Boundary, amplitude=Ramp
Set-2, 1, 1, 2.89474
** 
** OUTPUT REQUESTS
** 
*Restart, write, number interval=1, time marks=NO
** 
** FIELD OUTPUT: F-Output-1
** 
*Output, field, number interval=1
*Element Output, position=NODES, directions=YES
LE, PEEQ, SDV
** 
** HISTORY OUTPUT: H-Output-1
** 
*Output, history, variable=PRESELECT
*End Step
