*Heading
** Job name: Plate_nonlinear_266 Model name: Model-1
** Generated by: Abaqus/CAE 2024.HF3
*Preprint, echo=NO, model=NO, history=NO, contact=NO
**
** PARTS
**
*Part, name=PLATE
*Node
      1,   68.6741791,   119.555199,           0.
      2,   68.6741791,   78.4018936,           0.
      3,   85.3058853,   61.7701874,           0.
      4,    132.91777,   61.7701874,           0.
      5,    132.91777,   119.555199,           0.
      6,           0.,   119.555199,           0.
      7,           0.,   61.7701874,           0.
      8,   52.0424767,   61.7701874,           0.
      9,   68.6741791,    45.138485,           0.
     10,   68.6741791,           0.,           0.
     11,    132.91777,           0.,           0.
     12,           0.,           0.,           0.
     13,   68.6741791,   115.813995,           0.
     14,   68.6741791,   112.072784,           0.
     15,   68.6741791,   108.331573,           0.
     16,   68.6741791,   104.590363,           0.
     17,   68.6741791,   100.849152,           0.
     18,   68.6741791,   97.1079407,           0.
     19,   68.6741791,   93.3667297,           0.
     20,   68.6741791,   89.6255188,           0.
     21,   68.6741791,   85.8843079,           0.
     22,   68.6741791,   82.1431046,           0.
     23,   72.3750839,   77.9849014,           0.
     24,   75.8904037,    76.754837,           0.
     25,   79.0438766,   74.7733765,           0.
     26,   81.6773682,   72.1398849,           0.
     27,   83.6588287,    68.986412,           0.
     28,   84.8888931,   65.4710922,           0.
     29,   89.2735443,   61.7701874,           0.
     30,   93.2411957,   61.7701874,           0.
     31,   97.2088547,   61.7701874,           0.
     32,   101.176514,   61.7701874,           0.
     33,   105.144173,   61.7701874,           0.
     34,   109.111824,   61.7701874,           0.
     35,   113.079483,   61.7701874,           0.
     36,   117.047142,   61.7701874,           0.
     37,   121.014801,   61.7701874,           0.
     38,   124.982452,   61.7701874,           0.
     39,   128.950119,   61.7701874,           0.
     40,    132.91777,   65.6225204,           0.
     41,    132.91777,   69.4748535,           0.
     42,    132.91777,   73.3271942,           0.
     43,    132.91777,   77.1795273,           0.
     44,    132.91777,   81.0318604,           0.
     45,    132.91777,   84.8841934,           0.
     46,    132.91777,   88.7365265,           0.
     47,    132.91777,   92.5888596,           0.
     48,    132.91777,   96.4411926,           0.
     49,    132.91777,   100.293533,           0.
     50,    132.91777,   104.145866,           0.
     51,    132.91777,   107.998199,           0.
     52,    132.91777,   111.850533,           0.
     53,    132.91777,   115.702866,           0.
     54,   129.138733,   119.555199,           0.
     55,   125.359703,   119.555199,           0.
     56,   121.580666,   119.555199,           0.
     57,   117.801628,   119.555199,           0.
     58,   114.022598,   119.555199,           0.
     59,   110.243561,   119.555199,           0.
     60,   106.464531,   119.555199,           0.
     61,   102.685493,   119.555199,           0.
     62,    98.906456,   119.555199,           0.
     63,   95.1274261,   119.555199,           0.
     64,   91.3483887,   119.555199,           0.
     65,   87.5693512,   119.555199,           0.
     66,   83.7903214,   119.555199,           0.
     67,   80.0112839,   119.555199,           0.
     68,    76.232254,   119.555199,           0.
     69,   72.4532166,   119.555199,           0.
     70,   64.8589478,   119.555199,           0.
     71,   61.0437164,   119.555199,           0.
     72,   57.2284851,   119.555199,           0.
     73,   53.4132538,   119.555199,           0.
     74,   49.5980186,   119.555199,           0.
     75,   45.7827873,   119.555199,           0.
     76,    41.967556,   119.555199,           0.
     77,   38.1523247,   119.555199,           0.
     78,   34.3370895,   119.555199,           0.
     79,   30.5218582,   119.555199,           0.
     80,   26.7066269,   119.555199,           0.
     81,   22.8913937,   119.555199,           0.
     82,   19.0761623,   119.555199,           0.
     83,   15.2609291,   119.555199,           0.
     84,   11.4456968,   119.555199,           0.
     85,   7.63046455,   119.555199,           0.
     86,   3.81523228,   119.555199,           0.
     87,           0.,   115.702866,           0.
     88,           0.,   111.850533,           0.
     89,           0.,   107.998199,           0.
     90,           0.,   104.145866,           0.
     91,           0.,   100.293533,           0.
     92,           0.,   96.4411926,           0.
     93,           0.,   92.5888596,           0.
     94,           0.,   88.7365265,           0.
     95,           0.,   84.8841934,           0.
     96,           0.,   81.0318604,           0.
     97,           0.,   77.1795273,           0.
     98,           0.,   73.3271942,           0.
     99,           0.,   69.4748535,           0.
    100,           0.,   65.6225204,           0.
    101,   4.00326729,   61.7701874,           0.
    102,   8.00653458,   61.7701874,           0.
    103,   12.0098028,   61.7701874,           0.
    104,   16.0130692,   61.7701874,           0.
    105,   20.0163383,   61.7701874,           0.
    106,   24.0196056,   61.7701874,           0.
    107,   28.0228729,   61.7701874,           0.
    108,   32.0261383,   61.7701874,           0.
    109,   36.0294075,   61.7701874,           0.
    110,   40.0326767,   61.7701874,           0.
    111,   44.0359421,   61.7701874,           0.
    112,   48.0392113,   61.7701874,           0.
    113,   52.4594688,   65.4710922,           0.
    114,   53.6895332,    68.986412,           0.
    115,     55.67099,   72.1398849,           0.
    116,   58.3044853,   74.7733765,           0.
    117,   61.4579544,    76.754837,           0.
    118,   64.9732819,   77.9849014,           0.
    119,   68.6741791,   41.3769455,           0.
    120,   68.6741791,   37.6154022,           0.
    121,   68.6741791,   33.8538628,           0.
    122,   68.6741791,   30.0923233,           0.
    123,   68.6741791,   26.3307819,           0.
    124,   68.6741791,   22.5692425,           0.
    125,   68.6741791,   18.8077011,           0.
    126,   68.6741791,   15.0461617,           0.
    127,   68.6741791,   11.2846212,           0.
    128,   68.6741791,   7.52308083,           0.
    129,   68.6741791,   3.76154041,           0.
    130,   72.4532166,           0.,           0.
    131,    76.232254,           0.,           0.
    132,   80.0112839,           0.,           0.
    133,   83.7903214,           0.,           0.
    134,   87.5693512,           0.,           0.
    135,   91.3483887,           0.,           0.
    136,   95.1274261,           0.,           0.
    137,    98.906456,           0.,           0.
    138,   102.685493,           0.,           0.
    139,   106.464531,           0.,           0.
    140,   110.243561,           0.,           0.
    141,   114.022598,           0.,           0.
    142,   117.801628,           0.,           0.
    143,   121.580666,           0.,           0.
    144,   125.359703,           0.,           0.
    145,   129.138733,           0.,           0.
    146,    132.91777,   3.86063671,           0.
    147,    132.91777,   7.72127342,           0.
    148,    132.91777,   11.5819101,           0.
    149,    132.91777,   15.4425468,           0.
    150,    132.91777,   19.3031845,           0.
    151,    132.91777,   23.1638203,           0.
    152,    132.91777,   27.0244579,           0.
    153,    132.91777,   30.8850937,           0.
    154,    132.91777,   34.7457314,           0.
    155,    132.91777,    38.606369,           0.
    156,    132.91777,   42.4670029,           0.
    157,    132.91777,   46.3276405,           0.
    158,    132.91777,   50.1882782,           0.
    159,    132.91777,   54.0489159,           0.
    160,    132.91777,   57.9095497,           0.
    161,   84.8888931,   58.0692863,           0.
    162,   83.6588287,   54.5539627,           0.
    163,   81.6773682,   51.4004898,           0.
    164,   79.0438766,   48.7669983,           0.
    165,   75.8904037,   46.7855415,           0.
    166,   72.3750839,   45.5554771,           0.
    167,   64.9732819,   45.5554771,           0.
    168,   61.4579544,   46.7855415,           0.
    169,   58.3044853,   48.7669983,           0.
    170,     55.67099,   51.4004898,           0.
    171,   53.6895332,   54.5539627,           0.
    172,   52.4594688,   58.0692863,           0.
    173,           0.,   57.9095497,           0.
    174,           0.,   54.0489159,           0.
    175,           0.,   50.1882782,           0.
    176,           0.,   46.3276405,           0.
    177,           0.,   42.4670029,           0.
    178,           0.,    38.606369,           0.
    179,           0.,   34.7457314,           0.
    180,           0.,   30.8850937,           0.
    181,           0.,   27.0244579,           0.
    182,           0.,   23.1638203,           0.
    183,           0.,   19.3031845,           0.
    184,           0.,   15.4425468,           0.
    185,           0.,   11.5819101,           0.
    186,           0.,   7.72127342,           0.
    187,           0.,   3.86063671,           0.
    188,   3.81523228,           0.,           0.
    189,   7.63046455,           0.,           0.
    190,   11.4456968,           0.,           0.
    191,   15.2609291,           0.,           0.
    192,   19.0761623,           0.,           0.
    193,   22.8913937,           0.,           0.
    194,   26.7066269,           0.,           0.
    195,   30.5218582,           0.,           0.
    196,   34.3370895,           0.,           0.
    197,   38.1523247,           0.,           0.
    198,    41.967556,           0.,           0.
    199,   45.7827873,           0.,           0.
    200,   49.5980186,           0.,           0.
    201,   53.4132538,           0.,           0.
    202,   57.2284851,           0.,           0.
    203,   61.0437164,           0.,           0.
    204,   64.8589478,           0.,           0.
    205,    72.097641,   114.546425,           0.
    206,   84.9946747,   72.2318649,           0.
    207,   87.2899246,   68.8677673,           0.
    208,   71.9196625,   98.9790497,           0.
    209,   71.9160767,    95.237381,           0.
    210,   71.9391708,   91.4649963,           0.
    211,   79.2134399,   78.4395142,           0.
    212,   71.9904633,   87.5357056,           0.
    213,   72.1123199,   83.2727356,           0.
    214,   82.3462982,   75.5428772,           0.
    215,   75.7258377,   80.7873611,           0.
    216,   107.122116,   65.1896744,           0.
    217,   103.163139,   65.1869202,           0.
    218,   99.1456909,   65.3143387,           0.
    219,     94.69104,   65.9149551,           0.
    220,   90.1255417,   65.4500885,           0.
    221,   129.568054,   102.233231,           0.
    222,   129.582428,   98.3692169,           0.
    223,   129.583572,   94.5156631,           0.
    224,   129.581787,   90.6632843,           0.
    225,   129.578995,   86.8109741,           0.
    226,    129.57579,   82.9587555,           0.
    227,   129.565231,     79.10009,           0.
    228,   129.474899,   75.1573944,           0.
    229,   129.313705,    71.102829,           0.
    230,   129.284027,   66.9125519,           0.
    231,   78.1320267,   116.301819,           0.
    232,   81.8859558,   116.293839,           0.
    233,   85.6751022,   116.288086,           0.
    234,   89.4580383,   116.285629,           0.
    235,   93.2375717,   116.284416,           0.
    236,   97.0165405,   116.283012,           0.
    237,   100.795563,    116.28141,           0.
    238,   104.574661,   116.279671,           0.
    239,   108.353783,   116.278137,           0.
    240,   112.132896,   116.276772,           0.
    241,   115.911903,   116.275612,           0.
    242,    119.70826,   116.241379,           0.
    243,   123.637199,   116.123993,           0.
    244,   127.768448,   116.095573,           0.
    245,   75.1703415,   93.3571472,           0.
    246,   71.9694595,   106.512291,           0.
    247,   75.1645126,   97.1055756,           0.
    248,   71.9350281,   102.723297,           0.
    249,   75.2586288,   89.4355392,           0.
    250,    95.125885,   113.012787,           0.
    251,   79.9043884,   112.880104,           0.
    252,   87.5653915,    113.01899,           0.
    253,   102.683571,   113.004906,           0.
    254,   110.242256,   112.996414,           0.
    255,   117.833748,   112.953506,           0.
    256,   74.9422302,   116.538147,           0.
    257,   121.699905,   112.845619,           0.
    258,   83.7234726,   112.871765,           0.
    259,   91.3466339,   113.016052,           0.
    260,   98.9043045,   113.009079,           0.
    261,   106.462593,   113.000252,           0.
    262,   114.026787,   112.986122,           0.
    263,   129.543518,   106.108917,           0.
    264,   126.213577,    81.019989,           0.
    265,   129.525101,   109.944641,           0.
    266,   126.253769,   96.4417496,           0.
    267,   126.243172,    88.739624,           0.
    268,   125.981102,   73.0936966,           0.
    269,   126.134827,   77.0711746,           0.
    270,    126.24987,   92.5915909,           0.
    271,   126.233109,   100.289757,           0.
    272,   126.232864,   84.8855515,           0.
    273,   129.802811,   113.187141,           0.
    274,   111.090698,   65.1902771,           0.
    275,   119.016037,   65.1576462,           0.
    276,   97.4319839,   68.8785706,           0.
    277,   126.293427,   64.8501434,           0.
    278,   105.144196,   68.5880432,           0.
    279,   115.058601,   65.1852264,           0.
    280,   101.245346,   68.6380463,           0.
    281,   122.950119,    65.125679,           0.
    282,   79.4959793,   82.9463043,           0.
    283,   86.0691147,    75.814064,           0.
    284,   88.6609497,   72.2483826,           0.
    285,   83.1537094,   79.8228836,           0.
    286,    125.98542,   112.298691,           0.
    287,   72.0808716,    110.43074,           0.
    288,   125.383507,    68.721199,           0.
    289,   75.8048019,   112.716988,           0.
    290,   75.1911316,   104.615929,           0.
    291,   75.5335083,   85.2337723,           0.
    292,   78.4650955,   91.3878479,           0.
    293,   78.4216614,    95.219101,           0.
    294,   75.1720047,   100.853912,           0.
    295,    89.455574,   109.750305,           0.
    296,   85.7310104,   109.622993,           0.
    297,   81.7222824,   109.030273,           0.
    298,   115.983894,   109.682266,           0.
    299,   112.148109,   109.704819,           0.
    300,   108.352898,   109.715652,           0.
    301,   93.2338867,    109.74572,           0.
    302,   104.569916,   109.724327,           0.
    303,    100.79026,    109.73243,           0.
    304,   97.0116577,   109.739655,           0.
    305,   119.842598,   109.664848,           0.
    306,   123.209747,   109.827866,           0.
    307,   126.121361,   104.184914,           0.
    308,   122.915451,   98.3506622,           0.
    309,   122.900391,   86.8201752,           0.
    310,   122.922112,   94.5171509,           0.
    311,   122.876694,   82.9572372,           0.
    312,   122.914139,   90.6710815,           0.
    313,   122.745888,   75.0205078,           0.
    314,   122.825089,   79.0041504,           0.
    315,   126.115273,   108.103523,           0.
    316,   109.099274,   68.5937576,           0.
    317,   91.2331772,   69.0085526,           0.
    318,   117.068329,   68.6710205,           0.
    319,   121.079659,   68.6101532,           0.
    320,   99.3906174,   72.0025101,           0.
    321,   103.197266,   71.9728622,           0.
    322,   113.063011,    68.615715,           0.
    323,   75.2724152,   108.451805,           0.
    324,   122.266457,   106.286629,           0.
    325,    92.290802,   72.2725296,           0.
    326,   78.4113693,   106.590378,           0.
    327,   78.4390564,   102.793373,           0.
    328,   81.7179108,   93.3044434,           0.
    329,   78.7445374,   87.3681335,           0.
    330,   78.4427032,   99.0039368,           0.
    331,    78.223053,   109.933907,           0.
    332,   118.020851,   106.380791,           0.
    333,    91.341568,   106.481766,           0.
    334,   95.1179199,   106.473572,           0.
    335,    87.626503,   106.443138,           0.
    336,    114.13768,   106.303764,           0.
    337,   98.8949127,   106.463257,           0.
    338,   102.673058,   106.451332,           0.
    339,   84.4168701,   106.571068,           0.
    340,   110.269485,   106.389633,           0.
    341,    106.46048,   106.429733,           0.
    342,   122.813675,   102.169609,           0.
    343,    119.63221,   96.4374771,           0.
    344,   119.400375,    80.924675,           0.
    345,   119.604401,   92.5989304,           0.
    346,   119.530502,   84.8849487,           0.
    347,   119.357658,   76.8954544,           0.
    348,   119.574898,   88.7527313,           0.
    349,   122.884621,   71.5936356,           0.
    350,     107.1082,   71.9736786,           0.
    351,   101.259666,    75.294487,           0.
    352,   119.225601,   72.5673599,           0.
    353,    114.97821,   72.0559769,           0.
    354,    111.04705,   71.9910812,           0.
    355,   81.7789536,   100.915604,           0.
    356,   81.8103485,   89.4842072,           0.
    357,   81.7711182,   97.0665359,           0.
    358,   119.793739,   103.536453,           0.
    359,   93.2228775,    103.21064,           0.
    360,   116.257446,   102.562897,           0.
    361,   89.4982376,   103.231628,           0.
    362,   96.9975967,   103.196884,           0.
    363,   100.773682,   103.180847,           0.
    364,   85.4618073,   103.014572,           0.
    365,   104.554916,   103.158943,           0.
    366,   112.162575,   103.045349,           0.
    367,   108.369781,   103.121536,           0.
    368,   119.640823,   100.238396,           0.
    369,   116.271973,   94.5259171,           0.
    370,   116.095345,   83.0339279,           0.
    371,   115.493523,   78.8339539,           0.
    372,    116.28656,   90.6719894,           0.
    373,   116.224998,   86.8656387,           0.
    374,   97.4903641,    75.292778,           0.
    375,   105.139305,   75.3512878,           0.
    376,   116.410446,   75.1406174,           0.
    377,   113.019745,   75.3612213,           0.
    378,   109.097351,   75.3882904,           0.
    379,   82.1122208,   85.6812592,           0.
    380,   85.0658035,    91.486908,           0.
    381,    85.201004,   98.8848495,           0.
    382,   85.0838623,   95.1489258,           0.
    383,   81.7050552,   104.819214,           0.
    384,   91.3510971,   100.044205,           0.
    385,   95.1108627,   99.9559631,           0.
    386,   88.0844421,   100.403656,           0.
    387,   98.8752365,   99.9178391,           0.
    388,   102.648972,   99.8902054,           0.
    389,   106.474335,   99.8801346,           0.
    390,    113.56144,    100.07254,           0.
    391,   110.265434,   99.8899765,           0.
    392,   116.329369,   98.3965836,           0.
    393,    112.98484,   81.6775284,           0.
    394,   112.849411,   84.9942474,           0.
    395,   112.985519,   92.5333099,           0.
    396,   99.2932281,   78.6153717,           0.
    397,   112.943504,   88.7842941,           0.
    398,   103.158997,   78.7012329,           0.
    399,   107.137047,   78.8398514,           0.
    400,   112.553246,   96.5777054,           0.
    401,   87.8208313,   93.3798752,           0.
    402,   85.2507935,     87.70504,           0.
    403,     93.10569,   96.7265472,           0.
    404,   96.9604187,   96.6744995,           0.
    405,   100.718086,   96.6451416,           0.
    406,   104.533882,   96.5796432,           0.
    407,   108.389603,   96.6408005,           0.
    408,   101.190353,   82.2384186,           0.
    409,   95.4203262,   78.6579819,           0.
    410,   109.344086,   82.6699677,           0.
    411,   109.679359,   86.8574295,           0.
    412,   109.767052,   90.6228714,           0.
    413,   111.179436,   78.7951355,           0.
    414,   105.128586,    82.344429,           0.
    415,   88.9128647,   89.8382645,           0.
    416,    110.03186,   93.8688812,           0.
    417,   95.0471497,   93.2617188,           0.
    418,   88.8321838,   96.8578796,           0.
    419,   102.528191,   93.2555618,           0.
    420,   98.8417206,   93.1944504,           0.
    421,   106.516632,   92.8320999,           0.
    422,   97.1777496,   82.1487045,           0.
    423,   93.7089233,   75.4809647,           0.
    424,   106.631111,   88.6902695,           0.
    425,    85.460968,    83.425354,           0.
    426,   103.348267,   86.3345718,           0.
    427,   82.5557175,   82.9689484,           0.
    428,   106.826286,   85.3793335,           0.
    429,   91.1484833,   93.3087616,           0.
    430,   88.6809464,   85.8310089,           0.
    431,   96.9431763,   89.5826874,           0.
    432,   100.781235,   89.7262726,           0.
    433,   93.2704315,   82.0805511,           0.
    434,   99.0241547,   85.9596176,           0.
    435,   91.5313644,   78.9278336,           0.
    436,    103.96109,   90.1677551,           0.
    437,   87.6106186,   79.3207932,           0.
    438,   89.6736755,   82.3648148,           0.
    439,    91.391571,   87.1575928,           0.
    440,   93.0245667,   89.8126755,           0.
    441,   94.6170502,    85.906456,           0.
    442,   89.9786301,   75.6774292,           0.
    443,   91.5267334,   84.6680832,           0.
    444,    95.772049,   72.2396469,           0.
    445,   94.2838135,   69.6628494,           0.
    446,   54.9695244,   75.6578674,           0.
    447,   52.1608124,    72.511322,           0.
    448,   49.6427231,   69.1142807,           0.
    449,   61.8088531,   80.2936935,           0.
    450,    58.191555,   78.3475189,           0.
    451,   65.2131577,   114.498154,           0.
    452,   65.2158966,   110.418716,           0.
    453,   65.3080215,   106.516823,           0.
    454,   65.4348145,   95.2029877,           0.
    455,   65.6480103,   87.5336761,           0.
    456,   65.3636093,    102.72789,           0.
    457,   65.4815369,    91.382637,           0.
    458,   24.8006573,   116.250404,           0.
    459,   28.6149654,   116.251495,           0.
    460,   32.4300613,   116.253014,           0.
    461,   36.2452545,   116.254539,           0.
    462,   40.0604477,   116.255974,           0.
    463,   43.8757401,   116.257469,           0.
    464,   47.6910629,    116.25898,           0.
    465,   51.5185966,   116.251114,           0.
    466,   55.3448143,   116.245399,           0.
    467,   59.1198425,   116.247826,           0.
    468,   3.61704421,   66.9817657,           0.
    469,   3.36940479,   79.1006012,           0.
    470,   3.34752393,   82.9590607,           0.
    471,   3.33835506,   86.8110886,           0.
    472,   3.33521223,   90.6631775,           0.
    473,   3.33380032,   94.5156326,           0.
    474,   3.33446503,   98.3708496,           0.
    475,   3.35026813,   102.259819,           0.
    476,    3.3924458,   106.196075,           0.
    477,   3.49807787,    110.23233,           0.
    478,   3.49809647,   114.415306,           0.
    479,   10.0021544,   65.2198792,           0.
    480,    30.030117,    65.209465,           0.
    481,   42.2915535,   65.4044418,           0.
    482,   46.8527069,   65.4988251,           0.
    483,   22.0191174,   65.2159653,           0.
    484,   26.0260429,   65.2101517,           0.
    485,    34.039341,   65.2133942,           0.
    486,   38.0809708,   65.2581711,           0.
    487,   65.4904404,   81.3039398,           0.
    488,   65.4094009,   98.9670563,           0.
    489,   62.2035942,   93.2433777,           0.
    490,   61.8040199,   108.479836,           0.
    491,   62.2923126,   89.2256393,           0.
    492,   61.8868332,   104.620102,           0.
    493,   20.9899693,   116.251106,           0.
    494,   30.5236626,    112.94886,           0.
    495,   13.3712978,   116.213058,           0.
    496,   17.1815662,   116.227478,           0.
    497,   9.59539127,   116.213005,           0.
    498,   6.36720371,   116.477287,           0.
    499,   41.9694786,   112.960426,           0.
    500,   49.6251717,   112.973625,           0.
    501,   53.4810181,   112.992104,           0.
    502,   26.7098808,   112.944771,           0.
    503,   38.1543465,   112.956848,           0.
    504,    45.790493,   112.966415,           0.
    505,   34.3392181,    112.95285,           0.
    506,   57.2889175,   113.009857,           0.
    507,   3.43576837,   75.2007217,           0.
    508,   6.76940441,   108.247063,           0.
    509,   6.67186546,   100.346657,           0.
    510,   6.68448591,   84.8885269,           0.
    511,   6.66809797,   92.5910034,           0.
    512,   3.58027816,   71.1818542,           0.
    513,   6.71142292,   81.0250778,           0.
    514,     6.673769,   88.7393036,           0.
    515,   6.66651106,   96.4543762,           0.
    516,   6.68977165,   104.293449,           0.
    517,   44.6329842,   69.5983505,           0.
    518,   13.9714737,   65.2529526,           0.
    519,   32.0304794,   68.6324921,           0.
    520,   28.0337353,   68.6360703,           0.
    521,   40.0732841,   68.7979736,           0.
    522,   17.9924622,   65.2451324,           0.
    523,    24.022274,   68.6491165,           0.
    524,   36.0346603,   68.6560745,           0.
    525,    54.400135,   79.9734573,           0.
    526,   50.8818817,   76.6687622,           0.
    527,   58.0622635,   82.7100906,           0.
    528,    48.038517,   73.0141754,           0.
    529,   61.4039421,   112.746941,           0.
    530,    62.625618,   84.6535416,           0.
    531,    7.2763176,   112.596504,           0.
    532,   58.9270973,   91.2459488,           0.
    533,   58.0009003,   106.566994,           0.
    534,   62.1598778,   97.0592499,           0.
    535,    62.061161,   100.819542,           0.
    536,   19.1103745,   112.885956,           0.
    537,   15.2793932,   112.746132,           0.
    538,   11.4255238,   112.737694,           0.
    539,    36.249939,   109.655151,           0.
    540,   40.0653763,   109.662758,           0.
    541,   32.4342575,   109.647133,           0.
    542,   43.8844719,    109.67234,           0.
    543,   47.7416229,   109.684753,           0.
    544,   51.6368294,   109.727676,           0.
    545,   28.6191177,   109.635414,           0.
    546,   55.4940987,   109.820618,           0.
    547,   22.9041233,   112.923035,           0.
    548,   9.99926662,   94.5275192,           0.
    549,   10.0064135,   90.6702194,           0.
    550,   10.0003557,   98.4324646,           0.
    551,   10.0206585,   86.8208618,           0.
    552,   9.98572254,   102.390038,           0.
    553,   9.95111465,   106.343941,           0.
    554,   10.0626574,   82.9557114,           0.
    555,   6.77272129,   77.1356049,           0.
    556,    62.327919,   116.520668,           0.
    557,   19.9878712,   68.6986389,           0.
    558,   11.8490486,   68.7701569,           0.
    559,   26.0242252,   72.0598679,           0.
    560,   30.0355968,   72.0429153,           0.
    561,   38.0074615,   72.0452499,           0.
    562,   34.0358086,   72.0434189,           0.
    563,   15.9061184,   68.8147049,           0.
    564,   6.91042805,   73.2205276,           0.
    565,   7.51502943,   68.8651962,           0.
    566,   66.2224884,   84.3037109,           0.
    567,   44.1794548,   73.9182205,           0.
    568,    58.806015,   98.8838043,           0.
    569,   58.8763351,   95.1092987,           0.
    570,   58.8365593,   87.1311798,           0.
    571,   58.6352577,   102.565857,           0.
    572,   58.7983742,   110.124847,           0.
    573,    10.154624,   75.1620789,           0.
    574,    30.533102,   106.337914,           0.
    575,   24.8118649,   109.606415,           0.
    576,   17.3062763,   109.429886,           0.
    577,   21.0401592,   109.547791,           0.
    578,   34.3486595,     106.3489,           0.
    579,   13.2737894,    108.83374,           0.
    580,   41.9835472,   106.373856,           0.
    581,    45.834877,   106.379715,           0.
    582,   38.1658058,   106.361008,           0.
    583,   53.7341881,   106.513023,           0.
    584,   49.7711792,   106.356812,           0.
    585,   9.73923016,   109.751785,           0.
    586,   13.4273319,   84.9004364,           0.
    587,   13.3675032,   88.7531891,           0.
    588,   13.3580494,   92.6127548,           0.
    589,   13.2561989,   104.500427,           0.
    590,   13.3927555,   100.494614,           0.
    591,   13.3815193,   96.5219269,           0.
    592,   10.1197786,   79.0564423,           0.
    593,   21.9913101,   72.0901337,           0.
    594,   36.1028976,   75.4802094,           0.
    595,   13.6962757,   72.7197189,           0.
    596,    28.023716,   75.4616928,           0.
    597,   32.0530205,   75.4534454,           0.
    598,   6.62880611,   64.9214401,           0.
    599,   18.0010777,   72.1806946,           0.
    600,   13.5695343,   77.0226212,           0.
    601,   55.4374619,    100.61615,           0.
    602,   55.5177689,   96.9256058,           0.
    603,    55.610733,   93.1797791,           0.
    604,   55.6026993,   89.3675766,           0.
    605,   55.5491829,   103.802193,           0.
    606,   46.8501587,   76.6596756,           0.
    607,   32.4511261,   103.051605,           0.
    608,   22.9466705,   106.287354,           0.
    609,   36.2682991,   103.056374,           0.
    610,    16.008152,   106.326111,           0.
    611,   43.9172821,   103.088966,           0.
    612,    40.089817,   103.068298,           0.
    613,   19.2325802,   106.217781,           0.
    614,   26.7298813,   106.327484,           0.
    615,   47.7508202,   103.105133,           0.
    616,   51.9365845,   102.754822,           0.
    617,   16.7539368,   86.8547974,           0.
    618,   16.7294006,   90.6912308,           0.
    619,   16.8172264,   94.5893936,           0.
    620,   17.0607471,   102.745247,           0.
    621,   16.8158188,   98.5232391,           0.
    622,   13.5849886,   80.9768982,           0.
    623,   10.0250807,   71.7475357,           0.
    624,   40.4800835,   75.5677338,           0.
    625,   23.9673996,   75.4732819,           0.
    626,   34.0720482,   78.9159164,           0.
    627,   30.0262947,   78.8724594,           0.
    628,   16.5333767,      75.2584,           0.
    629,   19.9651146,   75.4573975,           0.
    630,   43.7826614,   77.1744537,           0.
    631,   17.4838467,   78.8936844,           0.
    632,   52.2981186,   95.0222092,           0.
    633,   52.1450081,   98.6984406,           0.
    634,   52.4408302,   91.4384766,           0.
    635,   24.8399963,   103.074631,           0.
    636,   38.1960678,   99.7496185,           0.
    637,   42.0487747,   99.7851486,           0.
    638,   34.3532104,   99.7361298,           0.
    639,   21.1126194,   103.062714,           0.
    640,   45.9177361,   99.8920135,           0.
    641,   49.2467041,   100.224014,           0.
    642,   28.6371136,   103.067863,           0.
    643,    20.086298,   88.8082657,           0.
    644,   20.0901089,   92.5953598,           0.
    645,   20.5625591,   96.6446075,           0.
    646,   16.8954086,    83.047699,           0.
    647,   48.6444321,   79.1941757,           0.
    648,   38.0898781,   79.0901718,           0.
    649,    25.920927,   78.9318161,           0.
    650,   32.0478439,   82.3363647,           0.
    651,   21.8341408,   78.8530045,           0.
    652,   49.7618408,    93.266983,           0.
    653,   52.3182716,    87.691246,           0.
    654,   19.9980621,   81.6945038,           0.
    655,    45.508091,   80.2304993,           0.
    656,    40.223568,   96.3987732,           0.
    657,    26.674017,   99.8400192,           0.
    658,   44.2526093,   96.4688492,           0.
    659,   36.2778854,   96.3545609,           0.
    660,   48.5841751,   96.6665115,           0.
    661,   30.4882259,   99.7634277,           0.
    662,   51.0202065,   80.3205719,           0.
    663,   23.3603325,   90.8176422,           0.
    664,   22.9606686,   94.0219879,           0.
    665,   20.1453705,   85.0045319,           0.
    666,   41.4746513,   71.9855042,           0.
    667,   36.0722618,   82.4554749,           0.
    668,   28.0208225,   82.3043442,           0.
    669,   22.9161396,    99.914032,           0.
    670,   23.6983089,   82.7209854,           0.
    671,   19.6935768,   100.177963,           0.
    672,   48.6775513,   82.2845306,           0.
    673,   52.2701836,    83.557869,           0.
    674,    49.160038,   90.0853577,           0.
    675,   55.3664513,   85.5631561,           0.
    676,   42.4540482,   92.8604507,           0.
    677,   38.3000412,   92.8778152,           0.
    678,   28.4003296,   96.4923096,           0.
    679,   32.3064308,   96.3617783,           0.
    680,   26.1364441,   93.3597565,           0.
    681,   23.5250168,    86.977951,           0.
    682,   39.8764687,   82.5167999,           0.
    683,   34.0789108,    85.851326,           0.
    684,   30.0021362,   85.7239609,           0.
    685,   26.5229378,   85.3833923,           0.
    686,   46.5441322,   93.0365067,           0.
    687,   41.7997818,   79.5161438,           0.
    688,   45.0177994,   88.7694092,           0.
    689,   55.0247574,   82.9511414,           0.
    690,   48.8394012,   86.1138687,           0.
    691,   40.3636169,   89.2357788,           0.
    692,   34.1982193,   92.8742523,           0.
    693,   30.0692158,   92.9355469,           0.
    694,   24.6083603,   96.7121201,           0.
    695,    27.374506,    89.219101,           0.
    696,   38.1060028,   85.8410492,           0.
    697,   31.9880657,   89.3326111,           0.
    698,    42.963253,   82.4307327,           0.
    699,    45.507576,   84.2374191,           0.
    700,   41.9724541,   85.5051956,           0.
    701,   36.1724777,   89.3354721,           0.
    702,   85.1419144,   51.2570381,           0.
    703,    79.166275,   45.3433495,           0.
    704,    75.565712,   43.5495758,           0.
    705,   87.6332474,   54.5836258,           0.
    706,   82.4389725,   48.0409088,           0.
    707,   71.9311676,   24.4504738,           0.
    708,   71.9242935,   28.2023106,           0.
    709,   71.7195969,   35.5303459,           0.
    710,   71.8719254,   31.9509354,           0.
    711,   108.353745,   3.27602053,           0.
    712,    127.73259,   3.46957207,           0.
    713,   123.612465,   3.45181489,           0.
    714,   115.912254,   3.28677893,           0.
    715,   112.133324,   3.27964067,           0.
    716,   104.574654,    3.2740469,           0.
    717,   100.795753,   3.27264929,           0.
    718,   97.0168381,   3.27195549,           0.
    719,    93.237854,   3.27159381,           0.
    720,   89.4588089,   3.27131915,           0.
    721,    85.679718,     3.272928,           0.
    722,   81.8790054,   3.30327654,           0.
    723,   77.9401245,    3.4006443,           0.
    724,   73.8093491,   3.40537977,           0.
    725,   129.383514,   56.4959793,           0.
    726,   129.572479,   48.2696114,           0.
    727,   129.576431,   44.3990936,           0.
    728,   129.578125,   40.5369377,           0.
    729,   129.579208,   36.6760521,           0.
    730,   129.579742,    32.815361,           0.
    731,   129.580261,   28.9547005,           0.
    732,   129.580719,   25.0940304,           0.
    733,    129.58139,   21.2332993,           0.
    734,   129.582779,    17.372509,           0.
    735,   129.519241,   13.4844217,           0.
    736,   129.480148,   9.64373112,           0.
    737,   111.092537,   58.3530159,           0.
    738,   103.158569,    58.360157,           0.
    739,   99.1237869,   58.3244629,           0.
    740,   94.9426651,   58.2114487,           0.
    741,   90.4298096,   58.1267242,           0.
    742,   115.058533,   58.3518372,           0.
    743,   107.125999,    58.359436,           0.
    744,   72.0309906,   42.4164352,           0.
    745,     71.93367,   20.6877003,           0.
    746,   72.0908661,   13.1439981,           0.
    747,   72.0174789,   16.9147472,           0.
    748,   75.1830063,   26.3393612,           0.
    749,   72.1030807,   9.41530704,           0.
    750,   71.7840042,   6.24494123,           0.
    751,   75.1461945,    30.162096,           0.
    752,   74.8890228,   33.9346161,           0.
    753,   119.709824,   3.33830833,           0.
    754,   79.9848022,    6.6361022,           0.
    755,   87.5689316,   6.54362392,           0.
    756,   102.684021,   6.54685163,           0.
    757,   95.1271133,   6.54250717,           0.
    758,    113.99987,   6.58349323,           0.
    759,   106.462257,   6.55171537,           0.
    760,   110.238159,   6.56116724,           0.
    761,   98.9056168,   6.54400969,           0.
    762,    91.348053,   6.54197979,           0.
    763,   83.7910538,   6.56902122,           0.
    764,   129.427139,   52.2932129,           0.
    765,   126.246521,   30.8846722,           0.
    766,   126.249329,   23.1629791,           0.
    767,   126.252365,   19.3016949,           0.
    768,   126.208809,   15.3719091,           0.
    769,    126.21788,   46.3694115,           0.
    770,   126.245102,   34.7451286,           0.
    771,   126.234512,   42.4734993,           0.
    772,   126.241188,    38.606739,           0.
    773,   126.248703,   27.0238781,           0.
    774,   126.175461,   11.4755468,           0.
    775,   92.6462631,   54.1366463,           0.
    776,   119.078667,   58.3072166,           0.
    777,   97.1802979,   54.8593864,           0.
    778,   113.067398,   54.9483566,           0.
    779,    105.14119,   54.9699707,           0.
    780,   109.101753,   54.9612236,           0.
    781,   101.185188,   54.9636002,           0.
    782,   123.041336,   58.2964325,           0.
    783,   89.2462387,   50.8821144,           0.
    784,   78.8684082,    41.358345,           0.
    785,   86.4290924,   47.5765038,           0.
    786,   83.3146591,   43.6498528,           0.
    787,   125.922523,   7.28139067,           0.
    788,   75.7042618,   7.13803387,           0.
    789,   75.0678864,   39.9897995,           0.
    790,   75.1958923,   22.5757675,           0.
    791,   75.3166504,   18.8155403,           0.
    792,   75.5338593,   15.0361652,           0.
    793,   75.5920334,   11.2312269,           0.
    794,   78.2804184,   32.2718658,           0.
    795,    78.404068,   28.2924824,           0.
    796,   121.651497,    6.8634634,           0.
    797,   93.2365723,   9.81092167,           0.
    798,   97.0149765,   9.81363106,           0.
    799,   89.4554977,    9.8073082,           0.
    800,   85.6741562,   9.80024719,           0.
    801,   81.8814545,   9.77231026,           0.
    802,   100.792206,   9.81829453,           0.
    803,   104.568962,   9.82583714,           0.
    804,   108.347557,   9.83557606,           0.
    805,   112.091431,   9.89513111,           0.
    806,   117.789246,   6.77903795,           0.
    807,   78.5194321,   9.56754303,           0.
    808,   126.098595,   50.2963028,           0.
    809,   122.891998,   44.4637909,           0.
    810,   122.900711,   40.5451889,           0.
    811,   122.909798,   36.6746407,           0.
    812,    122.92009,   28.9532375,           0.
    813,    122.91671,   32.8132401,           0.
    814,   122.923447,   25.0919991,           0.
    815,   122.930901,   21.2218075,           0.
    816,   122.944969,   17.2534447,           0.
    817,    122.99028,    13.292449,           0.
    818,    117.13765,   54.8224564,           0.
    819,   111.098923,   51.5586243,           0.
    820,   99.2597809,   51.6391296,           0.
    821,   103.173622,   51.6139755,           0.
    822,   107.114899,   51.5931664,           0.
    823,   121.199326,   54.7843895,           0.
    824,   129.794159,   6.39532089,           0.
    825,   79.3983154,   13.0459661,           0.
    826,    77.872612,   36.8039055,           0.
    827,   119.750748,   10.7319202,           0.
    828,   93.1138077,   49.8895569,           0.
    829,   78.4520645,   24.4773064,           0.
    830,   81.6418228,   30.2513676,           0.
    831,   78.7482529,     17.02882,           0.
    832,   78.5638962,   20.7213287,           0.
    833,   102.674423,   13.0974569,           0.
    834,   106.433449,   13.1235352,           0.
    835,    98.899437,   13.0880976,           0.
    836,   95.1229858,   13.0814581,           0.
    837,    110.14431,   13.1982985,           0.
    838,   83.6072998,    13.025651,           0.
    839,   87.4642792,   13.1441031,           0.
    840,   91.3174515,   13.0997267,           0.
    841,   115.780388,   10.0928802,           0.
    842,   123.298103,   9.92895412,           0.
    843,   122.874336,    48.386364,           0.
    844,   119.595016,   30.8798332,           0.
    845,   119.471489,   42.5494919,           0.
    846,   119.601463,    27.019762,           0.
    847,   125.513245,    54.640789,           0.
    848,   119.558136,   38.6123199,           0.
    849,   119.583481,   34.7401161,           0.
    850,   119.733063,   15.1012077,           0.
    851,   119.612053,   23.1466866,           0.
    852,   119.582634,   19.1291161,           0.
    853,   115.097115,   51.4395943,           0.
    854,   101.142433,    48.238308,           0.
    855,   105.109711,   48.2452393,           0.
    856,   109.115173,   48.2273941,           0.
    857,   119.382324,   50.8546677,           0.
    858,   74.2599487,   37.0364304,           0.
    859,   117.037193,   13.2171211,           0.
    860,   81.7252655,   26.4110718,           0.
    861,   81.8870697,   18.9545479,           0.
    862,   81.8211136,    22.681881,           0.
    863,   104.499985,   16.4158592,           0.
    864,    100.77002,   16.3728905,           0.
    865,   90.3893967,   47.2142715,           0.
    866,   108.192856,   16.5912724,           0.
    867,   97.0044632,   16.3567848,           0.
    868,   93.2093811,   16.3743382,           0.
    869,   85.3414536,   16.7952271,           0.
    870,   89.4536362,    16.414835,           0.
    871,   113.808861,   13.2960463,           0.
    872,   119.484398,   46.5423279,           0.
    873,   116.269264,   32.8009872,           0.
    874,   116.231735,   36.6857491,           0.
    875,   123.013565,   51.7925034,           0.
    876,   116.098793,   40.5658836,           0.
    877,   116.281799,    28.944067,           0.
    878,    116.28923,   25.0513859,           0.
    879,   116.292282,   21.1138783,           0.
    880,    115.94352,   16.8482685,           0.
    881,   96.8067169,   48.2209473,           0.
    882,    126.37413,   58.5947151,           0.
    883,   113.118889,   48.1999168,           0.
    884,   103.105858,   44.8863258,           0.
    885,   107.112579,   44.8381767,           0.
    886,   116.534874,   48.3509827,           0.
    887,   93.5485001,   46.7543793,           0.
    888,   85.0191727,   28.2667961,           0.
    889,   81.7964783,   15.7700424,           0.
    890,   85.2045288,   20.8850594,           0.
    891,   85.0916443,   24.5950794,           0.
    892,   102.593582,   19.7040977,           0.
    893,   98.8709183,   19.6450386,           0.
    894,   106.188721,   19.8944016,           0.
    895,    95.104187,   19.6498775,           0.
    896,   91.3374939,   19.6078644,           0.
    897,   88.0523987,   19.3144741,           0.
    898,   111.906296,   16.6621685,           0.
    899,   112.904488,   34.7786369,           0.
    900,   115.536751,   44.7535515,           0.
    901,   112.823616,   38.6678848,           0.
    902,   112.956085,   30.8727016,           0.
    903,   113.023125,   26.9466934,           0.
    904,   99.1970062,   44.7784538,           0.
    905,    113.15583,    23.010397,           0.
    906,   113.463814,   19.6256981,           0.
    907,   111.179359,   44.8647614,           0.
    908,   88.0514221,   43.9506416,           0.
    909,   105.046684,   41.4361687,           0.
    910,   91.9179382,   44.0652657,           0.
    911,   85.1092072,   32.2270241,           0.
    912,   100.686623,   22.9832096,           0.
    913,   87.7917099,   26.3928871,           0.
    914,   104.256439,   23.1113777,           0.
    915,   96.9708023,   22.9434586,           0.
    916,   93.0935059,   22.9443645,           0.
    917,   88.8144073,   22.8719444,           0.
    918,   110.042183,   20.5360737,           0.
    919,   95.8013687,   51.7491341,           0.
    920,   112.979668,   41.9859161,           0.
    921,   109.609367,   32.9355698,           0.
    922,   109.580864,    36.840744,           0.
    923,   109.333031,   41.0151634,           0.
    924,   109.691551,   28.9115601,           0.
    925,   101.227249,   41.5137444,           0.
    926,   109.926292,   24.8584194,           0.
    927,   81.7039871,   34.4355659,           0.
    928,   88.8707504,   30.0158043,           0.
    929,    102.35775,   26.3285046,           0.
    930,   98.7531738,   26.2769947,           0.
    931,   94.9826965,   26.2760334,           0.
    932,   90.0463028,   40.7212753,           0.
    933,   107.330612,   23.0177593,           0.
    934,   106.304962,   35.0280952,           0.
    935,   106.358932,   30.9976978,           0.
    936,   97.6714706,   41.3159142,           0.
    937,    103.07177,   37.7755318,           0.
    938,   106.222542,   26.6556015,           0.
    939,   106.667458,   38.4191399,           0.
    940,   91.0997391,   26.3450909,           0.
    941,    93.035408,   29.7206383,           0.
    942,   95.4999695,   44.3793182,           0.
    943,   100.480537,    29.626215,           0.
    944,   85.3207703,   36.3479347,           0.
    945,   88.5390854,     34.39608,           0.
    946,   96.7657013,   29.7140923,           0.
    947,   93.9576263,   40.7578583,           0.
    948,   86.2213211,    40.236515,           0.
    949,   99.7536621,   38.7504425,           0.
    950,   102.644531,   33.1384277,           0.
    951,   103.612862,   29.3492889,           0.
    952,   82.2169571,   38.8053513,           0.
    953,   98.5784531,    33.139843,           0.
    954,   88.4077454,   37.7252693,           0.
    955,   91.4277267,   32.8540726,           0.
    956,   91.9799194,   36.6869583,           0.
    957,   96.6888962,   37.1243591,           0.
    958,   94.7460175,   33.2066612,           0.
    959,   100.147461,   35.9857216,           0.
    960,   71.7378006,   38.9942245,           0.
    961,   65.1912766,    5.0260725,           0.
    962,   52.2995033,   51.1956139,           0.
    963,   50.0277901,   54.6257515,           0.
    964,    65.413002,   20.6890888,           0.
    965,   65.4155655,    24.450222,           0.
    966,   65.4174271,   28.2119122,           0.
    967,   65.3946228,    32.004673,           0.
    968,   58.2228012,   45.1957283,           0.
    969,   65.3477707,   35.9567375,           0.
    970,   65.2315216,   40.2426605,           0.
    971,    55.048111,   47.9957542,           0.
    972,   61.6402855,   42.7636261,           0.
    973,   30.0305634,   58.3210373,           0.
    974,    34.025383,   58.3244438,           0.
    975,    38.082222,   58.1982613,           0.
    976,   42.5796661,   57.5984459,           0.
    977,    47.180378,   58.0710487,           0.
    978,   3.34076095,   21.2340527,           0.
    979,    3.3421247,    25.094183,           0.
    980,   3.34438443,   28.9543514,           0.
    981,   3.34720588,   32.8148384,           0.
    982,   3.35021591,   36.6753082,           0.
    983,   3.35339522,   40.5357437,           0.
    984,   3.35712504,   44.3962669,           0.
    985,   3.44943285,   48.3439293,           0.
    986,   3.62484455,   52.4107895,           0.
    987,   3.66551161,   56.6151085,           0.
    988,   59.0930672,   3.26726794,           0.
    989,   36.2446594,    3.3029778,           0.
    990,   32.4295998,   3.30393291,           0.
    991,   28.6144562,   3.30494189,           0.
    992,   24.7991848,    3.3058815,           0.
    993,   20.9828587,   3.30760813,           0.
    994,   17.1609993,   3.31333995,           0.
    995,   13.2561188,   3.37680626,           0.
    996,   9.23550034,   3.51049376,           0.
    997,   5.08102846,   3.52969265,           0.
    998,   65.3946228,    16.927866,           0.
    999,   62.1517143,   22.5704861,           0.
   1000,   65.3397293,   13.1047745,           0.
   1001,   62.1572037,   26.3322983,           0.
   1002,   62.1482811,   30.1029263,           0.
   1003,   62.0678101,   34.0487022,           0.
   1004,   40.0598984,   3.30183005,           0.
   1005,   62.3219681,   3.02336764,           0.
   1006,   11.1951342,   6.79173326,           0.
   1007,   15.1521254,   6.67453003,           0.
   1008,   55.3168983,   3.28705764,           0.
   1009,   51.5053406,   3.29634261,           0.
   1010,   47.6903839,   3.29972696,           0.
   1011,   43.8751602,    3.3006587,           0.
   1012,   34.3380013,   6.60632563,           0.
   1013,   30.5230255,   6.60903931,           0.
   1014,   26.7077236,   6.61179352,           0.
   1015,   22.8909092,   6.61550474,           0.
   1016,   19.0558243,   6.62876177,           0.
   1017,    3.3377564,   17.3732128,           0.
   1018,   6.68146372,   23.1630917,           0.
   1019,   6.69378138,   30.8821564,           0.
   1020,   3.31041336,   13.5218077,           0.
   1021,   3.28728962,   9.70177937,           0.
   1022,   3.04202771,   6.43462801,           0.
   1023,   6.80299854,   46.4185562,           0.
   1024,   6.73113203,   42.4780922,           0.
   1025,   6.71200705,   38.6049271,           0.
   1026,   6.68689871,   27.0219555,           0.
   1027,   6.70242643,   34.7425003,           0.
   1028,   6.98084974,   50.4199982,           0.
   1029,   26.0262794,   58.3205643,           0.
   1030,   32.0275497,    54.894001,           0.
   1031,   39.8129196,   54.6072807,           0.
   1032,   10.0648565,   58.4041634,           0.
   1033,   6.67089987,   58.6738434,           0.
   1034,    18.017704,   58.3248672,           0.
   1035,   22.0207119,   58.3212547,           0.
   1036,   14.0160227,   58.3612633,           0.
   1037,   35.9634056,    54.846302,           0.
   1038,   51.0999756,   47.2156334,           0.
   1039,   54.6394119,   44.1783371,           0.
   1040,   57.7708626,    40.745491,           0.
   1041,   48.5727768,    51.160778,           0.
   1042,   65.2127304,   9.15590191,           0.
   1043,    61.434597,   6.83183479,           0.
   1044,   7.59270811,   54.7941437,           0.
   1045,   6.85674763,   7.34225273,           0.
   1046,   61.7941055,   38.3058472,           0.
   1047,   62.0864677,   14.9771843,           0.
   1048,   58.8450546,   32.0881844,           0.
   1049,   58.8876381,   24.4509773,           0.
   1050,   58.8857269,   28.2351494,           0.
   1051,   62.1317482,    18.791256,           0.
   1052,   57.3038979,   6.68822718,           0.
   1053,   38.1531448,   6.60340786,           0.
   1054,   49.6054688,   6.61342096,           0.
   1055,   45.7844124,   6.60138321,           0.
   1056,    20.970499,   9.92917156,           0.
   1057,   24.7975521,   9.92241383,           0.
   1058,   17.0331364,   9.95049477,           0.
   1059,   28.6168175,    9.9167099,           0.
   1060,   32.4330101,   9.91115856,           0.
   1061,   13.0692015,   9.97514725,           0.
   1062,   41.9684525,   6.60100126,           0.
   1063,   53.4734497,   6.73776627,           0.
   1064,    6.6829915,   19.3162594,           0.
   1065,   6.70430994,   11.5367565,           0.
   1066,    10.024394,   25.0875473,           0.
   1067,   10.0498352,   32.8057213,           0.
   1068,   10.0646925,   36.6659508,           0.
   1069,   10.0362835,   28.9452095,           0.
   1070,    10.082489,   40.5274315,           0.
   1071,    10.149004,   44.4887466,           0.
   1072,    10.256341,   48.4808197,           0.
   1073,   6.77489519,   15.4273415,           0.
   1074,   46.0480576,   54.4716339,           0.
   1075,   28.0348339,   54.8894501,           0.
   1076,   20.0470009,   54.8925858,           0.
   1077,   11.9505854,   54.9085312,           0.
   1078,   16.0076866,    54.822567,           0.
   1079,   37.8363419,   51.4570312,           0.
   1080,    33.994381,   51.4833221,           0.
   1081,   24.0366764,   54.8896637,           0.
   1082,   61.9799843,   11.1047878,           0.
   1083,   44.9338722,   51.1980591,           0.
   1084,   58.8314362,     12.98386,           0.
   1085,   58.5457115,   36.1677246,           0.
   1086,   55.6202164,   30.1501026,           0.
   1087,   58.8171654,   16.8230648,           0.
   1088,   55.6164894,   26.3489418,           0.
   1089,   58.8435936,   20.6543617,           0.
   1090,   55.4888039,   10.5482311,           0.
   1091,   14.9237852,   13.2798119,           0.
   1092,   36.2481155,   9.90556526,           0.
   1093,   18.9098568,   13.3501949,           0.
   1094,    47.683445,   9.91305065,           0.
   1095,   22.8494263,   13.2705545,           0.
   1096,   26.7025986,   13.2362652,           0.
   1097,   43.8761063,   9.89986801,           0.
   1098,   40.0626755,   9.90091228,           0.
   1099,   30.5280571,   13.2207003,           0.
   1100,   51.4196739,   10.0062637,           0.
   1101,   9.67663383,   9.80187511,           0.
   1102,   10.0211468,   21.2564716,           0.
   1103,   13.3996725,   27.0075741,           0.
   1104,   13.4600363,   38.5934181,           0.
   1105,   13.6308002,   42.5683708,           0.
   1106,   13.4209929,   34.7261696,           0.
   1107,   13.6869173,   46.5913696,           0.
   1108,   10.6184769,   13.3650427,           0.
   1109,   13.3980427,   30.8637123,           0.
   1110,   10.0914764,   17.4690189,           0.
   1111,   10.1274137,   51.9132652,           0.
   1112,   30.0393505,   51.4836769,           0.
   1113,   35.9513817,   48.1390877,           0.
   1114,   18.1226654,   51.4309654,           0.
   1115,   13.8299561,   50.9294586,           0.
   1116,   22.0714302,   51.4716187,           0.
   1117,   26.0515041,   51.4788208,           0.
   1118,   59.0077438,   9.63138771,           0.
   1119,   55.4521637,   18.6930885,           0.
   1120,   52.3914223,   28.2458649,           0.
   1121,   55.4555588,   34.0185814,           0.
   1122,   55.5550842,   22.5554256,           0.
   1123,   16.7997704,    17.076807,           0.
   1124,   41.9732208,   13.1940079,           0.
   1125,   20.9992046,     16.61413,           0.
   1126,   52.7324371,   13.0267801,           0.
   1127,   38.1597557,   13.2009773,           0.
   1128,   45.7608681,    13.187048,           0.
   1129,    34.345459,   13.2099419,           0.
   1130,    24.818491,   16.5557003,           0.
   1131,   49.5001068,   13.2028913,           0.
   1132,   28.6315689,   16.5345116,           0.
   1133,   17.5684471,   44.6503029,           0.
   1134,   13.3985262,   23.1698189,           0.
   1135,   16.9447346,   40.4457741,           0.
   1136,   16.8103104,   36.6093254,           0.
   1137,   13.1520939,   16.1115685,           0.
   1138,   16.7706985,   28.9382477,           0.
   1139,   16.7679195,   32.7708588,           0.
   1140,   13.3693705,   19.3846474,           0.
   1141,   32.0349007,   48.1065674,           0.
   1142,     39.75243,   48.1453171,           0.
   1143,   20.0634289,   48.0987244,           0.
   1144,   24.0195236,    48.046463,           0.
   1145,   28.0313396,   48.0578728,           0.
   1146,   54.9182281,   37.8746223,           0.
   1147,   52.2883911,   20.7046242,           0.
   1148,   52.3009911,   32.0523872,           0.
   1149,   52.3986702,   24.4591103,           0.
   1150,   55.5130882,   14.7840424,           0.
   1151,   40.0729942,   16.4918194,           0.
   1152,     19.62603,   19.5668335,           0.
   1153,   43.9237366,   16.5721703,           0.
   1154,   36.2604446,   16.5041142,           0.
   1155,   51.7891159,   16.6002579,           0.
   1156,   47.7441597,   16.5375881,           0.
   1157,   22.9290848,   19.7815208,           0.
   1158,   32.4469604,   16.5185623,           0.
   1159,   26.7309017,   19.8083591,           0.
   1160,   20.0664349,    41.783474,           0.
   1161,   20.2002392,   38.4672928,           0.
   1162,   16.8382854,   25.0845852,           0.
   1163,   20.1341076,   34.6532784,           0.
   1164,   20.1018219,   30.8482037,           0.
   1165,   37.9359131,    44.797081,           0.
   1166,   16.6542835,   48.3401642,           0.
   1167,   34.0332985,   44.7607536,           0.
   1168,    21.907547,   44.6453629,           0.
   1169,   25.9881973,   44.5734367,           0.
   1170,   30.0567207,   44.6867447,           0.
   1171,   51.9789352,   35.8262749,           0.
   1172,   49.2646713,   22.6027107,           0.
   1173,   49.1823997,   30.1288109,           0.
   1174,   49.2349014,   26.3484344,           0.
   1175,   38.1773872,   19.7941971,           0.
   1176,   41.9641914,   19.8450108,           0.
   1177,   34.3663635,   19.8128109,           0.
   1178,   45.9737854,   20.3050766,           0.
   1179,    20.596714,   23.0760536,           0.
   1180,   49.4120255,   19.3500519,           0.
   1181,   24.7832527,   23.0493374,           0.
   1182,   30.5509739,   19.8213043,           0.
   1183,   23.7624855,   40.7802086,           0.
   1184,     16.77145,   21.2264576,           0.
   1185,   41.7304611,   44.8481445,           0.
   1186,   23.5791588,   36.5737305,           0.
   1187,   36.0788994,   41.2817841,           0.
   1188,   20.1317215,   27.1082726,           0.
   1189,   23.5343418,   32.7171326,           0.
   1190,   32.0520058,   41.3188553,           0.
   1191,   28.0651932,   41.2518196,           0.
   1192,   54.0331154,   41.0638695,           0.
   1193,   51.2927589,   43.0498657,           0.
   1194,   46.0742226,   28.2176838,           0.
   1195,   48.9462662,   33.8967514,           0.
   1196,   40.1040306,   23.0510445,           0.
   1197,   36.2893524,   23.0991993,           0.
   1198,   43.3454781,   22.8016529,           0.
   1199,   32.4946365,   23.1053867,           0.
   1200,   28.6567802,   23.1448574,           0.
   1201,   40.0908241,   41.3301125,           0.
   1202,   43.4187355,   48.0641403,           0.
   1203,   27.4124165,   34.5662689,           0.
   1204,    23.365715,   28.9766941,           0.
   1205,   34.0143852,   37.8017082,           0.
   1206,   30.0247993,   37.8823929,           0.
   1207,   26.5688095,   38.2108841,           0.
   1208,    45.871048,    31.960041,           0.
   1209,   48.6082306,   37.5601616,           0.
   1210,   38.3243179,    26.399971,           0.
   1211,   42.5029144,   26.4041786,           0.
   1212,   34.4438667,   26.4112663,           0.
   1213,   30.6569767,    26.409317,           0.
   1214,   43.9361725,    41.595417,           0.
   1215,   26.6312962,   26.7364693,           0.
   1216,   38.3209953,   37.1514893,           0.
   1217,   45.4448509,   44.8016815,           0.
   1218,   26.6165791,   30.6362324,           0.
   1219,   31.9745369,   34.1500549,           0.
   1220,   45.6355743,   35.7054291,           0.
   1221,   46.0659943,   24.4466228,           0.
   1222,    51.456543,    39.473671,           0.
   1223,    40.084343,   29.8348083,           0.
   1224,   36.3419914,   29.6251926,           0.
   1225,   47.8604393,   41.4730263,           0.
   1226,   32.4329185,   29.9570084,           0.
   1227,     47.00811,   47.8900833,           0.
   1228,   42.6221657,   38.0712929,           0.
   1229,   35.4093513,   34.8537064,           0.
   1230,   23.1017399,   25.7893658,           0.
   1231,   29.1772976,   29.0876656,           0.
   1232,   29.5227489,   31.6794472,           0.
   1233,   45.7325172,   38.8810654,           0.
   1234,   41.9687386,   33.6630211,           0.
   1235,   37.8304634,   32.9017677,           0.
   1236,   43.3002548,   30.0159473,           0.
   1237,   48.5412254,   44.8860588,           0.
   1238,   34.7978516,   32.2975464,           0.
   1239,   41.4516907,   51.2408867,           0.
   1240,   42.9652405,   53.8232613,           0.
*Element, type=S3
  1, 323, 246, 290
  2, 256,  69, 205
  3, 223,  48, 222
  4, 205,  13,  14
  5, 207,  27,  28
  6, 220,  28,  29
  7, 248,  17, 208
  8, 236,  62,  63
  9, 250, 236, 235
 10, 210,  19,  20
 11, 335, 333, 295
 12, 209, 208,  18
 13, 249, 210, 212
 14, 213, 212,  21
 15, 213,  22,  23
 16,  22,   2,  23
 17,  28,   3,  29
 18, 214,  26, 206
 19, 215, 213,  23
 20,  39,   4,  40
 21, 230,  40,  41
 22, 269, 227, 264
 23, 264, 227, 226
 24, 288, 281, 277
 25, 269, 268, 228
 26, 274,  34,  35
 27, 217,  33, 216
 28, 270, 223, 266
 29, 218,  32, 217
 30, 207, 206,  27
 31,  54,  53,   5
 32, 244,  54,  55
 33, 257, 242, 255
 34, 265, 263,  51
 35, 271, 222, 221
 36, 262, 255, 241
 37, 222,  49, 221
 38, 224,  47, 223
 39, 225,  46, 224
 40, 226,  45, 225
 41, 227,  44, 226
 42, 228,  43, 227
 43, 229,  42, 228
 44, 230,  41, 229
 45,  69,   1,  13
 46, 205,  69,  13
 47, 256, 231,  68
 48, 289, 231, 256
 49, 232,  67, 231
 50, 233,  66, 232
 51, 233,  65,  66
 52, 234,  64,  65
 53, 235,  63,  64
 54, 237,  61,  62
 55, 239,  60, 238
 56, 240,  59, 239
 57, 241,  58, 240
 58, 242,  57, 241
 59, 243,  56, 242
 60, 244,  55, 243
 61, 287,  15, 246
 62, 246,  15,  16
 63, 206,  26,  27
 64, 317, 284, 207
 65, 220,  29,  30
 66, 219,  31, 218
 67, 208,  17,  18
 68, 209,  18,  19
 69, 210, 209,  19
 70, 249, 245, 210
 71, 212,  20,  21
 72, 211,  24,  25
 73, 214,  25,  26
 74, 214, 211,  25
 75, 212, 210,  20
 76, 213,  21,  22
 77, 215,  23,  24
 78, 291, 215, 282
 79, 261, 254, 239
 80, 285, 214, 283
 81, 215,  24, 211
 82, 379, 329, 282
 83, 216,  33,  34
 84, 316, 216, 274
 85, 280, 218, 217
 86, 217,  32,  33
 87, 276, 219, 218
 88, 218,  31,  32
 89, 445, 219, 276
 90, 219,  30,  31
 91, 220, 207,  28
 92, 220,  30, 219
 93, 221,  49,  50
 94, 263,  50,  51
 95, 312, 270, 310
 96, 222,  48,  49
 97, 321, 320, 280
 98, 223,  47,  48
 99, 270, 267, 224
100, 224,  46,  47
101, 272, 226, 225
102, 225,  45,  46
103, 279,  36, 275
104, 226,  44,  45
105, 281,  37,  38
106, 227,  43,  44
107, 268, 229, 228
108, 228,  42,  43
109, 288, 229, 268
110, 229,  41,  42
111, 277,  39, 230
112, 230,  39,  40
113, 231,  67,  68
114, 287,  14,  15
115, 258, 252, 233
116, 232,  66,  67
117, 293, 245, 292
118, 234,  65, 233
119, 258, 233, 232
120, 235,  64, 234
121, 247, 209, 245
122, 236,  63, 235
123, 260, 236, 250
124, 237,  62, 236
125, 253, 238, 237
126, 238,  61, 237
127, 261, 238, 253
128, 238,  60,  61
129, 254, 240, 239
130, 239,  59,  60
131, 262, 240, 254
132, 240,  58,  59
133, 255, 242, 241
134, 241,  57,  58
135, 315, 286, 306
136, 242,  56,  57
137, 286, 243, 257
138, 243,  55,  56
139, 273,  53, 244
140, 244,  53,  54
141, 245, 209, 210
142, 292, 245, 249
143, 248,  16,  17
144, 331, 289, 323
145, 258, 232, 251
146, 247, 208, 209
147, 248, 246,  16
148, 294, 208, 247
149, 291, 212, 213
150, 282, 215, 211
151, 259, 235, 234
152, 260, 253, 237
153, 251, 232, 231
154, 290, 246, 248
155, 252, 234, 233
156, 296, 252, 258
157, 260, 237, 236
158, 302, 300, 261
159, 271, 266, 222
160, 261, 239, 238
161, 298, 255, 262
162, 262, 241, 240
163, 256,  68,  69
164, 289, 256, 205
165, 342, 307, 324
166, 257, 243, 242
167, 297, 296, 258
168, 339, 335, 296
169, 259, 250, 235
170, 259, 234, 252
171, 335, 295, 296
172, 304, 250, 301
173, 303, 302, 253
174, 299, 298, 262
175, 342, 271, 307
176, 332, 324, 305
177, 263, 221,  50
178, 265,  51,  52
179, 267, 225, 224
180, 377, 353, 376
181, 273, 265,  52
182, 286, 273, 244
183, 310, 266, 308
184, 266, 223, 222
185, 320, 276, 280
186, 375, 321, 350
187, 281,  38, 277
188, 269, 228, 227
189, 413, 377, 371
190, 314, 264, 311
191, 270, 224, 223
192, 368, 308, 342
193, 307, 221, 263
194, 305, 255, 298
195, 272, 264, 226
196, 272, 225, 267
197, 273,  52,  53
198, 286, 244, 243
199, 274, 216,  34
200, 279,  35,  36
201, 275,  36,  37
202, 319, 318, 275
203, 317, 207, 220
204, 378, 354, 377
205, 277,  38,  39
206, 288, 230, 229
207, 278, 217, 216
208, 311, 272, 309
209, 313, 268, 269
210, 279, 274,  35
211, 280, 276, 218
212, 280, 217, 278
213, 319, 281, 288
214, 281, 275,  37
215, 329, 292, 249
216, 285, 211, 214
217, 283, 214, 206
218, 284, 283, 206
219, 284, 206, 207
220, 445, 325, 317
221, 337, 304, 334
222, 285, 282, 211
223, 306, 257, 305
224, 286, 265, 273
225, 287, 205,  14
226, 326, 323, 290
227, 288, 277, 230
228, 349, 319, 288
229, 289, 251, 231
230, 289, 205, 287
231, 294, 290, 248
232, 383, 364, 339
233, 291, 249, 212
234, 291, 213, 215
235, 328, 293, 292
236, 329, 249, 291
237, 296, 295, 252
238, 293, 247, 245
239, 294, 248, 208
240, 330, 247, 293
241, 301, 259, 295
242, 295, 259, 252
243, 297, 258, 251
244, 355, 327, 330
245, 331, 323, 326
246, 331, 326, 297
247, 299, 262, 254
248, 300, 254, 261
249, 300, 299, 254
250, 336, 332, 298
251, 302, 261, 253
252, 367, 340, 341
253, 338, 303, 337
254, 301, 250, 259
255, 303, 253, 260
256, 341, 302, 338
257, 304, 303, 260
258, 359, 334, 333
259, 304, 260, 250
260, 380, 328, 356
261, 324, 306, 305
262, 305, 257, 255
263, 324, 315, 306
264, 306, 286, 257
265, 307, 271, 221
266, 315, 307, 263
267, 345, 310, 343
268, 308, 266, 271
269, 309, 272, 267
270, 312, 267, 270
271, 310, 270, 266
272, 368, 342, 358
273, 353, 318, 352
274, 311, 264, 272
275, 348, 312, 345
276, 312, 309, 267
277, 319, 275, 281
278, 314, 313, 269
279, 314, 269, 264
280, 399, 398, 375
281, 315, 263, 265
282, 315, 265, 286
283, 316, 278, 216
284, 322, 274, 279
285, 317, 220, 219
286, 445, 444, 325
287, 318, 279, 275
288, 347, 314, 344
289, 349, 288, 268
290, 352, 319, 349
291, 374, 320, 351
292, 321, 280, 278
293, 350, 278, 316
294, 420, 419, 405
295, 322, 316, 274
296, 322, 279, 318
297, 323, 289, 287
298, 323, 287, 246
299, 324, 307, 315
300, 332, 305, 298
301, 442, 325, 423
302, 325, 284, 317
303, 327, 290, 294
304, 327, 326, 290
305, 330, 327, 294
306, 361, 359, 333
307, 356, 292, 329
308, 409, 374, 396
309, 329, 291, 282
310, 379, 356, 329
311, 330, 294, 247
312, 357, 293, 328
313, 331, 297, 251
314, 331, 251, 289
315, 336, 298, 299
316, 340, 299, 300
317, 334, 301, 333
318, 333, 301, 295
319, 385, 359, 384
320, 334, 304, 301
321, 339, 296, 297
322, 383, 355, 364
323, 341, 340, 300
324, 360, 358, 332
325, 362, 334, 359
326, 337, 303, 304
327, 365, 338, 363
328, 338, 302, 303
329, 383, 297, 326
330, 383, 326, 327
331, 367, 341, 365
332, 340, 336, 299
333, 341, 300, 302
334, 363, 337, 362
335, 342, 308, 271
336, 358, 324, 332
337, 388, 363, 387
338, 343, 310, 308
339, 344, 314, 311
340, 346, 311, 309
341, 392, 368, 360
342, 345, 312, 310
343, 346, 344, 311
344, 348, 346, 309
345, 376, 352, 347
346, 347, 313, 314
347, 348, 309, 312
348, 389, 365, 388
349, 349, 268, 313
350, 352, 349, 313
351, 350, 321, 278
352, 354, 316, 322
353, 418, 403, 384
354, 351, 320, 321
355, 352, 318, 319
356, 352, 313, 347
357, 353, 322, 318
358, 371, 344, 370
359, 354, 350, 316
360, 354, 322, 353
361, 357, 355, 330
362, 382, 328, 380
363, 427, 425, 379
364, 356, 328, 292
365, 357, 330, 293
366, 418, 382, 401
367, 358, 342, 324
368, 360, 332, 336
369, 361, 333, 335
370, 441, 440, 439
371, 366, 336, 340
372, 392, 360, 390
373, 364, 361, 335
374, 381, 364, 355
375, 387, 362, 385
376, 362, 337, 334
377, 411, 410, 394
378, 363, 338, 337
379, 364, 335, 339
380, 381, 355, 357
381, 367, 366, 340
382, 365, 341, 338
383, 400, 392, 390
384, 366, 360, 336
385, 400, 369, 392
386, 391, 367, 389
387, 368, 343, 308
388, 368, 358, 360
389, 372, 345, 369
390, 369, 345, 343
391, 370, 344, 346
392, 373, 346, 348
393, 377, 376, 371
394, 371, 347, 344
395, 372, 348, 345
396, 405, 387, 404
397, 373, 370, 346
398, 373, 348, 372
399, 423, 374, 409
400, 444, 374, 423
401, 375, 351, 321
402, 378, 350, 354
403, 376, 353, 352
404, 376, 347, 371
405, 377, 354, 353
406, 413, 371, 393
407, 393, 371, 370
408, 378, 375, 350
409, 427, 282, 285
410, 402, 380, 356
411, 386, 384, 361
412, 402, 356, 379
413, 386, 364, 381
414, 382, 381, 357
415, 382, 357, 328
416, 401, 382, 380
417, 383, 339, 297
418, 383, 327, 355
419, 438, 437, 435
420, 384, 359, 361
421, 404, 385, 403
422, 385, 362, 359
423, 386, 361, 364
424, 418, 381, 382
425, 398, 396, 351
426, 387, 363, 362
427, 412, 411, 397
428, 388, 365, 363
429, 391, 390, 366
430, 389, 367, 365
431, 390, 360, 366
432, 391, 366, 367
433, 436, 421, 419
434, 400, 395, 369
435, 392, 369, 343
436, 392, 343, 368
437, 394, 370, 373
438, 394, 393, 370
439, 397, 373, 372
440, 436, 432, 426
441, 395, 372, 369
442, 406, 388, 405
443, 396, 374, 351
444, 398, 351, 375
445, 397, 394, 373
446, 397, 372, 395
447, 399, 375, 378
448, 428, 410, 411
449, 413, 399, 378
450, 410, 393, 394
451, 400, 390, 391
452, 407, 389, 406
453, 429, 418, 401
454, 415, 380, 402
455, 425, 402, 379
456, 438, 425, 437
457, 440, 415, 439
458, 403, 385, 384
459, 420, 404, 417
460, 404, 387, 385
461, 428, 426, 414
462, 405, 388, 387
463, 416, 400, 407
464, 406, 389, 388
465, 407, 400, 391
466, 407, 391, 389
467, 408, 396, 398
468, 414, 398, 399
469, 435, 423, 409
470, 422, 396, 408
471, 413, 410, 399
472, 411, 394, 397
473, 412, 397, 395
474, 424, 412, 421
475, 416, 412, 395
476, 421, 407, 406
477, 413, 378, 377
478, 413, 393, 410
479, 414, 408, 398
480, 414, 399, 410
481, 415, 401, 380
482, 430, 402, 425
483, 416, 395, 400
484, 421, 406, 419
485, 417, 404, 403
486, 429, 417, 403
487, 418, 384, 386
488, 418, 386, 381
489, 419, 406, 405
490, 420, 405, 404
491, 441, 431, 440
492, 434, 432, 431
493, 421, 412, 416
494, 421, 416, 407
495, 422, 409, 396
496, 434, 408, 426
497, 442, 423, 435
498, 444, 423, 325
499, 428, 424, 426
500, 424, 411, 412
501, 437, 285, 283
502, 443, 438, 433
503, 436, 426, 424
504, 426, 408, 414
505, 427, 379, 282
506, 427, 285, 425
507, 428, 414, 410
508, 428, 411, 424
509, 429, 403, 418
510, 429, 401, 415
511, 443, 441, 439
512, 430, 415, 402
513, 431, 420, 417
514, 440, 429, 415
515, 432, 419, 420
516, 432, 420, 431
517, 433, 409, 422
518, 441, 422, 434
519, 434, 422, 408
520, 434, 426, 432
521, 442, 435, 437
522, 435, 409, 433
523, 436, 424, 421
524, 436, 419, 432
525, 437, 425, 285
526, 442, 437, 283
527, 438, 435, 433
528, 438, 430, 425
529, 439, 415, 430
530, 443, 439, 430
531, 440, 431, 417
532, 440, 417, 429
533, 441, 433, 422
534, 441, 434, 431
535, 442, 283, 284
536, 442, 284, 325
537, 443, 430, 438
538, 443, 433, 441
539, 444, 276, 320
540, 444, 320, 374
541, 445, 317, 219
542, 445, 276, 444
 543, 487, 449, 118
 544, 450, 117, 449
 545, 504, 500, 464
 546, 471,  95, 470
 547, 598, 101, 102
 548, 447, 115, 446
 549,  13,   1,  70
 550, 451,  13,  70
 551, 467,  72, 466
 552, 452,  15,  14
 553, 453,  16,  15
 554, 488,  17, 456
 555, 488,  18,  17
 556, 457, 455,  20
 557, 455,  21,  20
 558, 487, 118,   2
 559,  86,   6,  87
 560, 478,  87,  88
 561, 537, 536, 496
 562, 591, 590, 550
 563, 497,  84,  85
 564, 538, 497, 531
 565, 493,  81,  82
 566, 503, 499, 462
 567, 459,  80, 458
 568, 460,  79, 459
 569, 462,  77, 461
 570, 463,  76, 462
 571, 499, 463, 462
 572, 500, 465, 464
 573, 465,  74, 464
 574, 572, 533, 490
 575, 556,  70,  71
 576, 101, 100,   7
 577, 468, 100, 101
 578, 479, 102, 103
 579, 507, 469,  97
 580, 507,  97,  98
 581, 513, 510, 470
 582, 470,  96, 469
 583, 472,  94, 471
 584, 473,  93, 472
 585, 474,  92, 473
 586, 475,  91, 474
 587, 476,  90, 475
 588, 477,  89, 476
 589, 478,  88, 477
 590, 563, 522, 557
 591, 599, 557, 593
 592, 522, 105, 483
 593, 483, 105, 106
 594, 484, 107, 480
 595, 480, 107, 108
 596, 486, 485, 109
 597, 481, 110, 111
 598, 502, 494, 459
 599, 447, 114, 115
 600, 448, 113, 114
 601, 112,   8, 113
 602, 487,   2,  22
 603, 446, 115, 116
 604, 448, 114, 447
 605, 450, 116, 117
 606, 461,  78, 460
 607, 482, 481, 111
 608, 630, 624, 567
 609, 482, 112, 113
 610, 482, 113, 448
 611, 449, 117, 118
 612, 457,  19, 454
 613, 675, 570, 604
 614, 450, 446, 116
 615, 452,  14, 451
 616, 451,  14,  13
 617, 466,  73, 465
 618, 453,  15, 452
 619, 464,  75, 463
 620, 456,  16, 453
 621, 454,  19,  18
 622, 505, 503, 461
 623, 530, 455, 491
 624, 457,  20,  19
 625, 456,  17,  16
 626, 504, 463, 499
 627, 489, 457, 454
 628, 491, 457, 489
 629, 458,  80,  81
 630, 510, 471, 470
 631, 494, 460, 459
 632, 459,  79,  80
 633, 505, 460, 494
 634, 460,  78,  79
 635, 532, 491, 489
 636, 461,  77,  78
 637, 544, 500, 543
 638, 462,  76,  77
 639, 501, 465, 500
 640, 463,  75,  76
 641, 529, 490, 452
 642, 464,  74,  75
 643, 556, 529, 451
 644, 465,  73,  74
 645, 506, 467, 466
 646, 466,  72,  73
 647, 556, 467, 529
 648, 467,  71,  72
 649, 512, 507,  98
 650, 468,  99, 100
 651, 469,  96,  97
 652, 560, 559, 520
 653, 545, 541, 494
 654, 470,  95,  96
 655, 514, 471, 510
 656, 471,  94,  95
 657, 613, 576, 610
 658, 472,  93,  94
 659, 588, 549, 587
 660, 473,  92,  93
 661, 537, 496, 495
 662, 474,  91,  92
 663, 509, 475, 474
 664, 475,  90,  91
 665, 497, 495,  84
 666, 476,  89,  90
 667, 538, 537, 495
 668, 477,  88,  89
 669, 498,  86, 478
 670, 478,  86,  87
 671, 598, 479, 565
 672, 518, 103, 104
 673, 485, 108, 109
 674, 519, 480, 485
 675, 486, 110, 481
 676, 528, 448, 447
 677, 482, 111, 112
 678, 517, 482, 448
 679, 555, 513, 469
 680, 484, 483, 106
 681, 484, 106, 107
 682, 520, 480, 519
 683, 485, 480, 108
 684, 486, 109, 110
 685, 517, 481, 482
 686, 521, 481, 517
 687, 566,  22,  21
 688, 566, 487,  22
 689, 488, 454,  18
 690, 492, 456, 453
 691, 530, 527, 449
 692, 534, 454, 488
 693, 492, 453, 490
 694, 490, 453, 452
 695, 566, 530, 487
 696, 491, 455, 457
 697, 535, 534, 488
 698, 535, 456, 492
 699, 493, 458,  81
 700, 496,  82,  83
 701, 502, 459, 458
 702, 526, 446, 525
 703, 495,  83,  84
 704, 508, 477, 476
 705, 496, 493,  82
 706, 496,  83, 495
 707, 498, 497,  85
 708, 531, 478, 477
 709, 498,  85,  86
 710, 531, 498, 478
 711, 503, 462, 461
 712, 540, 503, 539
 713, 615, 581, 611
 714, 504, 464, 463
 715, 546, 506, 501
 716, 501, 466, 465
 717, 547, 458, 493
 718, 591, 548, 588
 719, 582, 580, 540
 720, 612, 582, 609
 721, 542, 499, 540
 722, 543, 504, 542
 723, 505, 461, 460
 724, 541, 539, 505
 725, 572, 529, 506
 726, 506, 466, 501
 727, 512,  98,  99
 728, 623, 565, 558
 729, 516, 476, 475
 730, 516, 475, 509
 731, 515, 474, 473
 732, 511, 473, 472
 733, 513, 470, 469
 734, 665, 646, 654
 735, 515, 473, 511
 736, 514, 511, 472
 737, 512,  99, 468
 738, 598, 565, 468
 739, 555, 469, 507
 740, 523, 484, 520
 741, 514, 472, 471
 742, 551, 549, 514
 743, 550, 515, 548
 744, 515, 509, 474
 745, 552, 509, 550
 746, 516, 508, 476
 747, 526, 447, 446
 748, 524, 486, 521
 749, 518, 479, 103
 750, 522, 518, 104
 751, 554, 551, 510
 752, 524, 485, 486
 753, 646, 586, 622
 754, 520, 484, 480
 755, 521, 486, 481
 756, 567, 517, 528
 757, 522, 104, 105
 758, 557, 483, 523
 759, 595, 558, 563
 760, 523, 483, 484
 761, 562, 524, 561
 762, 524, 519, 485
 763, 525, 446, 450
 764, 527, 525, 450
 765, 638, 636, 609
 766, 666, 567, 624
 767, 527, 450, 449
 768, 603, 532, 569
 769, 528, 517, 448
 770, 528, 447, 526
 771, 529, 452, 451
 772, 529, 467, 506
 773, 530, 449, 487
 774, 570, 530, 491
 775, 531, 497, 498
 776, 531, 477, 508
 777, 569, 489, 534
 778, 582, 539, 578
 779, 568, 534, 535
 780, 533, 492, 490
 781, 534, 489, 454
 782, 535, 488, 456
 783, 571, 492, 533
 784, 571, 568, 535
 785, 577, 547, 536
 786, 536, 493, 496
 787, 538, 495, 497
 788, 553, 516, 552
 789, 585, 531, 508
 790, 610, 579, 589
 791, 539, 503, 505
 792, 541, 505, 494
 793, 580, 542, 540
 794, 540, 499, 503
 795, 545, 494, 502
 796, 578, 541, 574
 797, 584, 543, 581
 798, 542, 504, 499
 799, 581, 542, 580
 800, 543, 500, 504
 801, 583, 546, 544
 802, 544, 501, 500
 803, 575, 502, 547
 804, 548, 515, 511
 805, 572, 546, 533
 806, 546, 501, 544
 807, 547, 502, 458
 808, 547, 493, 536
 809, 549, 511, 514
 810, 549, 548, 511
 811, 551, 514, 510
 812, 622, 592, 600
 813, 579, 576, 537
 814, 550, 509, 515
 815, 554, 510, 513
 816, 629, 593, 625
 817, 585, 579, 538
 818, 552, 516, 509
 819, 585, 553, 579
 820, 553, 508, 516
 821, 592, 555, 573
 822, 559, 523, 520
 823, 564, 507, 512
 824, 558, 479, 518
 825, 556, 451,  70
 826, 556,  71, 467
 827, 557, 522, 483
 828, 593, 523, 559
 829, 623, 573, 564
 830, 563, 558, 518
 831, 560, 520, 519
 832, 651, 625, 649
 833, 562, 519, 524
 834, 597, 562, 594
 835, 561, 524, 521
 836, 666, 517, 567
 837, 597, 596, 560
 838, 562, 560, 519
 839, 563, 518, 522
 840, 628, 595, 599
 841, 564, 555, 507
 842, 565, 564, 512
 843, 565, 512, 468
 844, 565, 479, 558
 845, 566,  21, 455
 846, 566, 455, 530
 847, 606, 528, 526
 848, 634, 604, 603
 849, 584, 583, 544
 850, 637, 612, 636
 851, 569, 532, 489
 852, 569, 534, 568
 853, 570, 527, 530
 854, 570, 491, 532
 855, 571, 535, 492
 856, 583, 533, 546
 857, 572, 490, 529
 858, 572, 506, 546
 859, 600, 573, 595
 860, 573, 555, 564
 861, 574, 541, 545
 862, 614, 545, 575
 863, 575, 545, 502
 864, 577, 536, 576
 865, 576, 536, 537
 866, 589, 553, 552
 867, 613, 577, 576
 868, 577, 575, 547
 869, 687, 682, 648
 870, 578, 539, 541
 871, 579, 537, 538
 872, 589, 579, 553
 873, 633, 601, 616
 874, 611, 581, 580
 875, 605, 601, 571
 876, 581, 543, 542
 877, 582, 540, 539
 878, 609, 578, 607
 879, 605, 533, 583
 880, 584, 544, 543
 881, 640, 611, 637
 882, 616, 583, 584
 883, 585, 538, 531
 884, 585, 508, 553
 885, 587, 551, 586
 886, 586, 551, 554
 887, 618, 587, 617
 888, 587, 549, 551
 889, 590, 589, 552
 890, 588, 548, 549
 891, 590, 552, 550
 892, 620, 610, 589
 893, 621, 591, 619
 894, 639, 635, 608
 895, 591, 550, 548
 896, 619, 588, 618
 897, 592, 554, 513
 898, 592, 513, 555
 899, 593, 557, 523
 900, 625, 559, 596
 901, 594, 562, 561
 902, 666, 624, 561
 903, 623, 595, 573
 904, 599, 595, 563
 905, 596, 559, 560
 906, 597, 560, 562
 907, 664, 645, 644
 908, 627, 597, 626
 909, 598, 468, 101
 910, 598, 102, 479
 911, 599, 563, 557
 912, 631, 628, 629
 913, 631, 600, 628
 914, 600, 592, 573
 915, 602, 568, 601
 916, 601, 568, 571
 917, 603, 569, 602
 918, 602, 569, 568
 919, 699, 698, 655
 920, 604, 532, 603
 921, 675, 653, 673
 922, 604, 570, 532
 923, 605, 571, 533
 924, 616, 605, 583
 925, 606, 567, 528
 926, 673, 672, 662
 927, 607, 578, 574
 928, 642, 574, 614
 929, 639, 608, 613
 930, 608, 575, 577
 931, 690, 674, 688
 932, 609, 582, 578
 933, 610, 576, 579
 934, 620, 589, 590
 935, 633, 632, 602
 936, 612, 611, 580
 937, 612, 580, 582
 938, 677, 676, 656
 939, 694, 678, 657
 940, 613, 608, 577
 941, 614, 574, 545
 942, 614, 575, 608
 943, 658, 640, 637
 944, 615, 584, 581
 945, 616, 601, 605
 946, 616, 584, 615
 947, 617, 587, 586
 948, 697, 693, 695
 949, 644, 618, 643
 950, 618, 588, 587
 951, 645, 619, 644
 952, 619, 591, 588
 953, 620, 613, 610
 954, 621, 620, 590
 955, 621, 590, 591
 956, 694, 680, 678
 957, 622, 586, 554
 958, 622, 554, 592
 959, 623, 564, 565
 960, 623, 558, 595
 961, 624, 594, 561
 962, 630, 567, 606
 963, 625, 593, 559
 964, 649, 596, 627
 965, 626, 597, 594
 966, 648, 594, 624
 967, 670, 649, 668
 968, 627, 596, 597
 969, 628, 600, 595
 970, 629, 628, 599
 971, 629, 599, 593
 972, 654, 631, 651
 973, 655, 606, 647
 974, 686, 674, 652
 975, 670, 651, 649
 976, 631, 622, 600
 977, 634, 603, 632
 978, 632, 603, 602
 979, 633, 602, 601
 980, 641, 616, 615
 981, 660, 632, 633
 982, 653, 604, 634
 983, 642, 614, 635
 984, 635, 614, 608
 985, 636, 612, 609
 986, 638, 609, 607
 987, 660, 633, 641
 988, 637, 611, 612
 989, 661, 607, 642
 990, 659, 656, 636
 991, 639, 613, 620
 992, 671, 620, 621
 993, 660, 652, 632
 994, 640, 615, 611
 995, 641, 633, 616
 996, 641, 615, 640
 997, 642, 607, 574
 998, 669, 657, 635
 999, 643, 618, 617
1000, 685, 670, 668
1001, 671, 669, 639
1002, 644, 619, 618
1003, 671, 645, 669
1004, 645, 621, 619
1005, 646, 617, 586
1006, 646, 622, 631
1007, 647, 606, 526
1008, 662, 526, 525
1009, 648, 626, 594
1010, 687, 624, 630
1011, 649, 625, 596
1012, 668, 627, 650
1013, 650, 627, 626
1014, 667, 626, 648
1015, 651, 631, 629
1016, 651, 629, 625
1017, 652, 634, 632
1018, 700, 696, 682
1019, 689, 675, 673
1020, 674, 634, 652
1021, 665, 617, 646
1022, 654, 646, 631
1023, 655, 630, 606
1024, 672, 655, 647
1025, 656, 637, 636
1026, 659, 636, 638
1027, 661, 642, 657
1028, 657, 642, 635
1029, 686, 660, 658
1030, 658, 637, 656
1031, 679, 638, 661
1032, 701, 692, 697
1033, 660, 641, 640
1034, 660, 640, 658
1035, 661, 638, 607
1036, 680, 664, 663
1037, 662, 647, 526
1038, 673, 662, 525
1039, 663, 644, 643
1040, 681, 643, 665
1041, 694, 669, 645
1042, 664, 644, 663
1043, 695, 685, 684
1044, 665, 643, 617
1045, 666, 561, 521
1046, 666, 521, 517
1047, 667, 650, 626
1048, 687, 648, 624
1049, 668, 649, 627
1050, 695, 663, 681
1051, 669, 635, 639
1052, 694, 645, 664
1053, 670, 665, 654
1054, 670, 654, 651
1055, 671, 639, 620
1056, 671, 621, 645
1057, 700, 698, 699
1058, 672, 647, 662
1059, 689, 525, 527
1060, 690, 673, 653
1061, 674, 653, 634
1062, 688, 686, 676
1063, 675, 527, 570
1064, 675, 604, 653
1065, 676, 658, 656
1066, 677, 656, 659
1067, 693, 678, 680
1068, 701, 696, 691
1069, 679, 661, 678
1070, 678, 661, 657
1071, 692, 659, 679
1072, 679, 659, 638
1073, 695, 681, 685
1074, 697, 692, 693
1075, 681, 663, 643
1076, 681, 665, 670
1077, 682, 667, 648
1078, 698, 687, 655
1079, 683, 650, 667
1080, 696, 667, 682
1081, 684, 668, 650
1082, 684, 650, 683
1083, 685, 681, 670
1084, 685, 668, 684
1085, 686, 652, 660
1086, 686, 658, 676
1087, 687, 630, 655
1088, 699, 655, 672
1089, 688, 674, 686
1090, 691, 688, 676
1091, 689, 673, 525
1092, 689, 527, 675
1093, 690, 672, 673
1094, 690, 653, 674
1095, 691, 676, 677
1096, 701, 697, 683
1097, 692, 677, 659
1098, 693, 692, 679
1099, 693, 679, 678
1100, 695, 693, 680
1101, 694, 664, 680
1102, 694, 657, 669
1103, 697, 695, 684
1104, 695, 680, 663
1105, 696, 683, 667
1106, 700, 682, 698
1107, 697, 684, 683
1108, 701, 683, 696
1109, 698, 682, 687
1110, 699, 672, 690
1111, 699, 690, 688
1112, 700, 699, 688
1113, 700, 688, 691
1114, 700, 691, 696
1115, 701, 691, 677
1116, 701, 677, 692
1117, 744, 704, 166
1118, 704, 165, 166
1119, 795, 794, 751
1120, 702, 162, 163
1121, 803, 802, 756
1122, 882,  39,  38
1123, 129,  10, 130
1124, 724, 130, 131
1125, 792, 791, 747
1126, 800, 755, 799
1127, 749, 127, 128
1128, 793, 792, 746
1129, 745, 124, 125
1130, 708, 123, 707
1131, 761, 717, 756
1132, 710, 122, 708
1133, 704, 703, 165
1134, 145,  11, 146
1135, 712, 145, 146
1136, 736, 148, 735
1137, 713, 143, 144
1138, 753, 142, 143
1139, 714, 141, 142
1140, 715, 140, 141
1141, 716, 139, 711
1142, 766, 733, 732
1143, 717, 138, 716
1144, 719, 136, 718
1145, 720, 135, 719
1146, 721, 134, 720
1147, 722, 133, 721
1148, 723, 132, 722
1149, 724, 131, 723
1150,  39, 160,   4
1151, 725, 160,  39
1152, 764, 726, 158
1153, 706, 163, 164
1154, 727, 157, 726
1155, 728, 156, 727
1156, 729, 155, 728
1157, 730, 154, 729
1158, 731, 153, 730
1159, 765, 731, 730
1160, 732, 152, 731
1161, 773, 766, 732
1162, 767, 733, 766
1163, 768, 734, 767
1164, 824, 146, 147
1165, 776,  36, 742
1166, 818, 742, 778
1167, 742,  35, 737
1168, 737,  35,  34
1169, 778, 742, 737
1170, 743,  33, 738
1171, 739, 738,  32
1172, 740, 739,  31
1173, 777, 740, 775
1174, 705, 161, 162
1175,  29,   3, 161
1176, 744,   9, 119
1177, 706, 164, 703
1178, 705, 162, 702
1179, 808, 726, 764
1180, 743,  34,  33
1181, 703, 164, 165
1182, 794, 752, 751
1183, 744, 166,   9
1184, 709, 120, 121
1185, 741,  29, 161
1186, 741, 161, 705
1187, 718, 137, 717
1188, 706, 702, 163
1189, 707, 123, 124
1190, 790, 707, 745
1191, 710, 709, 121
1192, 708, 122, 123
1193, 960, 789, 744
1194, 710, 121, 122
1195, 751, 708, 748
1196, 752, 710, 751
1197, 711, 139, 140
1198, 770, 765, 730
1199, 713, 144, 712
1200, 712, 144, 145
1201, 735, 149, 734
1202, 753, 143, 713
1203, 734, 150, 733
1204, 715, 141, 714
1205, 733, 151, 732
1206, 715, 711, 140
1207, 756, 717, 716
1208, 716, 138, 139
1209, 786, 785, 706
1210, 717, 137, 138
1211, 860, 795, 829
1212, 718, 136, 137
1213, 799, 762, 797
1214, 719, 135, 136
1215, 791, 790, 745
1216, 720, 134, 135
1217, 755, 721, 720
1218, 721, 133, 134
1219, 749, 746, 127
1220, 722, 132, 133
1221, 801, 763, 800
1222, 723, 131, 132
1223, 750, 129, 724
1224, 724, 129, 130
1225, 725, 159, 160
1226, 782,  37, 776
1227, 726, 157, 158
1228, 764, 158, 159
1229, 771, 727, 769
1230, 727, 156, 157
1231, 771, 728, 727
1232, 728, 155, 156
1233, 813, 770, 811
1234, 729, 154, 155
1235, 773, 731, 765
1236, 730, 153, 154
1237, 804, 803, 759
1238, 731, 152, 153
1239, 806, 714, 753
1240, 732, 151, 152
1241, 796, 713, 787
1242, 733, 150, 151
1243, 787, 736, 774
1244, 734, 149, 150
1245, 774, 735, 768
1246, 735, 148, 149
1247, 824, 736, 787
1248, 736, 147, 148
1249, 738,  33,  32
1250, 874, 873, 849
1251, 739,  32,  31
1252, 772, 728, 771
1253, 740,  31,  30
1254, 775, 740, 741
1255, 741, 740,  30
1256, 783, 705, 702
1257, 741,  30,  29
1258, 775, 741, 705
1259, 823, 782, 776
1260, 742,  36,  35
1261, 780, 743, 779
1262, 743, 737,  34
1263, 960, 119, 120
1264, 960, 744, 119
1265, 745, 707, 124
1266, 747, 125, 126
1267, 746, 126, 127
1268, 754, 723, 722
1269, 747, 745, 125
1270, 747, 126, 746
1271, 889, 861, 831
1272, 748, 708, 707
1273, 750, 749, 128
1274, 788, 724, 723
1275, 750, 128, 129
1276, 788, 750, 724
1277, 789, 784, 704
1278, 751, 710, 708
1279, 960, 858, 789
1280, 752, 709, 710
1281, 753, 714, 142
1282, 817, 768, 816
1283, 763, 722, 721
1284, 763, 721, 755
1285, 762, 720, 719
1286, 757, 719, 718
1287, 759, 716, 711
1288, 786, 703, 784
1289, 762, 719, 757
1290, 761, 757, 718
1291, 760, 715, 758
1292, 758, 715, 714
1293, 759, 756, 716
1294, 760, 759, 711
1295, 760, 711, 715
1296, 866, 863, 834
1297, 761, 718, 717
1298, 802, 798, 761
1299, 832, 791, 831
1300, 762, 755, 720
1301, 862, 832, 861
1302, 763, 754, 722
1303, 764, 159, 725
1304, 882, 847, 725
1305, 770, 730, 729
1306, 835, 802, 833
1307, 805, 804, 760
1308, 773, 732, 731
1309, 815, 766, 814
1310, 767, 734, 733
1311, 842, 787, 774
1312, 768, 735, 734
1313, 828, 775, 783
1314, 769, 727, 726
1315, 772, 729, 728
1316, 785, 783, 702
1317, 857, 823, 818
1318, 843, 769, 808
1319, 819, 778, 780
1320, 772, 770, 729
1321, 834, 803, 804
1322, 812, 773, 765
1323, 842, 827, 796
1324, 774, 736, 735
1325, 783, 775, 705
1326, 777, 739, 740
1327, 900, 886, 883
1328, 776,  37,  36
1329, 810, 772, 771
1330, 781, 739, 777
1331, 780, 737, 743
1332, 779, 743, 738
1333, 781, 779, 738
1334, 820, 781, 777
1335, 872, 843, 857
1336, 780, 778, 737
1337, 781, 738, 739
1338, 854, 821, 820
1339, 882, 782, 847
1340, 782,  38,  37
1341, 785, 702, 706
1342, 874, 849, 848
1343, 784, 703, 704
1344, 927, 830, 911
1345, 786, 706, 703
1346, 855, 821, 854
1347, 952, 826, 927
1348, 908, 865, 785
1349, 787, 713, 712
1350, 824, 787, 712
1351, 788, 749, 750
1352, 788, 723, 754
1353, 789, 704, 744
1354, 858, 826, 789
1355, 790, 748, 707
1356, 791, 745, 747
1357, 792, 747, 746
1358, 840, 797, 836
1359, 793, 746, 749
1360, 838, 801, 800
1361, 793, 749, 788
1362, 807, 788, 754
1363, 795, 751, 748
1364, 867, 835, 864
1365, 829, 748, 790
1366, 797, 762, 757
1367, 880, 859, 850
1368, 796, 753, 713
1369, 798, 757, 761
1370, 798, 797, 757
1371, 802, 761, 756
1372, 836, 798, 835
1373, 825, 792, 793
1374, 799, 755, 762
1375, 825, 793, 807
1376, 800, 763, 755
1377, 825, 807, 801
1378, 801, 754, 763
1379, 803, 756, 759
1380, 834, 833, 803
1381, 804, 759, 760
1382, 849, 813, 811
1383, 805, 760, 758
1384, 814, 773, 812
1385, 841, 758, 806
1386, 816, 767, 815
1387, 806, 758, 714
1388, 806, 753, 796
1389, 807, 793, 788
1390, 807, 754, 801
1391, 808, 769, 726
1392, 847, 808, 764
1393, 810, 771, 809
1394, 809, 771, 769
1395, 886, 857, 853
1396, 811, 772, 810
1397, 866, 834, 837
1398, 811, 770, 772
1399, 837, 834, 804
1400, 813, 812, 765
1401, 813, 765, 770
1402, 923, 922, 901
1403, 914, 912, 892
1404, 814, 766, 773
1405, 851, 814, 846
1406, 815, 767, 766
1407, 859, 827, 850
1408, 816, 768, 767
1409, 842, 817, 827
1410, 817, 774, 768
1411, 818, 776, 742
1412, 853, 778, 819
1413, 822, 780, 779
1414, 821, 781, 820
1415, 919, 775, 828
1416, 919, 828, 881
1417, 822, 779, 821
1418, 821, 779, 781
1419, 856, 822, 855
1420, 822, 819, 780
1421, 875, 847, 823
1422, 823, 776, 818
1423, 824, 712, 146
1424, 824, 147, 736
1425, 839, 838, 800
1426, 831, 792, 825
1427, 826, 784, 789
1428, 826, 752, 794
1429, 850, 827, 817
1430, 827, 806, 796
1431, 865, 783, 785
1432, 887, 881, 828
1433, 829, 795, 748
1434, 832, 790, 791
1435, 948, 932, 908
1436, 830, 794, 795
1437, 831, 791, 792
1438, 838, 825, 801
1439, 889, 831, 825
1440, 832, 829, 790
1441, 864, 833, 863
1442, 833, 802, 803
1443, 837, 804, 805
1444, 846, 812, 844
1445, 956, 954, 945
1446, 835, 798, 802
1447, 895, 867, 893
1448, 836, 797, 798
1449, 871, 841, 859
1450, 851, 815, 814
1451, 839, 800, 799
1452, 840, 799, 797
1453, 840, 839, 799
1454, 869, 838, 839
1455, 893, 864, 892
1456, 868, 836, 867
1457, 841, 805, 758
1458, 841, 806, 827
1459, 842, 796, 787
1460, 842, 774, 817
1461, 843, 809, 769
1462, 875, 843, 808
1463, 942, 881, 887
1464, 844, 812, 813
1465, 848, 810, 845
1466, 845, 810, 809
1467, 852, 815, 851
1468, 846, 814, 812
1469, 847, 764, 725
1470, 847, 782, 823
1471, 876, 874, 848
1472, 848, 811, 810
1473, 849, 844, 813
1474, 849, 811, 848
1475, 850, 817, 816
1476, 852, 816, 815
1477, 877, 844, 873
1478, 879, 852, 851
1479, 918, 906, 905
1480, 852, 850, 816
1481, 853, 818, 778
1482, 883, 819, 856
1483, 919, 881, 820
1484, 930, 912, 929
1485, 901, 899, 874
1486, 855, 822, 821
1487, 900, 872, 886
1488, 856, 819, 822
1489, 875, 857, 843
1490, 857, 818, 853
1491, 858, 709, 752
1492, 858, 752, 826
1493, 871, 805, 841
1494, 859, 841, 827
1495, 860, 830, 795
1496, 862, 829, 832
1497, 861, 832, 831
1498, 870, 869, 839
1499, 870, 840, 868
1500, 862, 860, 829
1501, 863, 833, 834
1502, 894, 892, 863
1503, 891, 860, 862
1504, 864, 835, 833
1505, 865, 828, 783
1506, 908, 785, 786
1507, 898, 837, 871
1508, 878, 846, 877
1509, 891, 862, 890
1510, 867, 836, 835
1511, 890, 861, 869
1512, 868, 840, 836
1513, 889, 869, 861
1514, 870, 839, 840
1515, 915, 893, 912
1516, 897, 869, 870
1517, 880, 850, 852
1518, 871, 837, 805
1519, 872, 845, 809
1520, 872, 809, 843
1521, 873, 844, 849
1522, 901, 874, 876
1523, 876, 848, 845
1524, 923, 920, 907
1525, 875, 808, 847
1526, 875, 823, 857
1527, 900, 845, 872
1528, 885, 855, 884
1529, 902, 873, 899
1530, 877, 846, 844
1531, 918, 866, 898
1532, 878, 851, 846
1533, 906, 880, 879
1534, 879, 851, 878
1535, 880, 871, 859
1536, 880, 852, 879
1537, 881, 854, 820
1538, 887, 828, 865
1539, 882, 725,  39
1540, 882,  38, 782
1541, 883, 853, 819
1542, 907, 900, 883
1543, 884, 855, 854
1544, 904, 854, 881
1545, 920, 900, 907
1546, 885, 856, 855
1547, 886, 872, 857
1548, 886, 853, 883
1549, 958, 946, 953
1550, 910, 865, 908
1551, 888, 830, 860
1552, 953, 943, 950
1553, 889, 825, 838
1554, 889, 838, 869
1555, 890, 862, 861
1556, 916, 896, 895
1557, 896, 868, 895
1558, 891, 888, 860
1559, 892, 864, 863
1560, 894, 863, 866
1561, 917, 891, 890
1562, 893, 867, 864
1563, 918, 898, 906
1564, 903, 877, 902
1565, 917, 890, 897
1566, 895, 868, 867
1567, 917, 913, 891
1568, 896, 870, 868
1569, 897, 890, 869
1570, 897, 870, 896
1571, 898, 866, 837
1572, 898, 871, 880
1573, 899, 873, 874
1574, 922, 921, 899
1575, 907, 883, 856
1576, 900, 876, 845
1577, 923, 907, 885
1578, 909, 885, 884
1579, 935, 924, 921
1580, 902, 877, 873
1581, 938, 933, 926
1582, 903, 878, 877
1583, 904, 884, 854
1584, 945, 944, 911
1585, 905, 879, 878
1586, 905, 878, 903
1587, 906, 898, 880
1588, 906, 879, 905
1589, 907, 856, 885
1590, 923, 885, 909
1591, 952, 927, 944
1592, 952, 948, 786
1593, 925, 884, 904
1594, 938, 914, 933
1595, 942, 936, 904
1596, 910, 887, 865
1597, 911, 830, 888
1598, 928, 888, 913
1599, 912, 893, 892
1600, 914, 892, 894
1601, 913, 888, 891
1602, 931, 915, 930
1603, 933, 894, 918
1604, 924, 902, 921
1605, 915, 895, 893
1606, 959, 953, 950
1607, 940, 917, 916
1608, 916, 895, 915
1609, 917, 897, 896
1610, 917, 896, 916
1611, 926, 918, 905
1612, 918, 894, 866
1613, 919, 820, 777
1614, 919, 777, 775
1615, 920, 901, 876
1616, 920, 876, 900
1617, 921, 902, 899
1618, 951, 950, 943
1619, 922, 899, 901
1620, 939, 937, 934
1621, 939, 923, 909
1622, 923, 901, 920
1623, 938, 929, 914
1624, 924, 903, 902
1625, 925, 909, 884
1626, 942, 904, 881
1627, 926, 905, 903
1628, 926, 903, 924
1629, 927, 826, 794
1630, 927, 794, 830
1631, 928, 911, 888
1632, 941, 940, 931
1633, 939, 934, 922
1634, 929, 912, 914
1635, 959, 957, 953
1636, 930, 915, 912
1637, 940, 928, 913
1638, 931, 916, 915
1639, 932, 910, 908
1640, 954, 944, 945
1641, 933, 914, 894
1642, 933, 918, 926
1643, 934, 921, 922
1644, 937, 909, 925
1645, 951, 938, 935
1646, 935, 921, 934
1647, 936, 925, 904
1648, 947, 942, 910
1649, 949, 925, 936
1650, 950, 935, 934
1651, 938, 926, 924
1652, 938, 924, 935
1653, 939, 922, 923
1654, 939, 909, 937
1655, 940, 913, 917
1656, 940, 916, 931
1657, 941, 928, 940
1658, 946, 930, 943
1659, 942, 887, 910
1660, 947, 910, 932
1661, 943, 930, 929
1662, 951, 943, 929
1663, 944, 927, 911
1664, 945, 911, 928
1665, 955, 928, 941
1666, 954, 948, 944
1667, 946, 941, 931
1668, 946, 931, 930
1669, 958, 957, 956
1670, 947, 936, 942
1671, 948, 908, 786
1672, 952, 786, 784
1673, 949, 937, 925
1674, 957, 936, 947
1675, 950, 934, 937
1676, 959, 937, 949
1677, 951, 929, 938
1678, 951, 935, 950
1679, 952, 784, 826
1680, 952, 944, 948
1681, 958, 956, 955
1682, 953, 946, 943
1683, 956, 945, 955
1684, 954, 932, 948
1685, 955, 945, 928
1686, 958, 941, 946
1687, 956, 947, 932
1688, 956, 932, 954
1689, 957, 949, 936
1690, 957, 947, 956
1691, 958, 955, 941
1692, 958, 953, 957
1693, 959, 950, 937
1694, 959, 949, 957
1695, 960, 120, 709
1696, 960, 709, 858
1697, 1084, 1082, 1047
1698, 1005,  204,  961
1699,  980,  181,  979
1700,  961,  129,  128
1701,  963,  171,  172
1702,  977,  172,  112
1703,  998,  125,  964
1704,  964,  125,  124
1705, 1004,  197,  198
1706,  966,  123,  122
1707,  965,  964,  124
1708, 1064,  978, 1017
1709,  966,  965,  123
1710, 1001,  999,  965
1711,  970,  969,  120
1712,  970,  119,  167
1713,  119,    9,  167
1714,  172,    8,  112
1715,  971,  170,  962
1716,  972,  970,  167
1717,  101,    7,  173
1718,  987,  173,  174
1719, 1023,  985,  984
1720, 1025,  983,  982
1721, 1024, 1023,  984
1722, 1036,  103, 1032
1723, 1036,  104,  103
1724, 1029,  107,  106
1725,  974,  108,  973
1726, 1069, 1026, 1066
1727,  975,  109,  974
1728,  963,  962,  171
1729,  188,  187,   12
1730,  997,  188,  189
1731, 1006,  996,  995
1732, 1016,  994,  993
1733, 1065, 1021, 1045
1734, 1131, 1128, 1094
1735, 1050, 1002, 1048
1736,  979,  182,  978
1737,  981,  180,  980
1738,  982,  179,  981
1739,  983,  178,  982
1740,  984,  177,  983
1741,  985,  176,  984
1742,  986,  175,  985
1743,  987,  174,  986
1744,  204,   10,  129
1745,  961,  204,  129
1746, 1005,  988,  203
1747, 1118, 1043, 1082
1748, 1008,  202,  988
1749, 1150, 1126, 1090
1750, 1009,  201, 1008
1751, 1010,  200, 1009
1752, 1010,  199,  200
1753,  990,  196,  989
1754,  991,  195,  990
1755,  992,  194,  991
1756,  993,  193,  992
1757,  994,  192,  993
1758,  995,  191,  994
1759,  996,  190,  995
1760,  997,  189,  996
1761, 1042,  127, 1000
1762, 1000,  126,  998
1763,  962,  170,  171
1764, 1074, 1041,  963
1765,  977,  112,  111
1766,  976,  110,  975
1767,  965,  124,  123
1768, 1053,  989, 1004
1769,  967,  122,  121
1770, 1002,  966,  967
1771,  967,  966,  122
1772, 1003, 1002,  967
1773,  969,  121,  120
1774,  968,  168,  169
1775,  971,  169,  170
1776,  971,  968,  169
1777,  969,  967,  121
1778,  970,  120,  119
1779,  972,  167,  168
1780, 1046,  972, 1040
1781, 1075,  973, 1029
1782, 1181, 1179, 1157
1783,  972,  168,  968
1784, 1039,  971, 1038
1785,  973,  108,  107
1786, 1026,  979, 1018
1787, 1037,  974, 1030
1788,  974,  109,  108
1789, 1031,  976,  975
1790,  975,  110,  109
1791, 1240,  976, 1031
1792,  976,  111,  110
1793,  977,  963,  172
1794,  977,  111,  976
1795,  978,  182,  183
1796, 1017,  183,  184
1797, 1079, 1031, 1037
1798,  979,  181,  182
1799, 1019,  981,  980
1800,  980,  180,  181
1801, 1027,  981, 1019
1802,  981,  179,  180
1803, 1024,  984,  983
1804,  982,  178,  179
1805, 1104, 1070, 1068
1806,  983,  177,  178
1807, 1033, 1032,  102
1808,  984,  176,  177
1809, 1028,  985, 1023
1810,  985,  175,  176
1811, 1044,  986, 1028
1812,  986,  174,  175
1813, 1033,  101,  987
1814,  987,  101,  173
1815,  988,  202,  203
1816, 1047, 1000,  998
1817,  989,  196,  197
1818, 1100, 1094, 1054
1819, 1013,  990, 1012
1820,  990,  195,  196
1821, 1013,  991,  990
1822,  991,  194,  195
1823, 1014,  991, 1013
1824,  992,  193,  194
1825, 1007, 1006,  995
1826,  993,  192,  193
1827, 1020, 1017,  184
1828,  994,  191,  192
1829, 1021, 1020,  185
1830,  995,  190,  191
1831, 1045,  996, 1006
1832,  996,  189,  190
1833, 1022,  187,  997
1834,  997,  187,  188
1835,  998,  126,  125
1836, 1051,  964,  999
1837,  999,  964,  965
1838, 1001,  965,  966
1839, 1042,  128,  127
1840, 1000,  127,  126
1841, 1002, 1001,  966
1842, 1085, 1003, 1046
1843, 1003,  967,  969
1844, 1141, 1080, 1112
1845, 1046,  969,  970
1846, 1040,  972,  968
1847, 1004,  989,  197
1848, 1011,  198,  199
1849, 1005,  203,  204
1850, 1043, 1005,  961
1851, 1007,  995,  994
1852, 1061, 1007, 1058
1853, 1015,  992, 1014
1854, 1073, 1020, 1065
1855, 1008,  201,  202
1856, 1082, 1000, 1047
1857, 1063, 1054, 1009
1858, 1009,  200,  201
1859, 1097, 1055, 1094
1860, 1011,  199, 1010
1861, 1055, 1010, 1054
1862, 1011, 1004,  198
1863, 1059, 1057, 1014
1864, 1012,  990,  989
1865, 1057, 1056, 1015
1866, 1014,  992,  991
1867, 1058, 1016, 1056
1868, 1093, 1091, 1058
1869, 1056, 1016, 1015
1870, 1015,  993,  992
1871, 1016, 1007,  994
1872, 1016,  993, 1015
1873, 1017,  978,  183
1874, 1020,  184,  185
1875, 1095, 1093, 1056
1876, 1018,  979,  978
1877, 1070, 1025, 1068
1878, 1026, 1019,  980
1879, 1021,  185,  186
1880, 1110, 1073, 1108
1881, 1022, 1021,  186
1882, 1045, 1021, 1022
1883, 1022,  186,  187
1884, 1045, 1022,  997
1885, 1116, 1081, 1076
1886, 1035,  105, 1034
1887, 1025, 1024,  983
1888, 1136, 1135, 1104
1889, 1027, 1025,  982
1890, 1068, 1027, 1067
1891, 1026,  980,  979
1892, 1088, 1050, 1086
1893, 1027,  982,  981
1894, 1067, 1027, 1019
1895, 1036, 1034,  104
1896, 1028,  986,  985
1897, 1029,  973,  107
1898, 1035,  106,  105
1899, 1080, 1079, 1037
1900, 1030,  974,  973
1901, 1074,  963,  977
1902, 1037, 1031,  975
1903, 1032,  103,  102
1904, 1044, 1033,  987
1905, 1033,  102,  101
1906, 1044,  987,  986
1907, 1034,  105,  104
1908, 1072, 1023, 1071
1909, 1071, 1024, 1070
1910, 1035, 1029,  106
1911, 1077, 1032, 1044
1912, 1105, 1070, 1104
1913, 1037,  975,  974
1914, 1069, 1067, 1019
1915, 1038,  971,  962
1916, 1041, 1038,  962
1917, 1121, 1086, 1048
1918, 1039,  968,  971
1919, 1085, 1048, 1003
1920, 1040,  968, 1039
1921, 1041,  962,  963
1922, 1240, 1083, 1074
1923, 1043,  961, 1042
1924, 1042,  961,  128
1925, 1052,  988, 1043
1926, 1043,  988, 1005
1927, 1111, 1077, 1044
1928, 1044, 1032, 1033
1929, 1045,  997,  996
1930, 1101, 1065, 1045
1931, 1046, 1003,  969
1932, 1046,  970,  972
1933, 1051, 1047,  998
1934, 1087, 1084, 1047
1935, 1209, 1195, 1171
1936, 1048, 1002, 1003
1937, 1049,  999, 1001
1938, 1050, 1049, 1001
1939, 1050, 1001, 1002
1940, 1179, 1152, 1157
1941, 1051,  998,  964
1942, 1089,  999, 1049
1943, 1063, 1008, 1052
1944, 1052, 1008,  988
1945, 1053, 1012,  989
1946, 1062, 1004, 1011
1947, 1054, 1010, 1009
1948, 1063, 1009, 1008
1949, 1154, 1127, 1151
1950, 1055, 1011, 1010
1951, 1057, 1015, 1014
1952, 1059, 1014, 1013
1953, 1060, 1013, 1012
1954, 1152, 1123, 1125
1955, 1123, 1091, 1093
1956, 1058, 1007, 1016
1957, 1060, 1059, 1013
1958, 1096, 1095, 1057
1959, 1092, 1012, 1053
1960, 1120, 1088, 1086
1961, 1140, 1137, 1123
1962, 1061, 1006, 1007
1963, 1062, 1053, 1004
1964, 1062, 1011, 1055
1965, 1118, 1084, 1090
1966, 1118, 1090, 1052
1967, 1064, 1018,  978
1968, 1108, 1065, 1101
1969, 1065, 1020, 1021
1970, 1101, 1045, 1006
1971, 1066, 1026, 1018
1972, 1102, 1018, 1064
1973, 1109, 1069, 1103
1974, 1069, 1019, 1026
1975, 1166, 1133, 1143
1976, 1068, 1025, 1027
1977, 1134, 1066, 1102
1978, 1106, 1104, 1068
1979, 1078, 1034, 1036
1980, 1070, 1024, 1025
1981, 1078, 1036, 1077
1982, 1071, 1023, 1024
1983, 1115, 1077, 1111
1984, 1072, 1028, 1023
1985, 1073, 1064, 1017
1986, 1073, 1017, 1020
1987, 1074,  977,  976
1988, 1240, 1239, 1083
1989, 1075, 1030,  973
1990, 1081, 1029, 1035
1991, 1076, 1035, 1034
1992, 1107, 1071, 1105
1993, 1077, 1036, 1032
1994, 1111, 1044, 1028
1995, 1166, 1143, 1114
1996, 1078, 1076, 1034
1997, 1142, 1079, 1113
1998, 1080, 1037, 1030
1999, 1112, 1030, 1075
2000, 1144, 1117, 1116
2001, 1081, 1075, 1029
2002, 1081, 1035, 1076
2003, 1082, 1043, 1042
2004, 1082, 1042, 1000
2005, 1227, 1083, 1202
2006, 1083, 1041, 1074
2007, 1087, 1047, 1051
2008, 1172, 1147, 1149
2009, 1085, 1046, 1040
2010, 1146, 1121, 1085
2011, 1086, 1050, 1048
2012, 1121, 1048, 1085
2013, 1089, 1087, 1051
2014, 1131, 1100, 1126
2015, 1128, 1097, 1094
2016, 1088, 1049, 1050
2017, 1089, 1051,  999
2018, 1122, 1049, 1088
2019, 1100, 1063, 1090
2020, 1090, 1063, 1052
2021, 1091, 1061, 1058
2022, 1093, 1058, 1056
2023, 1092, 1060, 1012
2024, 1098, 1053, 1062
2025, 1095, 1056, 1057
2026, 1096, 1057, 1059
2027, 1094, 1055, 1054
2028, 1100, 1054, 1063
2029, 1099, 1059, 1060
2030, 1125, 1123, 1093
2031, 1099, 1096, 1059
2032, 1130, 1125, 1095
2033, 1156, 1131, 1155
2034, 1097, 1062, 1055
2035, 1098, 1092, 1053
2036, 1098, 1062, 1097
2037, 1129, 1060, 1092
2038, 1164, 1163, 1139
2039, 1150, 1084, 1087
2040, 1119, 1087, 1089
2041, 1101, 1006, 1061
2042, 1108, 1101, 1061
2043, 1102, 1066, 1018
2044, 1137, 1108, 1091
2045, 1217, 1202, 1185
2046, 1103, 1069, 1066
2047, 1106, 1068, 1067
2048, 1109, 1067, 1069
2049, 1115, 1078, 1077
2050, 1105, 1071, 1070
2051, 1109, 1106, 1067
2052, 1168, 1143, 1133
2053, 1166, 1115, 1107
2054, 1107, 1072, 1071
2055, 1108, 1073, 1065
2056, 1108, 1061, 1091
2057, 1162, 1103, 1134
2058, 1169, 1145, 1144
2059, 1110, 1102, 1064
2060, 1110, 1064, 1073
2061, 1111, 1028, 1072
2062, 1115, 1114, 1078
2063, 1112, 1080, 1030
2064, 1117, 1075, 1081
2065, 1177, 1154, 1175
2066, 1113, 1079, 1080
2067, 1116, 1076, 1114
2068, 1114, 1076, 1078
2069, 1115, 1111, 1072
2070, 1115, 1072, 1107
2071, 1133, 1107, 1105
2072, 1117, 1081, 1116
2073, 1168, 1133, 1160
2074, 1117, 1112, 1075
2075, 1118, 1052, 1043
2076, 1118, 1082, 1084
2077, 1122, 1119, 1089
2078, 1153, 1151, 1124
2079, 1153, 1124, 1128
2080, 1148, 1086, 1121
2081, 1146, 1085, 1040
2082, 1171, 1121, 1146
2083, 1122, 1089, 1049
2084, 1149, 1088, 1120
2085, 1140, 1110, 1137
2086, 1125, 1093, 1095
2087, 1127, 1098, 1124
2088, 1124, 1098, 1097
2089, 1130, 1095, 1096
2090, 1132, 1096, 1099
2091, 1126, 1100, 1090
2092, 1150, 1090, 1084
2093, 1129, 1092, 1127
2094, 1127, 1092, 1098
2095, 1128, 1124, 1097
2096, 1131, 1094, 1100
2097, 1194, 1174, 1173
2098, 1129, 1099, 1060
2099, 1132, 1130, 1096
2100, 1157, 1152, 1125
2101, 1155, 1150, 1119
2102, 1147, 1119, 1122
2103, 1158, 1099, 1129
2104, 1234, 1220, 1228
2105, 1135, 1105, 1104
2106, 1135, 1133, 1105
2107, 1134, 1103, 1066
2108, 1140, 1102, 1110
2109, 1136, 1104, 1106
2110, 1183, 1168, 1160
2111, 1139, 1106, 1109
2112, 1139, 1109, 1138
2113, 1137, 1110, 1108
2114, 1137, 1091, 1123
2115, 1138, 1109, 1103
2116, 1230, 1179, 1181
2117, 1190, 1187, 1167
2118, 1139, 1136, 1106
2119, 1184, 1123, 1152
2120, 1140, 1134, 1102
2121, 1141, 1113, 1080
2122, 1145, 1112, 1117
2123, 1202, 1142, 1185
2124, 1239, 1142, 1202
2125, 1144, 1116, 1143
2126, 1143, 1116, 1114
2127, 1160, 1133, 1135
2128, 1145, 1117, 1144
2129, 1183, 1160, 1161
2130, 1145, 1141, 1112
2131, 1192, 1040, 1039
2132, 1193, 1192, 1039
2133, 1149, 1147, 1122
2134, 1180, 1178, 1156
2135, 1165, 1142, 1113
2136, 1148, 1120, 1086
2137, 1149, 1122, 1088
2138, 1176, 1175, 1151
2139, 1150, 1087, 1119
2140, 1155, 1119, 1147
2141, 1151, 1127, 1124
2142, 1173, 1120, 1148
2143, 1184, 1152, 1179
2144, 1157, 1125, 1130
2145, 1180, 1155, 1147
2146, 1180, 1172, 1178
2147, 1158, 1129, 1154
2148, 1154, 1129, 1127
2149, 1155, 1131, 1126
2150, 1155, 1126, 1150
2151, 1156, 1153, 1128
2152, 1156, 1128, 1131
2153, 1159, 1130, 1132
2154, 1159, 1157, 1130
2155, 1177, 1158, 1154
2156, 1158, 1132, 1099
2157, 1182, 1132, 1158
2158, 1167, 1165, 1113
2159, 1161, 1135, 1136
2160, 1161, 1160, 1135
2161, 1163, 1136, 1139
2162, 1163, 1161, 1136
2163, 1162, 1138, 1103
2164, 1184, 1162, 1134
2165, 1164, 1139, 1138
2166, 1235, 1234, 1216
2167, 1188, 1138, 1162
2168, 1197, 1175, 1196
2169, 1228, 1214, 1201
2170, 1167, 1113, 1141
2171, 1166, 1114, 1115
2172, 1166, 1107, 1133
2173, 1170, 1141, 1145
2174, 1207, 1203, 1206
2175, 1169, 1144, 1168
2176, 1168, 1144, 1143
2177, 1183, 1169, 1168
2178, 1170, 1145, 1169
2179, 1191, 1169, 1183
2180, 1170, 1167, 1141
2181, 1171, 1148, 1121
2182, 1222, 1146, 1192
2183, 1174, 1149, 1120
2184, 1221, 1211, 1198
2185, 1176, 1151, 1153
2186, 1195, 1148, 1171
2187, 1174, 1172, 1149
2188, 1174, 1120, 1173
2189, 1235, 1224, 1223
2190, 1175, 1154, 1151
2191, 1178, 1176, 1153
2192, 1221, 1198, 1178
2193, 1212, 1197, 1210
2194, 1182, 1158, 1177
2195, 1178, 1153, 1156
2196, 1221, 1194, 1211
2197, 1184, 1179, 1162
2198, 1181, 1157, 1159
2199, 1180, 1156, 1155
2200, 1180, 1147, 1172
2201, 1204, 1189, 1164
2202, 1200, 1159, 1182
2203, 1182, 1159, 1132
2204, 1199, 1177, 1197
2205, 1186, 1161, 1163
2206, 1186, 1183, 1161
2207, 1184, 1134, 1140
2208, 1184, 1140, 1123
2209, 1185, 1142, 1165
2210, 1201, 1165, 1187
2211, 1189, 1163, 1164
2212, 1189, 1186, 1163
2213, 1187, 1165, 1167
2214, 1190, 1167, 1170
2215, 1188, 1164, 1138
2216, 1188, 1162, 1179
2217, 1204, 1164, 1188
2218, 1199, 1182, 1177
2219, 1191, 1190, 1170
2220, 1203, 1186, 1189
2221, 1191, 1170, 1169
2222, 1207, 1183, 1186
2223, 1192, 1146, 1040
2224, 1193, 1039, 1038
2225, 1222, 1209, 1171
2226, 1237, 1227, 1217
2227, 1198, 1196, 1176
2228, 1208, 1173, 1195
2229, 1195, 1173, 1148
2230, 1222, 1171, 1146
2231, 1236, 1211, 1194
2232, 1196, 1175, 1176
2233, 1232, 1203, 1218
2234, 1197, 1177, 1175
2235, 1198, 1176, 1178
2236, 1221, 1178, 1172
2237, 1231, 1215, 1213
2238, 1200, 1182, 1199
2239, 1232, 1226, 1219
2240, 1200, 1181, 1159
2241, 1201, 1185, 1165
2242, 1216, 1187, 1205
2243, 1227, 1202, 1217
2244, 1239, 1202, 1083
2245, 1207, 1206, 1191
2246, 1218, 1189, 1204
2247, 1230, 1204, 1188
2248, 1215, 1181, 1200
2249, 1205, 1187, 1190
2250, 1206, 1205, 1190
2251, 1206, 1190, 1191
2252, 1219, 1206, 1203
2253, 1207, 1191, 1183
2254, 1207, 1186, 1203
2255, 1208, 1194, 1173
2256, 1220, 1195, 1209
2257, 1225, 1217, 1214
2258, 1233, 1225, 1214
2259, 1210, 1197, 1196
2260, 1211, 1210, 1196
2261, 1211, 1196, 1198
2262, 1236, 1223, 1211
2263, 1224, 1212, 1210
2264, 1212, 1199, 1197
2265, 1213, 1200, 1199
2266, 1213, 1199, 1212
2267, 1214, 1185, 1201
2268, 1233, 1228, 1220
2269, 1230, 1215, 1204
2270, 1215, 1200, 1213
2271, 1216, 1201, 1187
2272, 1238, 1219, 1226
2273, 1217, 1185, 1214
2274, 1237, 1217, 1225
2275, 1218, 1203, 1189
2276, 1218, 1204, 1215
2277, 1232, 1231, 1226
2278, 1219, 1205, 1206
2279, 1220, 1208, 1195
2280, 1233, 1209, 1225
2281, 1221, 1172, 1174
2282, 1221, 1174, 1194
2283, 1222, 1192, 1193
2284, 1225, 1222, 1193
2285, 1223, 1210, 1211
2286, 1234, 1228, 1216
2287, 1238, 1229, 1219
2288, 1224, 1210, 1223
2289, 1225, 1209, 1222
2290, 1237, 1225, 1193
2291, 1226, 1213, 1212
2292, 1226, 1212, 1224
2293, 1227, 1038, 1041
2294, 1227, 1041, 1083
2295, 1228, 1201, 1216
2296, 1235, 1216, 1229
2297, 1229, 1216, 1205
2298, 1229, 1205, 1219
2299, 1230, 1188, 1179
2300, 1230, 1181, 1215
2301, 1231, 1218, 1215
2302, 1231, 1213, 1226
2303, 1232, 1219, 1203
2304, 1232, 1218, 1231
2305, 1233, 1214, 1228
2306, 1233, 1220, 1209
2307, 1236, 1234, 1223
2308, 1234, 1208, 1220
2309, 1238, 1235, 1229
2310, 1235, 1223, 1234
2311, 1236, 1194, 1208
2312, 1236, 1208, 1234
2313, 1237, 1193, 1038
2314, 1237, 1038, 1227
2315, 1238, 1226, 1224
2316, 1238, 1224, 1235
2317, 1239, 1031, 1079
2318, 1239, 1079, 1142
2319, 1240, 1074,  976
2320, 1240, 1031, 1239
*Orientation, name=Ori-1
1., 0., 0., 0., 1., 0.
3, 0.
** Region: (CompositeLayup-1-1: Generated From Layup)
*Elset, elset=CompositeLayup-1-1, generate
    1,  2320,     1
** Section: CompositeLayup-1-1
*Shell Section, elset=CompositeLayup-1-1, composite, orientation=Ori-1, layup=CompositeLayup-1
0.25, 1, ABQ_PLY_FABRIC, 45., Ply-1
0.25, 1, ABQ_PLY_FABRIC, -45., Ply-2
0.25, 1, ABQ_PLY_FABRIC, -45., Ply-3
0.25, 1, ABQ_PLY_FABRIC, 45., Ply-4
*End Part
**  
**
** ASSEMBLY
**
*Assembly, name=Assembly
**  
*Instance, name=Plate-1, part=PLATE
*End Instance
**  
*Nset, nset=Set-1, instance=Plate-1
   6,   7,  12,  87,  88,  89,  90,  91,  92,  93,  94,  95,  96,  97,  98,  99
 100, 173, 174, 175, 176, 177, 178, 179, 180, 181, 182, 183, 184, 185, 186, 187
*Elset, elset=Set-1, instance=Plate-1
  559,  560,  576,  580,  650,  651,  654,  656,  658,  660,  662,  664,  666,  668,  727, 1717
 1718, 1729, 1795, 1796, 1798, 1800, 1802, 1804, 1806, 1808, 1810, 1812, 1874, 1879, 1883
*Nset, nset=Set-2, instance=Plate-1
   4,   5,  11,  40,  41,  42,  43,  44,  45,  46,  47,  48,  49,  50,  51,  52
  53, 146, 147, 148, 149, 150, 151, 152, 153, 154, 155, 156, 157, 158, 159, 160
*Elset, elset=Set-2, instance=Plate-1
   20,   21,   31,   93,   94,   96,   98,  100,  102,  104,  106,  108,  110,  178,  197, 1134
 1150, 1164, 1225, 1227, 1228, 1230, 1232, 1234, 1236, 1238, 1240, 1242, 1244, 1246, 1248
*End Assembly
*Amplitude, name=Ramp, time=TOTAL TIME
             0.,              0.,            0.01,              1.
** 
** MATERIALS
** 
*Material, name=ABQ_PLY_FABRIC
*Density
 1.594e-09,
*Depvar, delete=16
     16,
*User Material, constants=40
27500., 27500.,   0.11,  2900., 27500., 27500.,   0.11,     0.
   604.,   291.,   604.,   291.,    75.,     0.,     0.,     0.
 20.438, 4.6257, 20.438, 4.6257, 0.3221,     1.,     0.,     0.
    75., 0.0008,  0.552,     0.,     0.,     0.,     0.,     0.
     0.,     1.,  1e+09,  1e+09, -1e+09,     0.,     0.,     0.
** ----------------------------------------------------------------
** 
** STEP: Step-1
** 
*Step, name=Step-1, nlgeom=NO
*Dynamic, Explicit
, 0.01
*Bulk Viscosity
0.06, 1.2
** 
** BOUNDARY CONDITIONS
** 
** Name: BC-1 Type: Symmetry/Antisymmetry/Encastre
*Boundary
Set-1, ENCASTRE
** Name: BC-2 Type: Displacement/Rotation
*Boundary, amplitude=Ramp
Set-2, 1, 1, 1.63158
** 
** OUTPUT REQUESTS
** 
*Restart, write, number interval=1, time marks=NO
** 
** FIELD OUTPUT: F-Output-1
** 
*Output, field, number interval=1
*Element Output, position=NODES, directions=YES
LE, PEEQ, SDV
** 
** HISTORY OUTPUT: H-Output-1
** 
*Output, history, variable=PRESELECT
*End Step
