*Heading
 Elastic fabric composite plate with hole
** Job name: Plate_471 Model name: Model-1
** Generated by: Abaqus/CAE 2024.HF3
*Preprint, echo=NO, model=NO, history=NO, contact=NO
**
** PARTS
**
*Part, name=PLATE
*Node
      1,   135.770615,   177.224472,           0.
      2,   135.770615,   133.090546,           0.
      3,   147.757767,   121.103394,           0.
      4,    198.68869,   121.103394,           0.
      5,    198.68869,   177.224472,           0.
      6,           0.,   177.224472,           0.
      7,           0.,   121.103394,           0.
      8,   123.783447,   121.103394,           0.
      9,   135.770615,   109.116234,           0.
     10,   135.770615,           0.,           0.
     11,    198.68869,           0.,           0.
     12,           0.,           0.,           0.
     13,   135.770615,   170.919632,           0.
     14,   135.770615,   164.614777,           0.
     15,   135.770615,   158.309937,           0.
     16,   135.770615,   152.005096,           0.
     17,   135.770615,   145.700241,           0.
     18,   135.770615,   139.395401,           0.
     19,   141.764191,   131.484573,           0.
     20,   146.151794,    127.09697,           0.
     21,   153.416763,   121.103394,           0.
     22,   159.075745,   121.103394,           0.
     23,   164.734741,   121.103394,           0.
     24,   170.393738,   121.103394,           0.
     25,   176.052719,   121.103394,           0.
     26,   181.711716,   121.103394,           0.
     27,   187.370712,   121.103394,           0.
     28,   193.029709,   121.103394,           0.
     29,    198.68869,     126.7155,           0.
     30,    198.68869,   132.327606,           0.
     31,    198.68869,   137.939713,           0.
     32,    198.68869,   143.551819,           0.
     33,    198.68869,    149.16394,           0.
     34,    198.68869,   154.776047,           0.
     35,    198.68869,   160.388153,           0.
     36,    198.68869,   166.000259,           0.
     37,    198.68869,   171.612366,           0.
     38,   192.968872,   177.224472,           0.
     39,   187.249039,   177.224472,           0.
     40,   181.529221,   177.224472,           0.
     41,   175.809387,   177.224472,           0.
     42,   170.089569,   177.224472,           0.
     43,   164.369736,   177.224472,           0.
     44,   158.649918,   177.224472,           0.
     45,   152.930084,   177.224472,           0.
     46,   147.210266,   177.224472,           0.
     47,   141.490433,   177.224472,           0.
     48,   129.867538,   177.224472,           0.
     49,    123.96447,   177.224472,           0.
     50,   118.061401,   177.224472,           0.
     51,   112.158325,   177.224472,           0.
     52,   106.255257,   177.224472,           0.
     53,   100.352188,   177.224472,           0.
     54,   94.4491196,   177.224472,           0.
     55,    88.546051,   177.224472,           0.
     56,   82.6429749,   177.224472,           0.
     57,   76.7399063,   177.224472,           0.
     58,   70.8368378,   177.224472,           0.
     59,   64.9337692,   177.224472,           0.
     60,   59.0307007,   177.224472,           0.
     61,   53.1276283,   177.224472,           0.
     62,   47.2245598,   177.224472,           0.
     63,   41.3214874,   177.224472,           0.
     64,   35.4184189,   177.224472,           0.
     65,   29.5153503,   177.224472,           0.
     66,   23.6122799,   177.224472,           0.
     67,   17.7092094,   177.224472,           0.
     68,   11.8061399,   177.224472,           0.
     69,   5.90306997,   177.224472,           0.
     70,           0.,   171.612366,           0.
     71,           0.,   166.000259,           0.
     72,           0.,   160.388153,           0.
     73,           0.,   154.776047,           0.
     74,           0.,    149.16394,           0.
     75,           0.,   143.551819,           0.
     76,           0.,   137.939713,           0.
     77,           0.,   132.327606,           0.
     78,           0.,     126.7155,           0.
     79,   5.89445019,   121.103394,           0.
     80,   11.7889004,   121.103394,           0.
     81,   17.6833496,   121.103394,           0.
     82,   23.5778008,   121.103394,           0.
     83,     29.47225,   121.103394,           0.
     84,   35.3666992,   121.103394,           0.
     85,   41.2611504,   121.103394,           0.
     86,   47.1556015,   121.103394,           0.
     87,   53.0500488,   121.103394,           0.
     88,      58.9445,   121.103394,           0.
     89,   64.8389511,   121.103394,           0.
     90,   70.7333984,   121.103394,           0.
     91,   76.6278534,   121.103394,           0.
     92,   82.5223007,   121.103394,           0.
     93,    88.416748,   121.103394,           0.
     94,    94.311203,   121.103394,           0.
     95,    100.20565,   121.103394,           0.
     96,   106.100098,   121.103394,           0.
     97,   111.994553,   121.103394,           0.
     98,      117.889,   121.103394,           0.
     99,   125.389427,    127.09697,           0.
    100,   129.777023,   131.484573,           0.
    101,   135.770615,   103.373276,           0.
    102,   135.770615,   97.6303177,           0.
    103,   135.770615,   91.8873596,           0.
    104,   135.770615,   86.1443939,           0.
    105,   135.770615,   80.4014359,           0.
    106,   135.770615,   74.6584778,           0.
    107,   135.770615,   68.9155197,           0.
    108,   135.770615,   63.1725578,           0.
    109,   135.770615,   57.4295959,           0.
    110,   135.770615,   51.6866379,           0.
    111,   135.770615,   45.9436798,           0.
    112,   135.770615,   40.2007179,           0.
    113,   135.770615,   34.4577599,           0.
    114,   135.770615,    28.714798,           0.
    115,   135.770615,   22.9718399,           0.
    116,   135.770615,   17.2288799,           0.
    117,   135.770615,     11.48592,           0.
    118,   135.770615,   5.74295998,           0.
    119,   141.490433,           0.,           0.
    120,   147.210266,           0.,           0.
    121,   152.930084,           0.,           0.
    122,   158.649918,           0.,           0.
    123,   164.369736,           0.,           0.
    124,   170.089569,           0.,           0.
    125,   175.809387,           0.,           0.
    126,   181.529221,           0.,           0.
    127,   187.249039,           0.,           0.
    128,   192.968872,           0.,           0.
    129,    198.68869,   5.76682806,           0.
    130,    198.68869,   11.5336561,           0.
    131,    198.68869,   17.3004837,           0.
    132,    198.68869,   23.0673122,           0.
    133,    198.68869,   28.8341408,           0.
    134,    198.68869,   34.6009674,           0.
    135,    198.68869,   40.3677979,           0.
    136,    198.68869,   46.1346245,           0.
    137,    198.68869,   51.9014549,           0.
    138,    198.68869,   57.6682816,           0.
    139,    198.68869,    63.435112,           0.
    140,    198.68869,   69.2019348,           0.
    141,    198.68869,   74.9687653,           0.
    142,    198.68869,   80.7355957,           0.
    143,    198.68869,   86.5024261,           0.
    144,    198.68869,    92.269249,           0.
    145,    198.68869,   98.0360794,           0.
    146,    198.68869,    103.80291,           0.
    147,    198.68869,   109.569733,           0.
    148,    198.68869,   115.336563,           0.
    149,   146.151794,   115.109818,           0.
    150,   141.764191,   110.722214,           0.
    151,   129.777023,   110.722214,           0.
    152,   125.389427,   115.109818,           0.
    153,           0.,   115.336563,           0.
    154,           0.,   109.569733,           0.
    155,           0.,    103.80291,           0.
    156,           0.,   98.0360794,           0.
    157,           0.,    92.269249,           0.
    158,           0.,   86.5024261,           0.
    159,           0.,   80.7355957,           0.
    160,           0.,   74.9687653,           0.
    161,           0.,   69.2019348,           0.
    162,           0.,    63.435112,           0.
    163,           0.,   57.6682816,           0.
    164,           0.,   51.9014549,           0.
    165,           0.,   46.1346245,           0.
    166,           0.,   40.3677979,           0.
    167,           0.,   34.6009674,           0.
    168,           0.,   28.8341408,           0.
    169,           0.,   23.0673122,           0.
    170,           0.,   17.3004837,           0.
    171,           0.,   11.5336561,           0.
    172,           0.,   5.76682806,           0.
    173,   5.90306997,           0.,           0.
    174,   11.8061399,           0.,           0.
    175,   17.7092094,           0.,           0.
    176,   23.6122799,           0.,           0.
    177,   29.5153503,           0.,           0.
    178,   35.4184189,           0.,           0.
    179,   41.3214874,           0.,           0.
    180,   47.2245598,           0.,           0.
    181,   53.1276283,           0.,           0.
    182,   59.0307007,           0.,           0.
    183,   64.9337692,           0.,           0.
    184,   70.8368378,           0.,           0.
    185,   76.7399063,           0.,           0.
    186,   82.6429749,           0.,           0.
    187,    88.546051,           0.,           0.
    188,   94.4491196,           0.,           0.
    189,   100.352188,           0.,           0.
    190,   106.255257,           0.,           0.
    191,   112.158325,           0.,           0.
    192,   118.061401,           0.,           0.
    193,    123.96447,           0.,           0.
    194,   129.867538,           0.,           0.
    195,    147.32637,   132.863159,           0.
    196,   150.721268,   126.690849,           0.
    197,   141.213135,   155.193054,           0.
    198,   141.174988,   148.886444,           0.
    199,   141.218964,   142.677109,           0.
    200,   141.410828,   136.554581,           0.
    201,   167.577057,   126.037758,           0.
    202,   161.902725,   126.073013,           0.
    203,   156.264572,   126.311714,           0.
    204,   193.545227,   169.558395,           0.
    205,   193.587143,    163.45076,           0.
    206,    193.75882,   157.631454,           0.
    207,    193.79985,   151.979385,           0.
    208,   193.808609,   146.359589,           0.
    209,   193.766159,   140.717453,           0.
    210,   193.592911,   134.851151,           0.
    211,    193.54071,   128.678314,           0.
    212,   143.687683,   171.630188,           0.
    213,    149.93811,   171.771164,           0.
    214,   167.227448,   172.236969,           0.
    215,   172.953445,   172.244659,           0.
    216,   178.716599,    172.18515,           0.
    217,   184.399429,   172.176498,           0.
    218,   188.740204,   160.544769,           0.
    219,    188.72374,   137.687302,           0.
    220,   188.859009,   143.436111,           0.
    221,   188.860764,   154.875214,           0.
    222,   188.889526,   149.159012,           0.
    223,   173.227844,   126.017082,           0.
    224,   159.072937,   131.367722,           0.
    225,   164.756622,   131.087677,           0.
    226,   178.886414,   126.020164,           0.
    227,   184.487839,   126.027992,           0.
    228,   161.522537,   172.219299,           0.
    229,   170.114395,   167.203979,           0.
    230,   181.712311,   167.087708,           0.
    231,   155.809601,   172.081406,           0.
    232,   175.933182,   167.042709,           0.
    233,    141.15242,   161.496918,           0.
    234,   146.702576,    145.77533,           0.
    235,   146.683548,   152.187759,           0.
    236,   187.934219,   166.864227,           0.
    237,   146.582626,    165.51741,           0.
    238,   187.940002,   131.293625,           0.
    239,   184.013062,   140.429596,           0.
    240,   184.058502,   157.760483,           0.
    241,   184.015213,   146.231506,           0.
    242,   184.051392,   152.025818,           0.
    243,   184.288925,   135.401459,           0.
    244,   176.075562,   131.092529,           0.
    245,   189.273788,   125.641342,           0.
    246,   181.788773,   131.093964,           0.
    247,   161.971985,   136.234802,           0.
    248,   158.705765,   166.997299,           0.
    249,   170.400558,   131.033463,           0.
    250,   179.083664,   161.322968,           0.
    251,    172.92131,    161.93222,           0.
    252,   152.966019,   166.584778,           0.
    253,   153.458023,   131.813904,           0.
    254,   164.392349,   167.132111,           0.
    255,    189.21936,   172.609619,           0.
    256,   140.592789,   166.835785,           0.
    257,   146.764725,   139.505463,           0.
    258,   146.504211,   158.628281,           0.
    259,   152.256592,   148.900848,           0.
    260,   179.091675,   136.795609,           0.
    261,   156.030533,   161.642944,           0.
    262,   179.124023,   149.029495,           0.
    263,   179.169861,    143.08197,           0.
    264,   173.127289,   135.971191,           0.
    265,   179.316406,   154.972168,           0.
    266,   184.305786,   162.716034,           0.
    267,   161.812317,   162.179794,           0.
    268,   175.140533,   157.340103,           0.
    269,   150.920212,   161.647202,           0.
    270,   167.351013,   162.169739,           0.
    271,   167.619064,   135.930878,           0.
    272,   156.281357,   136.646957,           0.
    273,   152.745773,   142.140091,           0.
    274,    152.88623,   155.859695,           0.
    275,   173.693298,   145.633575,           0.
    276,   151.315247,   136.593918,           0.
    277,   159.672531,   157.025772,           0.
    278,   165.143677,   140.855896,           0.
    279,   159.349686,   141.418884,           0.
    280,   170.502426,   140.567566,           0.
    281,   175.116913,   140.409988,           0.
    282,   164.599731,   158.166962,           0.
    283,   169.695847,    156.36441,           0.
    284,   174.370621,    152.16716,           0.
    285,   157.159988,   146.021378,           0.
    286,   158.233246,   151.248489,           0.
    287,   163.093567,   146.708038,           0.
    288,   168.894684,   149.770279,           0.
    289,   164.031601,   153.213989,           0.
    290,   168.265533,   144.707077,           0.
    291,   124.086784,   132.122925,           0.
    292,   26.5194855,    126.20092,           0.
    293,   61.8917236,   126.208572,           0.
    294,   130.355225,   155.230194,           0.
    295,   130.489883,   148.881012,           0.
    296,   131.228027,   143.327789,           0.
    297,    20.619627,   172.129654,           0.
    298,   26.5561028,   172.124847,           0.
    299,   14.7701664,    126.18026,           0.
    300,   9.81252861,   125.723618,           0.
    301,   20.6109867,   126.197823,           0.
    302,   32.4649811,   172.117813,           0.
    303,   38.3693733,   172.114838,           0.
    304,   38.3139267,   126.208267,           0.
    305,   56.0791473,   172.112793,           0.
    306,   55.9972725,   126.208603,           0.
    307,   73.7883759,   172.112717,           0.
    308,   73.6806259,   126.208588,           0.
    309,   91.4975815,    172.11235,           0.
    310,   103.302307,   172.105789,           0.
    311,   109.202087,   172.090942,           0.
    312,   115.118088,   172.016953,           0.
    313,   121.242645,   171.751266,           0.
    314,   127.704514,   171.619263,           0.
    315,   4.91053867,   146.363464,           0.
    316,    4.8983078,   151.967102,           0.
    317,   4.95318985,   157.598007,           0.
    318,   5.17959929,   163.427094,           0.
    319,   5.27352428,   169.568695,           0.
    320,   32.4174423,   126.205467,           0.
    321,     44.27285,   172.113586,           0.
    322,   50.1760406,   172.113052,           0.
    323,    44.208374,   126.208519,           0.
    324,   50.1028214,   126.208626,           0.
    325,   61.9822273,   172.112778,           0.
    326,   67.8852997,   172.112778,           0.
    327,   67.7861786,   126.208633,           0.
    328,   79.6914444,   172.112732,           0.
    329,   85.5945129,    172.11261,           0.
    330,   79.5750732,   126.208679,           0.
    331,   85.4695282,   126.208954,           0.
    332,   97.3999176,   172.109833,           0.
    333,   91.3633194,   126.211128,           0.
    334,   97.2564163,   126.217117,           0.
    335,   103.149918,   126.227745,           0.
    336,   109.030312,   126.227577,           0.
    337,   114.931198,   126.387329,           0.
    338,   120.686821,   126.638176,           0.
    339,   5.01865149,   140.744095,           0.
    340,   9.88099098,     154.7901,           0.
    341,   5.28214693,   134.882629,           0.
    342,   5.35494661,   128.716904,           0.
    343,   10.1306562,    160.51712,           0.
    344,   9.82693958,   149.194839,           0.
    345,   100.193535,    131.34906,           0.
    346,   70.7333984,   131.314224,           0.
    347,   41.2609634,   131.313309,           0.
    348,   11.0717745,   131.542679,           0.
    349,   17.4416351,   131.422089,           0.
    350,   35.3636551,   131.309067,           0.
    351,   82.5220413,   131.315369,           0.
    352,    23.421545,   131.481033,           0.
    353,   58.9444923,   131.314194,           0.
    354,   29.4387779,   131.330139,           0.
    355,   47.1555252,    131.31395,           0.
    356,   88.4144974,   131.319077,           0.
    357,   112.072083,   131.626984,           0.
    358,   53.0500221,   131.314224,           0.
    359,   76.6277237,   131.314743,           0.
    360,   64.8389511,   131.314285,           0.
    361,   94.3033905,   131.330582,           0.
    362,   106.100357,   131.412354,           0.
    363,    14.709404,   172.142639,           0.
    364,   29.5093269,   167.025635,           0.
    365,    9.7412796,    172.58606,           0.
    366,   118.152382,   166.554642,           0.
    367,   23.4865856,   166.923096,           0.
    368,   82.6429138,   167.001038,           0.
    369,   47.2242126,   167.002563,           0.
    370,   53.1274643,   167.001907,           0.
    371,    64.933754,   167.001419,           0.
    372,   70.8368301,   167.001434,           0.
    373,    94.447258,   166.996765,           0.
    374,   106.241081,   166.960403,           0.
    375,   35.4149208,   167.011902,           0.
    376,   112.185852,   166.827469,           0.
    377,   41.3201141,   167.005539,           0.
    378,   59.0306282,   167.001633,           0.
    379,   76.7398834,   167.001373,           0.
    380,   88.5455399,   166.999817,           0.
    381,    100.34494,   166.984268,           0.
    382,   129.061493,   137.449707,           0.
    383,   130.387772,   161.554794,           0.
    384,   130.872864,   166.847473,           0.
    385,   124.907616,   152.089447,           0.
    386,   124.986572,   144.523239,           0.
    387,   11.0585299,    166.87442,           0.
    388,   124.837662,   165.496445,           0.
    389,   14.7633085,   162.693344,           0.
    390,   10.1091995,   137.934982,           0.
    391,   14.8206234,   152.014679,           0.
    392,   14.8847857,   157.654434,           0.
    393,   9.89518452,   143.592133,           0.
    394,   120.426277,   161.606323,           0.
    395,   17.4597034,    166.99028,           0.
    396,   85.4650345,   136.426727,           0.
    397,   67.7861557,   136.420425,           0.
    398,   73.6803207,   136.421005,           0.
    399,   61.8917046,   136.420425,           0.
    400,   79.5735245,   136.422928,           0.
    401,   91.3498459,   136.439346,           0.
    402,    38.309166,   136.413452,           0.
    403,   55.9972153,   136.420364,           0.
    404,   44.2069778,   136.418274,           0.
    405,   50.1024323,   136.419861,           0.
    406,   32.3993149,   136.402466,           0.
    407,   26.5127945,   136.524445,           0.
    408,   97.2298355,   136.466125,           0.
    409,   109.052345,    136.73555,           0.
    410,    20.176281,   137.264175,           0.
    411,   103.114372,   136.534866,           0.
    412,   14.7211971,    135.80304,           0.
    413,   79.6912079,   161.889999,           0.
    414,   91.4934311,   161.883743,           0.
    415,   67.8852615,   161.890625,           0.
    416,    73.788269,   161.890518,           0.
    417,   61.9821281,   161.890808,           0.
    418,   85.5931396,   161.888077,           0.
    419,   97.3876724,   161.869949,           0.
    420,    56.078846,   161.891205,           0.
    421,   50.1753006,   161.892105,           0.
    422,   44.2709084,   161.894958,           0.
    423,   38.3631477,   161.903809,           0.
    424,   32.3968277,   161.918808,           0.
    425,   103.274796,   161.837631,           0.
    426,   26.4367046,   161.852829,           0.
    427,   109.219749,   161.720749,           0.
    428,   115.174629,   161.508911,           0.
    429,   118.127327,    131.97493,           0.
    430,   121.586426,   137.705093,           0.
    431,   124.962814,   158.639618,           0.
    432,   119.198074,   149.121765,           0.
    433,   20.0838375,   161.157944,           0.
    434,   118.815269,   155.932724,           0.
    435,   19.7838745,   154.983765,           0.
    436,   14.8891964,   146.391708,           0.
    437,   14.9658785,   140.757431,           0.
    438,   93.9395523,    141.55632,           0.
    439,   99.7658081,   141.578583,           0.
    440,   100.579483,   156.745911,           0.
    441,   41.6501808,   141.512039,           0.
    442,   35.7859001,   141.498734,           0.
    443,   71.1013412,   141.490204,           0.
    444,     76.89048,   141.316879,           0.
    445,   65.2669449,   141.512436,           0.
    446,   47.5830421,   141.515396,           0.
    447,   82.3782959,   141.291306,           0.
    448,   87.9538574,   141.462234,           0.
    449,   59.4423752,   141.514679,           0.
    450,   53.6014786,   141.513733,           0.
    451,   106.542839,   156.689438,           0.
    452,   112.414703,   156.604996,           0.
    453,   105.608238,   141.719543,           0.
    454,   76.6239243,   156.602188,           0.
    455,    70.581665,   156.721573,           0.
    456,   64.6460495,    156.77092,           0.
    457,   82.7294388,   156.572479,           0.
    458,   88.7873154,   156.718872,           0.
    459,   46.9712677,   156.790161,           0.
    460,   94.7598114,   156.765717,           0.
    461,   58.7418098,   156.784241,           0.
    462,   52.7872581,   156.789398,           0.
    463,   40.9930725,   156.798889,           0.
    464,   34.8931618,   156.802185,           0.
    465,   29.7691345,   141.423355,           0.
    466,   24.5120525,   141.043671,           0.
    467,    28.949728,   157.031219,           0.
    468,   115.090012,   137.168503,           0.
    469,   117.708076,   142.963577,           0.
    470,   20.1037292,   143.507278,           0.
    471,   113.548431,   147.450317,           0.
    472,   20.1107922,   149.337189,           0.
    473,   96.0555344,   146.626953,           0.
    474,   104.183762,   151.709702,           0.
    475,   109.904655,    151.89093,           0.
    476,   101.937675,   146.688141,           0.
    477,   24.0447254,   157.540726,           0.
    478,   90.1270599,   146.548355,           0.
    479,   98.2860641,   151.705017,           0.
    480,    79.627327,   145.249619,           0.
    481,   84.3352356,   146.138489,           0.
    482,   69.0958557,   146.534882,           0.
    483,   74.9166794,   146.144257,           0.
    484,   51.4487801,   146.602509,           0.
    485,   45.5199203,   146.602158,           0.
    486,   63.2625618,   146.584335,           0.
    487,   57.3953896,   146.597748,           0.
    488,   39.5559158,   146.599854,           0.
    489,   92.3812332,   151.646225,           0.
    490,   79.6622849,   150.532333,           0.
    491,   86.3370895,   151.359451,           0.
    492,   73.0012436,   151.365707,           0.
    493,    66.976181,   151.610092,           0.
    494,   61.0615692,   151.672577,           0.
    495,   55.1406174,   151.689499,           0.
    496,   49.2329445,   151.694427,           0.
    497,   43.2828178,   151.698044,           0.
    498,   37.1982765,   151.694397,           0.
    499,   33.2409782,   146.556839,           0.
    500,   30.8915787,   151.868393,           0.
    501,   26.2282505,   146.630661,           0.
    502,   111.484833,   142.141571,           0.
    503,    114.77623,    152.20015,           0.
    504,   25.0014915,   152.898651,           0.
    505,   107.777931,   146.933365,           0.
    506,   150.814835,   115.553345,           0.
    507,    173.23877,   116.162468,           0.
    508,   156.377304,   115.879669,           0.
    509,   184.878967,   115.989555,           0.
    510,   178.982941,   116.130402,           0.
    511,   167.583221,   116.128807,           0.
    512,   161.970016,   116.042702,           0.
    513,   167.230087,   4.95658255,           0.
    514,   143.394531,   5.26603222,           0.
    515,   172.948898,   4.95634508,           0.
    516,   161.509506,   4.95665789,           0.
    517,   155.672958,   5.04098797,           0.
    518,    141.33342,   106.075089,           0.
    519,   140.744675,   37.3291359,           0.
    520,   140.745224,   54.5581169,           0.
    521,   140.743256,   25.8432655,           0.
    522,   140.744064,   31.5861263,           0.
    523,   140.745102,   43.0721397,           0.
    524,   140.745331,   48.8151436,           0.
    525,   140.745285,   60.3010712,           0.
    526,   140.745331,   66.0440063,           0.
    527,   140.745499,   71.7868195,           0.
    528,   140.747391,   77.5288849,           0.
    529,   140.754562,     83.27005,           0.
    530,   140.769989,   89.0108948,           0.
    531,   140.801376,   94.7565231,           0.
    532,   140.986008,   100.448654,           0.
    533,   194.083389,   111.612144,           0.
    534,   193.708313,   100.950531,           0.
    535,   193.699539,   95.1573944,           0.
    536,    193.69722,   89.3866806,           0.
    537,   193.696213,   83.6192093,           0.
    538,   193.695862,   77.8522415,           0.
    539,   193.695724,   72.0853729,           0.
    540,   193.695663,   66.3185349,           0.
    541,   193.695663,   60.5517006,           0.
    542,   193.695648,   54.7848701,           0.
    543,   193.695633,   49.0180397,           0.
    544,   193.695816,   43.2511749,           0.
    545,   193.696152,   37.4842682,           0.
    546,   193.696732,   31.7173843,           0.
    547,   193.691376,   25.9397678,           0.
    548,   193.603882,   20.0243702,           0.
    549,   193.429291,   13.9334917,           0.
    550,   193.431442,   7.65476513,           0.
    551,   147.437592,    109.44886,           0.
    552,   153.787109,   110.405319,           0.
    553,   191.068832,   115.906761,           0.
    554,   170.460129,   111.169724,           0.
    555,   159.358932,    110.84404,           0.
    556,   182.004349,   111.059959,           0.
    557,   164.879105,   111.054176,           0.
    558,   176.218857,   111.162926,           0.
    559,   178.641174,   4.92836857,           0.
    560,   149.668076,   5.22869253,           0.
    561,   158.529526,   9.97378063,           0.
    562,   184.284943,   4.91725254,           0.
    563,   164.350113,   9.92563343,           0.
    564,   170.058701,    9.9341011,           0.
    565,   189.127853,   4.57054806,           0.
    566,   140.714142,   20.1270123,           0.
    567,   140.325882,   9.59075069,           0.
    568,   145.718643,   34.4570351,           0.
    569,   140.728043,   14.4353094,           0.
    570,   145.719986,    40.200264,           0.
    571,    145.78389,   86.1415863,           0.
    572,   145.745758,   28.7053471,           0.
    573,   145.985062,   91.9811096,           0.
    574,   146.018494,   97.6654892,           0.
    575,   145.738586,   80.3940811,           0.
    576,   145.725021,   74.6554565,           0.
    577,   145.721832,   68.9147034,           0.
    578,   145.721176,   63.1723671,           0.
    579,   145.721008,   57.4295502,           0.
    580,   145.720932,   51.6866112,           0.
    581,   145.720795,   45.9435081,           0.
    582,   193.721039,   106.685524,           0.
    583,   188.514786,   16.9134712,           0.
    584,   188.585526,   98.1235962,           0.
    585,   188.705917,   86.5031967,           0.
    586,    188.70462,   80.7359848,           0.
    587,    188.70401,   74.9689178,           0.
    588,   188.703781,   69.2019958,           0.
    589,   188.703705,   63.4351311,           0.
    590,   188.703583,   51.9014206,           0.
    591,   188.705719,   34.5999184,           0.
    592,   188.703949,   46.1344719,           0.
    593,   188.688019,   92.2852097,           0.
    594,   188.703796,   57.6682739,           0.
    595,   188.704849,   40.3672791,           0.
    596,   188.699432,   28.8183727,           0.
    597,    188.64859,    22.889616,           0.
    598,   146.119431,   10.9256172,           0.
    599,   187.754044,   10.3436804,           0.
    600,   188.424164,   110.233856,           0.
    601,   156.989227,   105.591095,           0.
    602,   179.227127,   106.297485,           0.
    603,   173.453827,   106.253883,           0.
    604,   162.327332,   105.922867,           0.
    605,   167.809418,   106.119614,           0.
    606,   181.538223,   10.0891342,           0.
    607,   167.186066,   14.9540672,           0.
    608,   161.352859,   14.8724165,           0.
    609,   152.621857,   10.1184549,           0.
    610,    175.78479,   10.1309996,           0.
    611,   145.914032,   22.9155102,           0.
    612,   150.697815,   54.5580444,           0.
    613,   150.697693,   48.8149147,           0.
    614,   150.696808,    43.071331,           0.
    615,   150.709625,   77.5153351,           0.
    616,    150.70137,   71.7822037,           0.
    617,   150.698715,   66.0430527,           0.
    618,   150.698242,   60.3008537,           0.
    619,   150.694916,   37.3273659,           0.
    620,   150.740768,   31.5653648,           0.
    621,   150.771545,   83.2572708,           0.
    622,   151.562057,   95.1316376,           0.
    623,   150.889206,   88.9278336,           0.
    624,   145.921982,    17.133852,           0.
    625,   188.622742,    103.97068,           0.
    626,   183.714355,   43.2502823,           0.
    627,   183.713501,   49.0176544,           0.
    628,   183.713181,   54.7847328,           0.
    629,   183.713104,   60.5516815,           0.
    630,    183.71315,   66.3186035,           0.
    631,   183.713379,   72.0855789,           0.
    632,   183.714066,   77.8528671,           0.
    633,   183.715927,    83.620842,           0.
    634,   183.727081,   25.7625389,           0.
    635,     183.7164,   37.4820518,           0.
    636,   183.705246,   89.4219589,           0.
    637,   183.718842,   31.6808777,           0.
    638,   183.755539,   19.7705879,           0.
    639,   183.625931,    95.167511,           0.
    640,   146.288467,   103.156181,           0.
    641,   151.583237,   104.905174,           0.
    642,   154.621506,   100.363632,           0.
    643,   159.906982,   100.655739,           0.
    644,   176.625854,   101.496826,           0.
    645,   171.020279,   101.206017,           0.
    646,   165.445099,   100.885826,           0.
    647,   184.231781,   106.578362,           0.
    648,   178.804321,   15.9978113,           0.
    649,   164.178299,   19.9731274,           0.
    650,   155.718506,   80.3591614,           0.
    651,   155.685318,   86.0769958,           0.
    652,   155.475967,   14.8187599,           0.
    653,   172.793167,   15.1643744,           0.
    654,   155.676376,     63.17239,           0.
    655,   155.676407,   57.4294434,           0.
    656,   155.675079,   45.9424171,           0.
    657,   155.676163,   51.6861839,           0.
    658,   155.678299,   68.9113693,           0.
    659,   155.689621,   74.6394577,           0.
    660,   151.761566,   19.7920666,           0.
    661,   155.247177,   91.0606766,           0.
    662,   150.908493,   25.8950043,           0.
    663,   155.627396,   40.2075043,           0.
    664,   155.579865,   34.4663429,           0.
    665,   182.877731,   101.287994,           0.
    666,    184.07338,   14.6229372,           0.
    667,   178.691544,   28.6391468,           0.
    668,   178.350281,   46.1101303,           0.
    669,   178.258377,    51.868988,           0.
    670,   178.242935,   57.6320877,           0.
    671,   178.269165,   63.3976936,           0.
    672,   178.240158,   69.1587067,           0.
    673,   178.230728,   74.9190216,           0.
    674,   178.232422,    80.674469,           0.
    675,   178.608734,   34.5618706,           0.
    676,   178.154007,   86.6459503,           0.
    677,   178.323471,   40.3379364,           0.
    678,   178.856094,   22.5734653,           0.
    679,   178.525299,     92.55793,           0.
    680,   150.014755,   100.244423,           0.
    681,   150.380157,   14.5577497,           0.
    682,   157.457474,   95.4263077,           0.
    683,   163.020981,   95.6716919,           0.
    684,    174.37442,   96.4549942,           0.
    685,   168.657425,   95.9919891,           0.
    686,   160.878036,   83.4285278,           0.
    687,   160.648071,   89.9344482,           0.
    688,   174.765457,   19.8526421,           0.
    689,   160.952286,   77.5676498,           0.
    690,   158.216293,   19.7645741,           0.
    691,   169.899521,   20.0518341,           0.
    692,   160.889511,   48.8289719,           0.
    693,   160.943024,   54.5783424,           0.
    694,   160.956787,    60.324707,           0.
    695,   160.962585,   66.0679398,           0.
    696,   161.029434,   71.8171158,           0.
    697,   155.526932,   23.9019318,           0.
    698,   160.917709,   42.9737434,           0.
    699,   155.672821,   28.8140144,           0.
    700,   160.520782,   37.2058792,           0.
    701,   179.205841,   97.3930511,           0.
    702,    172.36319,   60.4417839,           0.
    703,   172.362381,   66.1978683,           0.
    704,   172.360748,   48.9263802,           0.
    705,   172.330994,   54.6822701,           0.
    706,   172.370407,   71.9506454,           0.
    707,   172.352051,     77.69664,           0.
    708,   173.245255,   25.2639675,           0.
    709,   173.622513,   31.4438629,           0.
    710,   172.499741,    43.050415,           0.
    711,   172.243332,   83.6932144,           0.
    712,   173.032104,   37.1030769,           0.
    713,   172.028854,   90.4601517,           0.
    714,   160.878815,   25.5699139,           0.
    715,   166.121658,   91.6925049,           0.
    716,   166.383194,    86.614357,           0.
    717,   166.533066,   80.6206818,           0.
    718,   166.623596,   74.7742233,           0.
    719,   167.143524,   24.9676933,           0.
    720,   166.569824,   51.7499428,           0.
    721,   166.606354,   63.2532959,           0.
    722,   166.628357,   57.5050583,           0.
    723,   166.659134,   69.0101852,           0.
    724,   166.628433,   45.8370781,           0.
    725,   160.322037,   31.7367935,           0.
    726,   166.626266,    39.191349,           0.
    727,   168.686691,   33.5205879,           0.
    728,    169.55957,   29.0245609,           0.
    729,   165.128448,   29.8762436,           0.
    730,   164.256836,   34.3061714,           0.
    731,    130.42778,   7.76539278,           0.
    732,   124.230827,   109.573181,           0.
    733,   120.660713,   115.529152,           0.
    734,   130.792648,   48.8146744,           0.
    735,   130.793839,   54.5578156,           0.
    736,   130.793076,    60.300415,           0.
    737,   130.788528,   66.0421677,           0.
    738,   130.778641,   71.7838058,           0.
    739,   130.764893,   77.5260696,           0.
    740,       130.75,   83.2690353,           0.
    741,   130.736267,   89.0127792,           0.
    742,   130.735962,   94.7489166,           0.
    743,   130.579865,   100.455116,           0.
    744,   130.219528,   106.071587,           0.
    745,   67.7879257,   116.004555,           0.
    746,   73.6816406,   116.004814,           0.
    747,   79.5751648,   116.004547,           0.
    748,   85.4689102,   116.002319,           0.
    749,   91.3618698,   115.996704,           0.
    750,    97.255249,   115.987129,           0.
    751,   103.150391,   115.975471,           0.
    752,   109.048164,   115.955009,           0.
    753,   114.890678,   115.812759,           0.
    754,   5.29453611,   7.88029432,           0.
    755,   5.23770571,   14.1579952,           0.
    756,   5.04938745,   20.1367111,           0.
    757,   5.00408697,   25.9422016,           0.
    758,   4.99578619,   31.7159424,           0.
    759,   4.99431849,    37.484024,           0.
    760,   4.99444103,   43.2510071,           0.
    761,   4.99523973,   49.0177917,           0.
    762,   4.99636936,   54.7846069,           0.
    763,   4.99769735,   60.5514488,           0.
    764,   4.99904871,   66.3182449,           0.
    765,   5.00036049,   72.0850143,           0.
    766,   5.00187016,    77.851799,           0.
    767,    5.0036273,   83.6185608,           0.
    768,   5.00547457,   89.3853455,           0.
    769,   5.01140785,   95.1513977,           0.
    770,   5.06531525,   100.943932,           0.
    771,   5.24344826,   106.938698,           0.
    772,   5.28966045,   113.243164,           0.
    773,   50.1728363,   5.10129976,           0.
    774,   44.2708893,   5.09934759,           0.
    775,   38.3689842,    5.0968504,           0.
    776,    32.466217,    5.0946393,           0.
    777,   26.5631123,   5.09200478,           0.
    778,   20.6115417,   5.16335821,           0.
    779,   14.7328005,   5.18666506,           0.
    780,   130.787292,   37.3292542,           0.
    781,    130.75412,   25.8471451,           0.
    782,   130.776382,   31.5889149,           0.
    783,   130.789505,   43.0720482,           0.
    784,   125.791687,   68.9033432,           0.
    785,   125.764221,   74.6411438,           0.
    786,   130.692993,   20.0723476,           0.
    787,   125.807358,   63.1661072,           0.
    788,   125.675217,   91.8886337,           0.
    789,   125.500618,   97.6127472,           0.
    790,   125.731812,   80.3831406,           0.
    791,   125.698593,   86.1299515,           0.
    792,   125.812805,   51.6863747,           0.
    793,   125.813042,   57.4272537,           0.
    794,   10.2077026,   103.807442,           0.
    795,   10.0259399,   92.2656021,           0.
    796,   10.0171776,   86.4997635,           0.
    797,   10.0115824,   80.7334213,           0.
    798,   10.0072117,   74.9668961,           0.
    799,   10.0034676,   69.2002716,           0.
    800,   10.0400362,   22.9869289,           0.
    801,   10.0046768,   28.8093719,           0.
    802,   9.99077606,   46.1335831,           0.
    803,   9.99266148,   34.5963287,           0.
    804,    9.9906311,   40.3663979,           0.
    805,   9.99313354,   51.9000435,           0.
    806,   9.99610329,   57.6668587,           0.
    807,   9.99987507,   63.4335289,           0.
    808,   10.0810156,   98.0190964,           0.
    809,   10.2132092,   17.1296501,           0.
    810,    61.893364,   116.005798,           0.
    811,     70.73703,   110.911987,           0.
    812,   100.192474,   110.860512,           0.
    813,   50.1041412,   116.005875,           0.
    814,    88.409874,   110.899597,           0.
    815,   82.5198364,   110.908676,           0.
    816,   112.013771,   110.527901,           0.
    817,    38.312294,   116.007217,           0.
    818,   32.4180756,   116.008499,           0.
    819,   26.4907722,   115.913025,           0.
    820,   20.5389252,   115.783104,           0.
    821,    14.676219,   115.811813,           0.
    822,   9.73493767,   116.325096,           0.
    823,   55.9990234,   116.006485,           0.
    824,   94.2983093,   110.883583,           0.
    825,    76.629303,   110.912338,           0.
    826,    106.09404,   110.787369,           0.
    827,   56.0762367,   5.10078859,           0.
    828,   29.5121059,   10.1747799,           0.
    829,   73.7858276,   5.10377932,           0.
    830,    67.883255,   5.10248375,           0.
    831,   61.9801865,   5.10064793,           0.
    832,   23.4881229,   10.3618679,           0.
    833,   47.2166748,   10.1919308,           0.
    834,   41.3160591,   10.1864824,           0.
    835,   35.4148369,     10.17941,           0.
    836,   17.4772778,    10.427125,           0.
    837,   11.0665598,    10.646697,           0.
    838,   11.0486689,   110.323387,           0.
    839,   130.463928,    14.042347,           0.
    840,   125.800362,   40.2026558,           0.
    841,   125.788116,   34.4630623,           0.
    842,   125.683441,   23.0002747,           0.
    843,   125.752159,    28.735487,           0.
    844,   120.827896,     60.29039,           0.
    845,   120.829185,    54.555172,           0.
    846,    120.53978,   94.7976151,           0.
    847,   120.808495,   66.0191269,           0.
    848,   120.619209,   88.9946899,           0.
    849,   120.674141,   83.2301636,           0.
    850,   120.726715,   77.4834824,           0.
    851,   120.772316,   71.7468033,           0.
    852,   125.806427,   45.9448891,           0.
    853,   14.9897223,   37.4830322,           0.
    854,   15.0090961,   19.9803085,           0.
    855,   14.9974899,   31.6977539,           0.
    856,   14.9754791,   25.8467827,           0.
    857,   14.9999256,   60.5474281,           0.
    858,   14.9893847,   43.2491646,           0.
    859,   15.0066195,   66.3138657,           0.
    860,   14.9948025,   54.7806969,           0.
    861,   14.9913721,   49.0147018,           0.
    862,   15.0213566,    77.846489,           0.
    863,   15.0144091,   72.0799332,           0.
    864,   15.0304356,   83.6122818,           0.
    865,    15.043828,   89.3794556,           0.
    866,   15.0857744,   95.1360703,           0.
    867,   15.1061659,   100.894684,           0.
    868,   14.8350658,   105.989471,           0.
    869,   125.208748,   103.366928,           0.
    870,   53.1202126,   10.1926918,           0.
    871,    64.842659,   110.913864,           0.
    872,   44.2079391,   116.007439,           0.
    873,   35.3681297,   110.909042,           0.
    874,   17.4862919,   110.479897,           0.
    875,   29.4831276,   110.759354,           0.
    876,   23.5155334,    110.50148,           0.
    877,   53.0538635,   110.914307,           0.
    878,   73.6856613,   105.827232,           0.
    879,   79.5735855,   105.825081,           0.
    880,   85.4571152,   105.815491,           0.
    881,   109.021561,   105.441841,           0.
    882,   91.3392258,   105.795601,           0.
    883,   103.166847,   105.656754,           0.
    884,   97.2390671,   105.751282,           0.
    885,   58.9485512,    110.91523,           0.
    886,   79.6892624,   5.10262299,           0.
    887,    120.98085,   5.12207413,           0.
    888,   91.4958267,   5.10271835,           0.
    889,   85.5931015,   5.10158253,           0.
    890,   70.8305054,   10.1989908,           0.
    891,   97.3978348,   5.10168123,           0.
    892,   64.9282074,   10.1961155,           0.
    893,   38.3576775,   15.2604504,           0.
    894,   44.2571182,   15.2685509,           0.
    895,   32.4294205,   15.2543993,           0.
    896,   26.5267582,   15.3996687,           0.
    897,   20.1853714,   16.2747993,           0.
    898,   59.0250015,   10.1928511,           0.
    899,   117.924774,   110.304283,           0.
    900,   9.76062107,   4.74273109,           0.
    901,   125.478836,   17.1715412,           0.
    902,   124.624741,   10.6261358,           0.
    903,   20.3191719,   104.589432,           0.
    904,   120.612411,   20.1461372,           0.
    905,   115.829842,   63.1368065,           0.
    906,   115.791031,   68.8524246,           0.
    907,   120.810829,    43.079628,           0.
    908,   120.794075,     37.34198,           0.
    909,   115.841141,    57.414772,           0.
    910,   120.761612,   31.6253738,           0.
    911,   120.696999,   25.9192314,           0.
    912,   115.734245,   74.5746918,           0.
    913,   115.667206,   80.3107147,           0.
    914,   120.821465,    48.818634,           0.
    915,   115.440628,   91.9797516,           0.
    916,   115.583626,   86.0902481,           0.
    917,    20.004858,   98.1822281,           0.
    918,   19.9926109,    40.366909,           0.
    919,   19.9921207,   46.1306229,           0.
    920,   20.0598278,   86.5029831,           0.
    921,   20.0198917,   69.1909637,           0.
    922,   20.0093803,   63.4248199,           0.
    923,    20.045496,   80.7262726,           0.
    924,   20.0028419,    34.604023,           0.
    925,   20.0972996,   28.7128811,           0.
    926,   20.0501671,   92.3649368,           0.
    927,    20.032795,   74.9567947,           0.
    928,   20.0373268,   22.7377567,           0.
    929,   19.9951439,   51.8945045,           0.
    930,   20.0013447,   57.6591187,           0.
    931,   14.7903032,    14.891716,           0.
    932,   50.1616974,   15.2728291,           0.
    933,   67.7921753,   105.829559,           0.
    934,   88.3814011,    100.72361,           0.
    935,    94.266037,   100.685081,           0.
    936,   120.444756,    100.66526,           0.
    937,    47.156498,   110.916313,           0.
    938,   120.616615,   105.683678,           0.
    939,   76.7344971,   10.1977806,           0.
    940,   82.5087738,   100.742142,           0.
    941,   76.6295319,   100.750038,           0.
    942,   26.6589737,   105.304199,           0.
    943,   32.5361633,   105.497559,           0.
    944,   56.0045471,   105.830338,           0.
    945,   41.2600098,   110.915627,           0.
    946,   106.112564,   100.541306,           0.
    947,   61.8986588,   105.831329,           0.
    948,   100.200226,   100.636002,           0.
    949,   41.2943459,   20.3327141,           0.
    950,   103.300827,   5.10048914,           0.
    951,   125.973076,   4.70272064,           0.
    952,   115.130707,   5.17928934,           0.
    953,   109.215202,   5.15043497,           0.
    954,   94.4439163,   10.1964569,           0.
    955,   88.5421448,   10.1965227,           0.
    956,   67.8736649,   15.2837276,           0.
    957,    24.367775,   20.0595474,           0.
    958,   35.3370361,   20.3105717,           0.
    959,   29.4495239,   20.3075104,           0.
    960,   82.6392899,   10.1957417,           0.
    961,   61.9715805,   15.2792358,           0.
    962,   56.0678139,    15.274478,           0.
    963,   115.289589,   104.441933,           0.
    964,   120.836632,   14.9575691,           0.
    965,   115.473198,   22.8697968,           0.
    966,   110.816978,   65.9594574,           0.
    967,   110.755524,    71.664505,           0.
    968,   110.844963,   60.2554436,           0.
    969,   110.441277,   88.9764786,           0.
    970,   115.820793,    45.958519,           0.
    971,   115.663918,   28.7596645,           0.
    972,   115.751472,   34.4994087,           0.
    973,   115.792824,   40.2271729,           0.
    974,     110.6763,   77.3915939,           0.
    975,   115.834709,   51.6893196,           0.
    976,   110.568871,   83.2030182,           0.
    977,   25.8545094,   25.4825764,           0.
    978,   25.0094852,   43.2356873,           0.
    979,   24.8553677,   95.4895248,           0.
    980,   25.0003071,   49.0080223,           0.
    981,    24.983345,   89.5487442,           0.
    982,   25.0586662,   77.8310089,           0.
    983,   25.0501175,   83.6448898,           0.
    984,   25.0319977,   37.4537201,           0.
    985,   25.0408363,    72.063446,           0.
    986,   25.0245209,   66.2984314,           0.
    987,    25.126606,   31.6980057,           0.
    988,   25.0117874,   60.5343857,           0.
    989,   25.0039597,   54.7712135,           0.
    990,   115.258736,   16.2064953,           0.
    991,   115.461334,   97.9686661,           0.
    992,   91.2937622,     95.63311,           0.
    993,   47.1994705,   20.3403873,           0.
    994,   70.7405243,   100.753708,           0.
    995,   85.4314423,   95.6643066,           0.
    996,   50.1065712,   105.832832,           0.
    997,   73.7782974,   15.2833138,           0.
    998,   97.2713547,   95.4716797,           0.
    999,   38.3804207,   105.756798,           0.
   1000,   100.487762,   10.3785629,           0.
   1001,   79.5647507,   95.6796494,           0.
   1002,   29.6671028,   99.4482803,           0.
   1003,   58.9558678,   100.754585,           0.
   1004,   118.171921,   10.4193897,           0.
   1005,    103.26696,   95.4690552,           0.
   1006,   91.4899445,   15.2814207,           0.
   1007,   111.119865,   100.736427,           0.
   1008,   38.2913933,   25.4433098,           0.
   1009,   85.5880737,   15.2817593,           0.
   1010,   64.9151154,   20.3574638,           0.
   1011,   64.8489685,   100.755707,           0.
   1012,   59.0128899,   20.3512459,           0.
   1013,   106.486084,    10.353466,           0.
   1014,   32.3055077,   25.3310356,           0.
   1015,   112.304802,   10.3308039,           0.
   1016,   79.6844788,   15.2811508,           0.
   1017,   44.2260056,   105.819496,           0.
   1018,   53.1077042,   20.3445816,           0.
   1019,   24.3010941,   100.602737,           0.
   1020,   110.078392,   19.8441658,           0.
   1021,   110.545837,   25.8175678,           0.
   1022,     105.7882,   68.7536697,           0.
   1023,   105.838013,   63.0685806,           0.
   1024,   110.831055,   48.8348885,           0.
   1025,   105.704269,   74.4664307,           0.
   1026,    105.62059,    86.072464,           0.
   1027,   110.728683,   31.6374474,           0.
   1028,   110.801445,   43.1101532,           0.
   1029,   110.769035,    37.381794,           0.
   1030,    110.84507,   54.5495415,           0.
   1031,   105.673355,   80.2549133,           0.
   1032,   30.0408726,   46.0963287,           0.
   1033,   30.0471554,   40.2843437,           0.
   1034,   29.8065586,   92.8461914,           0.
   1035,   30.0881863,   80.7529068,           0.
   1036,   30.0979919,    86.794632,           0.
   1037,   30.0698547,   74.9451218,           0.
   1038,   30.0274086,   63.4052849,           0.
   1039,   30.0179501,   51.8781929,           0.
   1040,    30.017767,   57.6432495,           0.
   1041,   30.0474014,   69.1695938,           0.
   1042,   30.0188274,   34.5317535,           0.
   1043,    109.67337,   95.2600327,           0.
   1044,   88.3889313,   90.5777588,           0.
   1045,   44.2574425,    25.392767,           0.
   1046,   73.6848679,   95.6863251,           0.
   1047,   94.2325211,   90.4422379,           0.
   1048,   53.0577049,   100.756737,           0.
   1049,   70.8202896,   20.3585396,           0.
   1050,   82.5036545,   90.6114655,           0.
   1051,   35.7136421,   100.468697,           0.
   1052,   97.5269699,   15.6144514,           0.
   1053,   100.513443,   89.6495285,           0.
   1054,   61.9077339,   95.6873474,           0.
   1055,   61.9543877,   25.4205017,           0.
   1056,   88.5358658,   20.3575306,           0.
   1057,   82.6331787,   20.3580666,           0.
   1058,    29.700285,   29.5983429,           0.
   1059,   35.1357727,   31.0901203,           0.
   1060,   104.252563,   16.4122181,           0.
   1061,   67.7984161,   95.6887207,           0.
   1062,   56.0512314,   25.4122849,           0.
   1063,   47.1674843,   100.748947,           0.
   1064,   41.3842201,   100.674095,           0.
   1065,   76.7281189,   20.3571453,           0.
   1066,   50.1520767,   25.4008179,           0.
   1067,   105.449852,   22.9844284,           0.
   1068,   105.759666,   28.6625938,           0.
   1069,   100.817215,   65.8516693,           0.
   1070,   100.761696,   71.5094147,           0.
   1071,   105.840126,   51.7021408,           0.
   1072,    105.80822,   45.9924278,           0.
   1073,   100.618721,   77.3171768,           0.
   1074,   100.651184,   83.2399979,           0.
   1075,   105.664902,   34.3900375,           0.
   1076,   105.748207,   40.2277184,           0.
   1077,   105.849998,   57.3899498,           0.
   1078,   35.0180206,   43.1697083,           0.
   1079,   35.0392418,   48.9906502,           0.
   1080,   35.6153145,   90.4029312,           0.
   1081,    35.032341,   60.5130157,           0.
   1082,   35.3168449,   83.8336716,           0.
   1083,   35.1551971,   77.8601151,           0.
   1084,   34.8867188,   37.3800812,           0.
   1085,   35.0510826,   66.2708359,           0.
   1086,   35.0306435,   54.7557144,           0.
   1087,   35.0884361,   72.0451126,           0.
   1088,    105.90313,   91.0855103,           0.
   1089,   91.3543167,   85.5170212,           0.
   1090,   85.5030518,   85.4937515,           0.
   1091,   41.4477272,   30.6250877,           0.
   1092,   76.6250763,   90.6260757,           0.
   1093,   67.8600464,   25.4235382,           0.
   1094,    55.988224,   95.6639404,           0.
   1095,   96.3424683,   85.8415146,           0.
   1096,   33.8821678,   95.7512283,           0.
   1097,   94.3906021,   20.5849361,           0.
   1098,   109.676117,   14.6294298,           0.
   1099,   64.8593979,   90.6290054,           0.
   1100,   85.5581131,    25.480751,           0.
   1101,   58.9906921,   30.4734898,           0.
   1102,   44.1224747,   95.6610107,           0.
   1103,   79.6727371,   25.4347687,           0.
   1104,   70.7448196,   90.6305008,           0.
   1105,   49.9416809,    95.504364,           0.
   1106,   38.6335335,   95.7513885,           0.
   1107,   100.093117,   21.2124977,           0.
   1108,   53.1266022,   30.4373817,           0.
   1109,   73.7688904,   25.4251862,           0.
   1110,   47.3173676,   30.5949688,           0.
   1111,   95.8301544,   68.5671692,           0.
   1112,   100.206917,   31.1994953,           0.
   1113,    100.84584,   54.5510445,           0.
   1114,   95.7185211,   74.1697617,           0.
   1115,   100.812935,   48.8685188,           0.
   1116,   100.845879,   60.2028847,           0.
   1117,   94.9296875,   80.3623352,           0.
   1118,   100.774551,   43.1532555,           0.
   1119,   39.9457474,    46.027874,           0.
   1120,   100.764206,   37.4600258,           0.
   1121,     40.01577,   51.8570518,           0.
   1122,   40.0541725,   63.3751678,           0.
   1123,   40.7967758,   86.6220932,           0.
   1124,   40.0373421,   57.6222534,           0.
   1125,   40.5306282,   80.7462158,           0.
   1126,   40.0867271,   69.1319427,           0.
   1127,   40.2720337,   74.9156952,           0.
   1128,   88.5720215,   80.3798828,           0.
   1129,   79.5984268,   85.5176392,           0.
   1130,   64.8971863,   30.4787731,           0.
   1131,   58.9504356,   90.6077271,           0.
   1132,   91.3473053,   25.6630993,           0.
   1133,   73.6994934,   85.5627289,           0.
   1134,   67.8119659,   85.5755157,           0.
   1135,    82.465889,   30.4608135,           0.
   1136,   46.5321693,   89.9003372,           0.
   1137,    56.089241,   35.4200401,           0.
   1138,   76.6901398,   30.4819698,           0.
   1139,   53.0372772,   90.5417099,           0.
   1140,   96.9803619,   25.9295311,           0.
   1141,   50.4961357,   35.5374451,           0.
   1142,   70.8036118,   30.4806404,           0.
   1143,   44.5252609,   36.4283829,           0.
   1144,   39.7133026,   40.1659584,           0.
   1145,    39.141758,   35.1379242,           0.
   1146,   41.1400528,   91.6675568,           0.
   1147,   95.8444748,   57.3728485,           0.
   1148,   90.8440247,      71.1959,           0.
   1149,   96.2356491,   35.3461952,           0.
   1150,   44.6851692,   42.8451347,           0.
   1151,   95.8157349,     51.73106,           0.
   1152,   95.8405457,   62.9779739,           0.
   1153,   95.7075272,   46.0711746,           0.
   1154,   45.0125275,   48.7706795,           0.
   1155,   95.6718369,   40.3264275,           0.
   1156,    45.059433,   60.4824371,           0.
   1157,   45.0858345,   66.2280273,           0.
   1158,   45.0478897,    54.682415,           0.
   1159,   45.3340454,   71.9507904,           0.
   1160,   45.8431244,   77.7363281,           0.
   1161,   91.1687241,   76.1309357,           0.
   1162,   82.6038818,   80.2753601,           0.
   1163,   61.9358177,   35.4681625,           0.
   1164,   61.8896179,   85.6155319,           0.
   1165,   88.0889893,   30.7048187,           0.
   1166,   76.6502075,   80.4240723,           0.
   1167,   70.7630768,   80.5045624,           0.
   1168,   50.7589912,   86.0473251,           0.
   1169,   79.6079559,   35.3655663,           0.
   1170,   53.3731079,   40.1684723,           0.
   1171,   55.8968353,   85.6993637,           0.
   1172,   73.6941681,   35.4735756,           0.
   1173,    67.826683,   35.4982452,           0.
   1174,   93.8631439,   30.9139023,           0.
   1175,   85.6638412,   74.5487823,           0.
   1176,   90.7798004,   60.1308632,           0.
   1177,    50.443985,   45.2690392,           0.
   1178,   90.7956772,   54.5602989,           0.
   1179,   90.7477264,   65.6237488,           0.
   1180,   90.5067444,   48.9758263,           0.
   1181,   90.0673065,   43.1161385,           0.
   1182,   50.2067261,   51.6756935,           0.
   1183,   50.0896721,    63.331562,           0.
   1184,   50.1087379,   57.5595016,           0.
   1185,   50.3407211,   69.0202637,           0.
   1186,   46.0769806,   83.6168747,           0.
   1187,   50.7997055,   74.6207123,           0.
   1188,   101.697983,   25.9977093,           0.
   1189,   79.3837204,    75.236084,           0.
   1190,   64.6917877,    80.476059,           0.
   1191,   58.8607712,   40.3230133,           0.
   1192,   84.7928009,   34.6911888,           0.
   1193,   73.6151886,   75.3839111,           0.
   1194,    51.967762,    80.715477,           0.
   1195,   76.6600952,   40.4768105,           0.
   1196,   58.5350838,    80.666214,           0.
   1197,   64.7025452,   40.5910873,           0.
   1198,   70.6550751,   40.5489998,           0.
   1199,   85.6960526,   62.8001595,           0.
   1200,   55.5602303,   49.0699043,           0.
   1201,   85.7007751,   57.4547157,           0.
   1202,   85.3777847,   52.1162796,           0.
   1203,   90.3144608,   36.4833069,           0.
   1204,   85.6697235,   68.3496857,           0.
   1205,   84.8972702,   46.6766777,           0.
   1206,   55.2779007,   60.4986229,           0.
   1207,   55.3951607,   54.8566208,           0.
   1208,   55.4688148,   66.1065369,           0.
   1209,   55.7039146,    71.658165,           0.
   1210,   67.7479019,   75.4668427,           0.
   1211,   83.6373672,   40.3361893,           0.
   1212,   76.3893585,   70.4138947,           0.
   1213,   73.4142838,   45.6183624,           0.
   1214,   61.2599297,   74.9389114,           0.
   1215,    67.604805,   45.7019463,           0.
   1216,   61.2296638,   46.0889931,           0.
   1217,    81.377861,   70.7902603,           0.
   1218,   80.0800095,    65.501442,           0.
   1219,   81.5165482,   60.3146667,           0.
   1220,   60.7947807,    52.309761,           0.
   1221,   79.8578491,   55.2184601,           0.
   1222,   81.0395432,   50.0066643,           0.
   1223,   60.6769066,   57.8829689,           0.
   1224,   60.7296143,   63.2882576,           0.
   1225,   60.9244423,   68.8008804,           0.
   1226,   55.8935509,   44.1838837,           0.
   1227,   70.6228638,   70.5925293,           0.
   1228,   65.4605331,   71.1141739,           0.
   1229,   70.3725357,    50.552597,           0.
   1230,   65.3219452,   50.0528107,           0.
   1231,   55.6532784,   76.5198975,           0.
   1232,   76.4658737,   60.4690781,           0.
   1233,   76.1760788,   50.4247932,           0.
   1234,   65.0503769,   60.6494904,           0.
   1235,   79.3041077,   45.5899162,           0.
   1236,   66.5652924,   55.3929176,           0.
   1237,   73.4659195,   65.5737381,           0.
   1238,   70.2575989,   60.5776596,           0.
   1239,   66.6444778,     65.79953,           0.
   1240,   73.2825394,   55.4392509,           0.
   1241,    48.704731,   40.0496941,           0.
*Element, type=S3
  1, 233,  15, 197
  2, 256,  13,  14
  3, 275, 263, 262
  4, 196,   3,  21
  5, 225, 202, 201
  6, 228,  43,  44
  7, 236, 218, 205
  8, 198, 197,  16
  9, 199, 198,  17
 10, 257, 200, 195
 11, 200,   2,  19
 12,  28,   4,  29
 13, 211,  29,  30
 14, 219, 210, 209
 15, 222, 208, 207
 16, 246, 238, 243
 17, 223,  24,  25
 18, 202,  23, 201
 19, 196, 195,  20
 20,  38,  37,   5
 21, 204,  37,  38
 22, 217,  40, 216
 23, 206,  35, 205
 24, 207,  34, 206
 25, 208,  33, 207
 26, 209,  32, 208
 27, 210,  31, 209
 28, 211,  30, 210
 29,  47,   1,  13
 30, 212,  47,  13
 31, 256, 237, 212
 32, 213,  46, 212
 33, 231,  45, 213
 34, 231,  44,  45
 35, 215,  42, 214
 36, 232, 215, 229
 37, 216,  41, 215
 38, 255,  38,  39
 39, 195,  19,  20
 40, 196,  20,   3
 41, 203,  21,  22
 42, 202,  22,  23
 43, 197,  15,  16
 44, 198,  16,  17
 45, 199,  17,  18
 46, 247, 224, 225
 47, 200, 199,  18
 48, 257, 234, 199
 49, 200,  18,   2
 50, 200,  19, 195
 51, 201,  23,  24
 52, 221, 206, 218
 53, 224, 203, 202
 54, 203,  22, 202
 55, 253, 196, 203
 56, 203, 196,  21
 57, 205,  36, 204
 58, 204,  36,  37
 59, 205,  35,  36
 60, 229, 215, 214
 61, 276, 195, 253
 62, 206,  34,  35
 63, 220, 219, 209
 64, 207,  33,  34
 65, 226, 223,  25
 66, 208,  32,  33
 67, 227, 226,  26
 68, 209,  31,  32
 69, 238, 210, 219
 70, 210,  30,  31
 71, 245,  28, 211
 72, 211,  28,  29
 73, 212,  46,  47
 74, 256, 233, 237
 75, 228, 214,  43
 76, 213,  45,  46
 77, 214,  42,  43
 78, 235, 198, 234
 79, 255, 236, 204
 80, 215,  41,  42
 81, 230, 217, 216
 82, 216,  40,  41
 83, 255, 217, 236
 84, 217,  39,  40
 85, 250, 230, 232
 86, 218, 206, 205
 87, 220, 209, 208
 88, 260, 243, 239
 89, 221, 207, 206
 90, 246, 244, 226
 91, 266, 240, 218
 92, 242, 221, 240
 93, 222, 220, 208
 94, 222, 207, 221
 95, 223, 201,  24
 96, 226,  25,  26
 97, 272, 224, 247
 98, 225, 224, 202
 99, 249, 201, 223
100, 281, 280, 264
101, 227,  26,  27
102, 264, 249, 244
103, 245, 227,  27
104, 245, 238, 227
105, 231, 228,  44
106, 252, 248, 231
107, 254, 214, 228
108, 277, 261, 274
109, 266, 236, 230
110, 232, 230, 216
111, 269, 261, 252
112, 259, 235, 234
113, 232, 216, 215
114, 266, 250, 240
115, 233,  14,  15
116, 258, 197, 235
117, 242, 241, 222
118, 234, 198, 199
119, 252, 213, 237
120, 235, 197, 198
121, 236, 205, 204
122, 236, 217, 230
123, 237, 213, 212
124, 258, 237, 233
125, 238, 211, 210
126, 243, 219, 239
127, 239, 219, 220
128, 241, 220, 222
129, 240, 221, 218
130, 268, 250, 251
131, 241, 239, 220
132, 242, 222, 221
133, 265, 240, 250
134, 280, 278, 271
135, 260, 246, 243
136, 243, 238, 219
137, 249, 223, 244
138, 244, 223, 226
139, 245,  27,  28
140, 245, 211, 238
141, 246, 226, 227
142, 246, 227, 238
143, 276, 273, 257
144, 271, 225, 249
145, 267, 248, 261
146, 248, 228, 231
147, 249, 225, 201
148, 264, 244, 260
149, 251, 232, 229
150, 251, 250, 232
151, 270, 229, 254
152, 267, 254, 248
153, 252, 231, 213
154, 269, 237, 258
155, 253, 195, 196
156, 253, 203, 224
157, 254, 229, 214
158, 254, 228, 248
159, 255, 204,  38
160, 255,  39, 217
161, 256, 212,  13
162, 256,  14, 233
163, 257, 199, 200
164, 276, 253, 272
165, 258, 233, 197
166, 274, 235, 259
167, 279, 247, 278
168, 282, 267, 277
169, 260, 244, 246
170, 263, 241, 262
171, 261, 248, 252
172, 274, 269, 258
173, 262, 241, 242
174, 265, 262, 242
175, 263, 260, 239
176, 263, 239, 241
177, 281, 275, 280
178, 281, 260, 263
179, 265, 242, 240
180, 268, 265, 250
181, 266, 218, 236
182, 266, 230, 250
183, 289, 288, 283
184, 289, 277, 286
185, 283, 270, 282
186, 284, 265, 268
187, 269, 252, 237
188, 274, 258, 235
189, 270, 251, 229
190, 270, 254, 267
191, 271, 247, 225
192, 271, 249, 264
193, 272, 253, 224
194, 287, 286, 285
195, 273, 259, 234
196, 273, 234, 257
197, 286, 274, 259
198, 274, 261, 269
199, 284, 262, 265
200, 290, 287, 278
201, 276, 257, 195
202, 276, 272, 273
203, 277, 267, 261
204, 287, 279, 278
205, 285, 273, 279
206, 278, 247, 271
207, 279, 273, 272
208, 279, 272, 247
209, 280, 271, 264
210, 290, 275, 288
211, 281, 264, 260
212, 281, 263, 275
213, 289, 283, 282
214, 282, 270, 267
215, 283, 268, 251
216, 283, 251, 270
217, 284, 275, 262
218, 284, 268, 283
219, 287, 285, 279
220, 285, 259, 273
221, 286, 277, 274
222, 286, 259, 285
223, 290, 288, 287
224, 289, 286, 287
225, 288, 275, 284
226, 288, 284, 283
227, 289, 282, 277
228, 289, 287, 288
229, 290, 278, 280
230, 290, 280, 275
231, 382,   2,  18
232, 382,  18, 296
233, 434, 431, 394
234, 320,  83,  84
235, 327,  89,  90
236,  13,   1,  48
237, 314,  48,  49
238, 366, 313, 312
239, 383,  15,  14
240, 295,  16, 294
241, 296,  17, 295
242,  69,   6,  70
243, 319,  70,  71
244, 343, 317, 340
245, 363,  67,  68
246, 367, 364, 298
247, 339, 315,  75
248, 299,  80,  81
249, 300,  80, 299
250, 301,  82, 292
251, 298,  66, 297
252, 303,  64, 302
253, 355, 323, 324
254, 324,  87, 306
255, 306,  88, 293
256, 327,  90, 308
257, 444, 443, 398
258, 331, 330,  92
259, 334, 333,  94
260, 311,  52, 310
261, 312,  51, 311
262, 313,  50, 312
263, 314,  49, 313
264,  79,  78,   7
265, 390, 341, 348
266, 342,  78,  79
267, 412, 348, 349
268, 339,  75,  76
269, 316,  74, 315
270, 317,  73, 316
271, 318,  72, 317
272, 319,  71, 318
273, 350, 304, 347
274, 321,  63, 303
275, 404, 402, 347
276, 324, 323,  86
277, 358, 355, 324
278, 360, 353, 293
279, 325,  60, 305
280, 372, 326, 371
281, 328,  57, 307
282, 400, 351, 396
283, 356, 331, 333
284, 333, 331,  93
285, 332,  54, 309
286, 448, 401, 438
287, 335, 334,  95
288, 362, 335, 336
289, 336, 335,  96
290, 337, 336,  97
291, 429, 338, 291
292, 338,   8,  99
293, 291,  99, 100
294, 451, 425, 440
295, 302,  65, 298
296, 292,  82,  83
297, 325,  59,  60
298, 293,  88,  89
299, 294,  16,  15
300, 431, 383, 388
301, 386, 295, 385
302, 295,  17,  16
303, 386, 296, 295
304, 296,  18,  17
305, 297,  66,  67
306, 410, 352, 407
307, 354, 352, 292
308, 298,  65,  66
309, 341, 339,  76
310, 301, 299,  81
311, 342,  79, 300
312, 300,  79,  80
313, 301,  81,  82
314, 426, 424, 364
315, 320,  84, 304
316, 302,  64,  65
317, 377, 303, 375
318, 303,  63,  64
319, 304,  84,  85
320, 323,  85,  86
321, 305,  60,  61
322, 322,  61,  62
323, 306,  87,  88
324, 353, 306, 293
325, 307,  57,  58
326, 326,  58,  59
327, 308,  90,  91
328, 330,  91,  92
329, 309,  54,  55
330, 329,  55,  56
331, 310,  52,  53
332, 332, 310,  53
333, 376, 312, 311
334, 311,  51,  52
335, 388, 384, 314
336, 312,  50,  51
337, 388, 313, 366
338, 313,  49,  50
339, 384,  13, 314
340, 314,  13,  48
341, 344, 316, 315
342, 315,  74,  75
343, 340, 317, 316
344, 316,  73,  74
345, 387, 365, 319
346, 317,  72,  73
347, 387, 318, 343
348, 318,  71,  72
349, 365,  69, 319
350, 319,  69,  70
351, 354, 320, 350
352, 320, 292,  83
353, 321,  62,  63
354, 375, 302, 364
355, 322, 305,  61
356, 322,  62, 321
357, 323, 304,  85
358, 324,  86,  87
359, 358, 306, 353
360, 358, 324, 306
361, 378, 305, 370
362, 360, 327, 346
363, 326, 307,  58
364, 326,  59, 325
365, 327, 293,  89
366, 346, 327, 308
367, 328,  56,  57
368, 372, 307, 326
369, 329, 309,  55
370, 329,  56, 328
371, 330, 308,  91
372, 331,  92,  93
373, 333,  93,  94
374, 380, 329, 368
375, 332,  53,  54
376, 356, 351, 331
377, 334,  94,  95
378, 361, 334, 345
379, 335,  95,  96
380, 479, 473, 476
381, 336,  96,  97
382, 362, 336, 357
383, 337,  97,  98
384, 357, 336, 337
385, 338, 337,  98
386, 429, 357, 337
387, 338,  98,   8
388, 338,  99, 291
389, 341,  76,  77
390, 348, 341, 342
391, 344, 340, 316
392, 477, 433, 435
393, 342, 341,  77
394, 348, 300, 299
395, 342,  77,  78
396, 348, 342, 300
397, 395, 387, 389
398, 343, 318, 317
399, 393, 315, 339
400, 352, 349, 301
401, 381, 332, 373
402, 345, 334, 335
403, 359, 308, 330
404, 456, 455, 415
405, 375, 303, 302
406, 347, 304, 323
407, 349, 299, 301
408, 349, 348, 299
409, 352, 301, 292
410, 437, 390, 412
411, 424, 423, 375
412, 350, 320, 304
413, 447, 444, 400
414, 351, 330, 331
415, 354, 292, 320
416, 433, 426, 367
417, 360, 293, 327
418, 370, 322, 369
419, 406, 350, 402
420, 407, 354, 406
421, 405, 358, 403
422, 355, 347, 323
423, 361, 356, 333
424, 401, 396, 356
425, 469, 468, 430
426, 434, 432, 385
427, 405, 404, 355
428, 403, 353, 399
429, 359, 346, 308
430, 359, 330, 351
431, 417, 415, 371
432, 399, 360, 397
433, 361, 333, 334
434, 408, 401, 361
435, 425, 381, 419
436, 362, 345, 335
437, 363, 297,  67
438, 365, 363,  68
439, 364, 302, 298
440, 367, 298, 297
441, 365,  68,  69
442, 387, 319, 318
443, 427, 374, 425
444, 431, 388, 394
445, 395, 363, 387
446, 433, 395, 389
447, 368, 329, 328
448, 379, 328, 307
449, 369, 322, 321
450, 377, 321, 303
451, 378, 371, 325
452, 370, 305, 322
453, 371, 326, 325
454, 378, 325, 305
455, 398, 397, 346
456, 455, 454, 416
457, 373, 332, 309
458, 380, 373, 309
459, 374, 311, 310
460, 381, 374, 310
461, 442, 402, 441
462, 423, 422, 377
463, 376, 366, 312
464, 376, 311, 374
465, 463, 459, 422
466, 377, 369, 321
467, 449, 399, 445
468, 445, 397, 443
469, 379, 368, 328
470, 379, 307, 372
471, 380, 309, 329
472, 418, 368, 413
473, 381, 310, 332
474, 489, 473, 479
475, 382, 291, 100
476, 382, 100,   2
477, 383, 294,  15
478, 384, 383,  14
479, 384,  14,  13
480, 388, 314, 313
481, 432, 386, 385
482, 385, 295, 294
483, 430, 382, 386
484, 386, 382, 296
485, 389, 387, 343
486, 387, 363, 365
487, 394, 388, 366
488, 388, 383, 384
489, 392, 343, 340
490, 391, 340, 344
491, 466, 407, 465
492, 390, 339, 341
493, 436, 344, 393
494, 488, 441, 485
495, 392, 389, 343
496, 392, 340, 391
497, 393, 344, 315
498, 393, 339, 390
499, 428, 366, 376
500, 479, 474, 440
501, 395, 367, 297
502, 395, 297, 363
503, 396, 351, 356
504, 401, 356, 361
505, 397, 360, 346
506, 398, 346, 359
507, 400, 398, 359
508, 416, 372, 415
509, 420, 417, 378
510, 399, 353, 360
511, 400, 359, 351
512, 491, 490, 481
513, 408, 361, 345
514, 458, 418, 457
515, 402, 350, 347
516, 404, 347, 355
517, 421, 420, 370
518, 403, 358, 353
519, 405, 355, 358
520, 422, 421, 369
521, 450, 403, 449
522, 446, 441, 404
523, 465, 406, 442
524, 406, 354, 350
525, 501, 465, 499
526, 407, 352, 354
527, 411, 345, 362
528, 419, 373, 414
529, 409, 362, 357
530, 468, 357, 429
531, 470, 410, 466
532, 410, 349, 352
533, 411, 408, 345
534, 411, 362, 409
535, 412, 390, 348
536, 412, 349, 410
537, 413, 368, 379
538, 416, 379, 372
539, 414, 373, 380
540, 418, 414, 380
541, 415, 372, 371
542, 417, 371, 378
543, 483, 444, 480
544, 416, 413, 379
545, 420, 378, 370
546, 493, 482, 492
547, 418, 380, 368
548, 490, 480, 481
549, 439, 438, 408
550, 419, 381, 373
551, 421, 370, 369
552, 486, 445, 482
553, 422, 369, 377
554, 462, 461, 420
555, 423, 377, 375
556, 485, 446, 484
557, 424, 375, 364
558, 464, 463, 423
559, 426, 364, 367
560, 504, 500, 467
561, 502, 453, 409
562, 425, 374, 381
563, 433, 367, 395
564, 435, 433, 392
565, 505, 474, 476
566, 427, 376, 374
567, 428, 394, 366
568, 428, 376, 427
569, 429, 337, 338
570, 430, 429, 291
571, 430, 291, 382
572, 469, 386, 432
573, 431, 385, 294
574, 431, 294, 383
575, 502, 469, 471
576, 434, 385, 431
577, 433, 389, 392
578, 435, 392, 391
579, 434, 394, 428
580, 452, 427, 451
581, 472, 391, 436
582, 499, 442, 488
583, 436, 391, 344
584, 437, 436, 393
585, 437, 393, 390
586, 437, 412, 410
587, 438, 401, 408
588, 439, 408, 411
589, 453, 411, 409
590, 505, 475, 474
591, 440, 425, 419
592, 460, 419, 414
593, 441, 402, 404
594, 446, 404, 405
595, 467, 464, 424
596, 442, 406, 402
597, 443, 397, 398
598, 444, 398, 400
599, 447, 400, 396
600, 492, 483, 490
601, 461, 456, 417
602, 445, 399, 397
603, 450, 405, 403
604, 496, 485, 484
605, 448, 447, 396
606, 457, 413, 454
607, 448, 396, 401
608, 489, 478, 473
609, 487, 449, 486
610, 449, 403, 399
611, 462, 421, 459
612, 450, 446, 405
613, 503, 434, 452
614, 451, 427, 425
615, 452, 434, 428
616, 452, 428, 427
617, 453, 439, 411
618, 505, 502, 471
619, 454, 413, 416
620, 455, 416, 415
621, 456, 415, 417
622, 492, 482, 483
623, 461, 417, 420
624, 493, 486, 482
625, 481, 480, 447
626, 457, 418, 413
627, 491, 481, 478
628, 458, 414, 418
629, 459, 421, 422
630, 463, 422, 423
631, 460, 440, 419
632, 460, 414, 458
633, 462, 420, 421
634, 494, 487, 486
635, 496, 484, 495
636, 495, 484, 487
637, 464, 423, 424
638, 497, 488, 485
639, 467, 424, 426
640, 499, 488, 498
641, 501, 470, 466
642, 465, 407, 406
643, 470, 437, 410
644, 466, 410, 407
645, 477, 467, 426
646, 504, 501, 500
647, 468, 409, 357
648, 468, 429, 430
649, 469, 430, 386
650, 471, 469, 432
651, 472, 436, 470
652, 470, 436, 437
653, 503, 471, 432
654, 475, 452, 451
655, 501, 499, 500
656, 472, 435, 391
657, 473, 438, 439
658, 476, 473, 439
659, 479, 476, 474
660, 474, 451, 440
661, 503, 475, 471
662, 475, 451, 474
663, 476, 439, 453
664, 505, 476, 453
665, 477, 426, 433
666, 504, 435, 472
667, 478, 448, 438
668, 478, 438, 473
669, 479, 440, 460
670, 489, 479, 460
671, 480, 444, 447
672, 481, 447, 448
673, 481, 448, 478
674, 491, 478, 489
675, 482, 445, 443
676, 483, 482, 443
677, 483, 443, 444
678, 490, 483, 480
679, 484, 446, 450
680, 487, 450, 449
681, 497, 485, 496
682, 485, 441, 446
683, 494, 486, 493
684, 486, 449, 445
685, 495, 487, 494
686, 487, 484, 450
687, 498, 488, 497
688, 488, 442, 441
689, 489, 460, 458
690, 491, 489, 458
691, 490, 457, 454
692, 492, 490, 454
693, 491, 458, 457
694, 491, 457, 490
695, 492, 454, 455
696, 493, 492, 455
697, 493, 455, 456
698, 494, 493, 456
699, 494, 456, 461
700, 495, 494, 461
701, 495, 461, 462
702, 496, 495, 462
703, 496, 462, 459
704, 497, 496, 459
705, 497, 459, 463
706, 498, 497, 463
707, 498, 463, 464
708, 500, 498, 464
709, 500, 499, 498
710, 499, 465, 442
711, 500, 464, 467
712, 504, 467, 477
713, 501, 472, 470
714, 501, 466, 465
715, 502, 409, 468
716, 502, 468, 469
717, 503, 432, 434
718, 503, 452, 475
719, 504, 477, 435
720, 504, 472, 501
721, 505, 453, 502
722, 505, 471, 475
 723, 518,   9, 101
 724, 540, 140, 539
 725, 557, 511, 512
 726, 551, 150, 518
 727, 553,  28,  27
 728, 118,  10, 119
 729, 514, 118, 119
 730, 569, 116, 117
 731, 624, 569, 598
 732, 566, 521, 115
 733, 566, 115, 116
 734, 667, 634, 637
 735, 543, 137, 542
 736, 523, 112, 519
 737, 570, 519, 568
 738, 525, 109, 520
 739, 526, 108, 525
 740, 527, 107, 526
 741, 528, 106, 527
 742, 529, 105, 528
 743, 530, 104, 529
 744, 530, 103, 104
 745, 532, 101, 102
 746, 129, 128,  11
 747, 550, 129, 130
 748, 666, 648, 606
 749, 562, 559, 126
 750, 515, 513, 124
 751, 513, 123, 124
 752, 516, 123, 513
 753, 572, 568, 522
 754, 560, 121, 517
 755, 514, 119, 120
 756, 148,   4,  28
 757, 553, 533, 148
 758, 600, 553, 509
 759, 582, 534, 146
 760, 647, 600, 556
 761, 621, 575, 615
 762, 586, 537, 585
 763, 587, 538, 586
 764, 588, 539, 587
 765, 589, 540, 588
 766, 541, 139, 540
 767, 542, 138, 541
 768, 628, 627, 590
 769, 544, 136, 543
 770, 545, 135, 544
 771, 700, 698, 663
 772, 546, 134, 545
 773, 548, 132, 547
 774, 549, 131, 548
 775, 550, 130, 549
 776, 509,  27,  26
 777, 510,  25, 507
 778, 507,  25,  24
 779, 511,  24,  23
 780, 552, 508, 506
 781, 508,  21, 506
 782, 506,  21,   3
 783, 506,   3, 149
 784, 508,  22,  21
 785, 551, 149, 150
 786, 556, 509, 510
 787, 512,  22, 508
 788, 551, 506, 149
 789, 557, 512, 555
 790, 582, 147, 533
 791, 510, 509,  26
 792, 510,  26,  25
 793, 558, 507, 554
 794, 511, 507,  24
 795, 512, 511,  23
 796, 512,  23,  22
 797, 623, 571, 621
 798, 624, 566, 569
 799, 515, 124, 125
 800, 517, 122, 516
 801, 567, 118, 514
 802, 559, 125, 126
 803, 547, 133, 546
 804, 516, 122, 123
 805, 564, 563, 513
 806, 609, 517, 561
 807, 517, 121, 122
 808, 518, 150,   9
 809, 531, 103, 530
 810, 519, 112, 113
 811, 522, 113, 114
 812, 520, 109, 110
 813, 524, 110, 111
 814, 521, 114, 115
 815, 561, 517, 516
 816, 522, 519, 113
 817, 522, 114, 521
 818, 523, 111, 112
 819, 619, 614, 570
 820, 524, 520, 110
 821, 524, 111, 523
 822, 539, 141, 538
 823, 525, 108, 109
 824, 538, 142, 537
 825, 526, 107, 108
 826, 537, 143, 536
 827, 527, 106, 107
 828, 536, 144, 535
 829, 528, 105, 106
 830, 535, 145, 534
 831, 529, 104, 105
 832, 641, 552, 551
 833, 531, 102, 103
 834, 622, 574, 573
 835, 532, 102, 531
 836, 574, 531, 573
 837, 532, 518, 101
 838, 533, 147, 148
 839, 553, 148,  28
 840, 534, 145, 146
 841, 602, 556, 558
 842, 593, 535, 584
 843, 535, 144, 145
 844, 575, 571, 529
 845, 536, 143, 144
 846, 576, 575, 528
 847, 537, 142, 143
 848, 577, 576, 527
 849, 538, 141, 142
 850, 578, 577, 526
 851, 539, 140, 141
 852, 579, 578, 525
 853, 540, 139, 140
 854, 594, 541, 589
 855, 541, 138, 139
 856, 580, 579, 520
 857, 542, 137, 138
 858, 581, 523, 570
 859, 543, 136, 137
 860, 592, 543, 590
 861, 544, 135, 136
 862, 592, 544, 543
 863, 545, 134, 135
 864, 635, 591, 595
 865, 546, 133, 134
 866, 596, 546, 591
 867, 547, 132, 133
 868, 666, 599, 583
 869, 548, 131, 132
 870, 583, 549, 548
 871, 549, 130, 131
 872, 565, 128, 550
 873, 550, 128, 129
 874, 552, 506, 551
 875, 640, 518, 532
 876, 573, 530, 571
 877, 555, 508, 552
 878, 553,  27, 509
 879, 600, 509, 556
 880, 554, 507, 511
 881, 661, 623, 651
 882, 555, 512, 508
 883, 682, 622, 661
 884, 625, 582, 600
 885, 558, 556, 510
 886, 571, 530, 529
 887, 557, 554, 511
 888, 558, 510, 507
 889, 665, 625, 647
 890, 559, 515, 125
 891, 562, 126, 127
 892, 560, 514, 120
 893, 560, 120, 121
 894, 563, 516, 513
 895, 563, 561, 516
 896, 565, 562, 127
 897, 599, 550, 549
 898, 564, 513, 515
 899, 607, 563, 564
 900, 610, 515, 559
 901, 596, 547, 546
 902, 565, 127, 128
 903, 599, 565, 550
 904, 569, 117, 567
 905, 598, 567, 514
 906, 567, 117, 118
 907, 598, 514, 560
 908, 568, 519, 522
 909, 572, 522, 521
 910, 598, 569, 567
 911, 569, 566, 116
 912, 613, 612, 580
 913, 570, 523, 519
 914, 575, 529, 528
 915, 593, 585, 536
 916, 611, 521, 566
 917, 608, 563, 607
 918, 680, 640, 574
 919, 573, 531, 530
 920, 680, 622, 642
 921, 574, 532, 531
 922, 576, 528, 527
 923, 674, 673, 632
 924, 577, 527, 526
 925, 632, 631, 587
 926, 578, 526, 525
 927, 631, 630, 588
 928, 579, 525, 520
 929, 630, 629, 589
 930, 580, 520, 524
 931, 594, 590, 542
 932, 581, 580, 524
 933, 614, 613, 581
 934, 581, 524, 523
 935, 595, 544, 592
 936, 582, 146, 147
 937, 600, 582, 533
 938, 606, 562, 599
 939, 597, 548, 547
 940, 584, 535, 534
 941, 701, 665, 644
 942, 585, 537, 536
 943, 593, 536, 535
 944, 633, 632, 586
 945, 586, 538, 537
 946, 616, 615, 576
 947, 587, 539, 538
 948, 618, 578, 579
 949, 588, 540, 539
 950, 618, 579, 612
 951, 589, 541, 540
 952, 590, 543, 542
 953, 594, 542, 541
 954, 591, 546, 545
 955, 595, 545, 544
 956, 627, 626, 592
 957, 698, 692, 656
 958, 639, 636, 593
 959, 716, 713, 715
 960, 617, 616, 577
 961, 629, 628, 594
 962, 635, 595, 626
 963, 595, 591, 545
 964, 634, 597, 596
 965, 597, 547, 596
 966, 638, 597, 634
 967, 597, 583, 548
 968, 609, 598, 560
 969, 681, 660, 624
 970, 599, 562, 565
 971, 599, 549, 583
 972, 600, 533, 553
 973, 647, 625, 600
 974, 604, 555, 601
 975, 601, 555, 552
 976, 603, 558, 554
 977, 603, 602, 558
 978, 605, 554, 557
 979, 643, 604, 601
 980, 604, 557, 555
 981, 713, 711, 676
 982, 605, 603, 554
 983, 605, 557, 604
 984, 708, 688, 678
 985, 606, 559, 562
 986, 620, 619, 568
 987, 653, 564, 610
 988, 697, 660, 690
 989, 608, 561, 563
 990, 609, 560, 517
 991, 652, 561, 608
 992, 610, 564, 515
 993, 610, 559, 606
 994, 611, 572, 521
 995, 624, 611, 566
 996, 612, 579, 580
 997, 613, 580, 581
 998, 614, 581, 570
 999, 724, 720, 692
1000, 619, 570, 568
1001, 663, 656, 614
1002, 615, 575, 576
1003, 616, 576, 577
1004, 617, 577, 578
1005, 695, 654, 694
1006, 618, 617, 578
1007, 672, 671, 630
1008, 655, 654, 618
1009, 671, 670, 629
1010, 620, 568, 572
1011, 637, 591, 635
1012, 662, 572, 611
1013, 649, 608, 607
1014, 636, 633, 585
1015, 621, 571, 575
1016, 680, 642, 641
1017, 623, 622, 573
1018, 623, 573, 571
1019, 651, 621, 650
1020, 681, 598, 609
1021, 681, 652, 660
1022, 625, 584, 534
1023, 625, 534, 582
1024, 626, 595, 592
1025, 627, 592, 590
1026, 628, 590, 594
1027, 657, 613, 656
1028, 629, 594, 589
1029, 693, 657, 692
1030, 630, 589, 588
1031, 694, 655, 693
1032, 631, 588, 587
1033, 658, 617, 654
1034, 632, 587, 586
1035, 723, 695, 721
1036, 633, 586, 585
1037, 689, 686, 650
1038, 636, 585, 593
1039, 676, 674, 633
1040, 678, 638, 634
1041, 637, 596, 591
1042, 677, 675, 635
1043, 664, 663, 619
1044, 639, 593, 584
1045, 685, 646, 683
1046, 675, 667, 637
1047, 637, 634, 596
1048, 666, 638, 648
1049, 638, 583, 597
1050, 665, 584, 625
1051, 644, 602, 603
1052, 640, 551, 518
1053, 640, 532, 574
1054, 641, 601, 552
1055, 641, 551, 640
1056, 643, 601, 642
1057, 642, 601, 641
1058, 679, 676, 636
1059, 646, 604, 643
1060, 645, 603, 605
1061, 645, 644, 603
1062, 646, 645, 605
1063, 716, 711, 713
1064, 646, 605, 604
1065, 711, 707, 674
1066, 647, 556, 602
1067, 665, 647, 602
1068, 678, 648, 638
1069, 648, 610, 606
1070, 690, 660, 652
1071, 691, 653, 688
1072, 650, 621, 615
1073, 659, 615, 616
1074, 687, 651, 686
1075, 651, 623, 621
1076, 652, 609, 561
1077, 690, 608, 649
1078, 653, 607, 564
1079, 653, 610, 648
1080, 654, 617, 618
1081, 655, 618, 612
1082, 657, 612, 613
1083, 670, 669, 628
1084, 656, 613, 614
1085, 663, 614, 619
1086, 669, 668, 627
1087, 657, 655, 612
1088, 673, 672, 631
1089, 658, 616, 617
1090, 659, 650, 615
1091, 659, 616, 658
1092, 662, 611, 660
1093, 660, 611, 624
1094, 682, 642, 622
1095, 661, 622, 623
1096, 714, 690, 649
1097, 662, 620, 572
1098, 664, 619, 620
1099, 677, 626, 668
1100, 699, 620, 662
1101, 730, 729, 727
1102, 665, 602, 644
1103, 665, 639, 584
1104, 666, 606, 599
1105, 666, 583, 638
1106, 708, 678, 667
1107, 675, 637, 635
1108, 668, 626, 627
1109, 669, 627, 628
1110, 670, 628, 629
1111, 705, 670, 702
1112, 671, 629, 630
1113, 720, 704, 705
1114, 672, 630, 631
1115, 705, 704, 669
1116, 673, 631, 632
1117, 721, 702, 703
1118, 674, 632, 633
1119, 718, 706, 707
1120, 676, 633, 636
1121, 717, 707, 711
1122, 677, 635, 626
1123, 729, 714, 719
1124, 679, 636, 639
1125, 687, 682, 661
1126, 724, 710, 704
1127, 726, 712, 710
1128, 688, 648, 678
1129, 678, 634, 667
1130, 701, 679, 639
1131, 684, 644, 645
1132, 680, 641, 640
1133, 680, 574, 622
1134, 681, 624, 598
1135, 681, 609, 652
1136, 683, 643, 682
1137, 682, 643, 642
1138, 715, 713, 685
1139, 683, 646, 643
1140, 701, 684, 679
1141, 685, 684, 645
1142, 685, 645, 646
1143, 715, 683, 687
1144, 686, 651, 650
1145, 689, 650, 659
1146, 687, 683, 682
1147, 687, 661, 651
1148, 691, 607, 653
1149, 688, 653, 648
1150, 696, 659, 658
1151, 707, 706, 673
1152, 690, 652, 608
1153, 714, 697, 690
1154, 708, 691, 688
1155, 691, 649, 607
1156, 692, 657, 656
1157, 698, 656, 663
1158, 722, 693, 720
1159, 693, 655, 657
1160, 703, 702, 671
1161, 694, 654, 655
1162, 706, 703, 672
1163, 695, 658, 654
1164, 696, 689, 659
1165, 696, 658, 695
1166, 699, 662, 697
1167, 697, 662, 660
1168, 700, 663, 664
1169, 710, 668, 704
1170, 729, 728, 727
1171, 699, 664, 620
1172, 725, 664, 699
1173, 712, 677, 710
1174, 701, 639, 665
1175, 701, 644, 684
1176, 702, 670, 671
1177, 703, 671, 672
1178, 706, 672, 673
1179, 723, 703, 706
1180, 704, 668, 669
1181, 705, 669, 670
1182, 722, 721, 694
1183, 722, 702, 721
1184, 707, 673, 674
1185, 723, 706, 718
1186, 711, 674, 676
1187, 718, 707, 717
1188, 719, 691, 708
1189, 709, 708, 667
1190, 709, 667, 675
1191, 712, 675, 677
1192, 726, 724, 698
1193, 710, 677, 668
1194, 713, 676, 679
1195, 717, 711, 716
1196, 727, 712, 726
1197, 712, 709, 675
1198, 713, 679, 684
1199, 713, 684, 685
1200, 714, 699, 697
1201, 719, 714, 649
1202, 715, 685, 683
1203, 716, 715, 687
1204, 716, 687, 686
1205, 717, 716, 686
1206, 717, 686, 689
1207, 718, 717, 689
1208, 718, 689, 696
1209, 723, 721, 703
1210, 719, 649, 691
1211, 728, 708, 709
1212, 720, 693, 692
1213, 724, 692, 698
1214, 721, 695, 694
1215, 722, 694, 693
1216, 722, 720, 705
1217, 722, 705, 702
1218, 723, 718, 696
1219, 723, 696, 695
1220, 726, 698, 700
1221, 724, 704, 720
1222, 725, 700, 664
1223, 725, 699, 714
1224, 730, 726, 700
1225, 726, 710, 724
1226, 730, 727, 726
1227, 727, 709, 712
1228, 728, 719, 708
1229, 728, 709, 727
1230, 729, 725, 714
1231, 729, 719, 728
1232, 730, 700, 725
1233, 730, 725, 729
1234,  951,  194,  731
1235,  731,  118,  117
1236,  748,   92,  747
1237,  733,    8,   98
1238,  811,  746,  745
1239,  842,  786,  781
1240,  781,  115,  114
1241,  782,  113,  780
1242,  780,  113,  112
1243,  783,  111,  734
1244,  734,  111,  110
1245,  827,  181,  182
1246,  736,  109,  108
1247,  735,  734,  110
1248,  736,  735,  109
1249,  737,  736,  108
1250,  738,  737,  107
1251,  739,  738,  106
1252,  741,  740,  104
1253,  742,  741,  103
1254,  743,  742,  102
1255,  869,  744,  732
1256,  744,    9,  151
1257,   79,    7,  153
1258,  772,  153,  154
1259,  794,  771,  770
1260,  945,  872,  817
1261,  796,  768,  767
1262,  796,  795,  768
1263,  797,  796,  767
1264,  798,  797,  766
1265,  982,  923,  927
1266,  872,   86,   85
1267,  823,   88,   87
1268,  810,   89,   88
1269,  785,  738,  739
1270,  746,   90,  745
1271,  785,  784,  738
1272,  746,   91,   90
1273,  849,  790,  791
1274,  751,   95,  750
1275,  752,   96,  751
1276,  733,  732,  152
1277,  173,  172,   12
1278,  754,  172,  173
1279,  828,  777,  776
1280,  756,  170,  755
1281,  757,  169,  756
1282,  758,  168,  757
1283,  759,  167,  758
1284,  760,  166,  759
1285,  761,  165,  760
1286,  761,  164,  165
1287,  763,  163,  762
1288,  764,  162,  763
1289,  765,  161,  764
1290,  766,  160,  765
1291,  767,  159,  766
1292,  768,  158,  767
1293,  769,  157,  768
1294,  770,  156,  769
1295,  771,  155,  770
1296,  772,  154,  771
1297,  194,   10,  118
1298,  731,  194,  118
1299,  951,  887,  193
1300,  902,  731,  839
1301,  843,  782,  841
1302,  952,  192,  887
1303, 1067, 1060, 1020
1304,  783,  780,  112
1305,  914,  907,  852
1306,  891,  188,  189
1307, 1057, 1009, 1056
1308,  889,  187,  888
1309,  886,  185,  186
1310,  830,  183,  184
1311,  831,  182,  183
1312,  774,  180,  773
1313,  774,  179,  180
1314,  776,  178,  775
1315,  949,  893,  894
1316,  777,  177,  776
1317,  779,  175,  778
1318,  900,  173,  174
1319,  839,  116,  786
1320,  786,  115,  781
1321,  732,  151,  152
1322,  733,  152,    8
1323,  753,   98,   97
1324,  752,   97,   96
1325,  735,  110,  109
1326,  855,  803,  801
1327,  737,  108,  107
1328,  931,  854,  809
1329,  738,  107,  106
1330,  787,  737,  784
1331,  739,  106,  105
1332,  833,  774,  773
1333,  740,  105,  104
1334,  879,  825,  878
1335,  740,  739,  105
1336,  749,   93,  748
1337,  741,  104,  103
1338,  750,   94,  749
1339,  742,  103,  102
1340,  948,  884,  935
1341,  743,  102,  101
1342,  789,  742,  743
1343,  744,  743,  101
1344,  789,  788,  742
1345,  744,  101,    9
1346,  744,  151,  732
1347,  745,   90,   89
1348,  894,  893,  834
1349,  825,  746,  811
1350,  747,   91,  746
1351,  791,  740,  741
1352,  747,   92,   91
1353,  791,  790,  740
1354,  748,   93,   92
1355,  826,  751,  812
1356,  749,   94,   93
1357,  848,  791,  788
1358,  750,   95,   94
1359,  826,  816,  752
1360,  751,   96,   95
1361,  816,  753,  752
1362,  753,   97,  752
1363,  899,  733,  753
1364,  753,  733,   98
1365,  778,  176,  777
1366,  754,  171,  172
1367,  755,  170,  171
1368,  755,  171,  754
1369,  898,  827,  831
1370,  756,  169,  170
1371,  793,  736,  787
1372,  757,  168,  169
1373,  801,  757,  800
1374,  758,  167,  168
1375,  803,  758,  801
1376,  759,  166,  167
1377,  861,  802,  858
1378,  760,  165,  166
1379,  805,  761,  802
1380,  762,  164,  761
1381,  805,  762,  761
1382,  762,  163,  164
1383,  799,  798,  765
1384,  763,  162,  163
1385, 1019,  979, 1002
1386,  764,  161,  162
1387,  818,  817,   84
1388,  765,  160,  161
1389,  866,  795,  865
1390,  766,  159,  160
1391,  820,  819,   82
1392,  767,  158,  159
1393,  874,  838,  868
1394,  768,  157,  158
1395,  808,  770,  769
1396,  769,  156,  157
1397,  821,  820,   81
1398,  770,  155,  156
1399,  838,  771,  794
1400,  771,  154,  155
1401,  822,   79,  772
1402,  772,   79,  153
1403,  773,  180,  181
1404, 1241, 1143, 1141
1405,  834,  775,  774
1406,  775,  179,  774
1407,  896,  828,  895
1408,  775,  178,  179
1409,  809,  800,  756
1410,  776,  177,  178
1411,  900,  837,  754
1412,  777,  176,  177
1413,  832,  777,  828
1414,  778,  175,  176
1415,  900,  779,  837
1416,  779,  174,  175
1417,  953,  191,  952
1418,  783,  112,  111
1419,  964,  902,  901
1420,  782,  781,  114
1421,  782,  114,  113
1422,  841,  780,  840
1423,  852,  734,  792
1424,  840,  780,  783
1425,  784,  737,  738
1426,  947,  871,  885
1427,  790,  739,  740
1428,  880,  815,  879
1429,  901,  786,  842
1430,  786,  116,  115
1431,  924,  853,  855
1432,  787,  736,  737
1433,  791,  741,  788
1434,  788,  741,  742
1435,  869,  789,  743
1436,  963,  938,  899
1437,  963,  936,  938
1438,  790,  785,  739
1439,  936,  789,  869
1440,  812,  751,  750
1441,  792,  734,  735
1442,  793,  792,  735
1443,  793,  735,  736
1444,  847,  844,  787
1445,  795,  769,  768
1446,  819,  818,   83
1447,  797,  767,  766
1448,  818,   84,   83
1449,  798,  766,  765
1450,  945,  817,  873
1451,  799,  765,  764
1452,  862,  797,  798
1453,  807,  764,  763
1454,  863,  799,  859
1455,  806,  762,  805
1456,  885,  810,  823
1457,  800,  757,  756
1458,  809,  756,  755
1459,  845,  793,  844
1460,  801,  758,  757
1461,  802,  761,  760
1462,  804,  760,  759
1463,  803,  759,  758
1464,  895,  835,  893
1465,  804,  802,  760
1466,  804,  759,  803
1467,  919,  858,  918
1468,  806,  763,  762
1469,  859,  807,  857
1470,  980,  919,  978
1471,  807,  799,  764
1472,  807,  763,  806
1473,  808,  794,  770
1474,  808,  769,  795
1475,  837,  809,  755
1476,  836,  779,  778
1477,  810,  745,   89
1478,  823,   87,  813
1479,  850,  790,  849
1480,  871,  745,  810
1481,  824,  750,  749
1482,  814,  749,  748
1483,  813,   87,   86
1484,  864,  797,  862
1485,  815,  748,  747
1486,  815,  814,  748
1487,  825,  815,  747
1488,  995,  992,  934
1489,  938,  936,  869
1490,  826,  752,  751
1491,  817,   85,   84
1492,  865,  796,  864
1493,  819,   83,   82
1494,  979,  917,  926
1495,  820,   82,   81
1496,  867,  808,  866
1497,  821,   81,   80
1498, 1019, 1002,  942
1499,  822,  821,   80
1500,  838,  822,  772
1501,  822,   80,   79
1502,  838,  772,  771
1503,  937,  813,  872
1504,  823,  810,   88
1505,  824,  812,  750
1506,  824,  749,  814
1507,  825,  747,  746
1508,  878,  825,  811
1509, 1007,  963,  881
1510,  881,  816,  826
1511,  827,  773,  181
1512,  830,  184,  829
1513,  835,  776,  775
1514,  834,  774,  833
1515,  829,  184,  185
1516,  939,  829,  886
1517,  968,  905,  966
1518,  831,  183,  830
1519,  997,  890,  939
1520,  831,  827,  182
1521,  897,  836,  832
1522,  832,  778,  777
1523,  924,  918,  853
1524,  870,  773,  827
1525,  925,  924,  855
1526,  835,  775,  834
1527,  893,  835,  834
1528,  835,  828,  776
1529,  931,  837,  836
1530,  836,  778,  832
1531,  837,  755,  754
1532,  837,  779,  836
1533,  868,  794,  867
1534,  838,  821,  822
1535,  839,  731,  117
1536,  839,  117,  116
1537,  891,  888,  188
1538,  852,  840,  783
1539, 1028,  970, 1024
1540,  841,  782,  780
1541, 1015, 1013,  953
1542,  843,  842,  781
1543,  843,  781,  782
1544, 1013, 1000,  950
1545,  844,  793,  787
1546,  847,  787,  784
1547,  955,  889,  888
1548,  845,  792,  793
1549,  848,  788,  846
1550,  846,  788,  789
1551,  851,  784,  785
1552,  941,  940,  879
1553,  935,  882,  934
1554,  849,  791,  848
1555,  882,  814,  880
1556, 1025, 1022,  967
1557,  940,  934,  880
1558,  850,  785,  790
1559,  851,  847,  784
1560,  851,  785,  850
1561,  852,  783,  734
1562,  914,  792,  845
1563,  858,  804,  853
1564,  853,  804,  803
1565,  856,  800,  854
1566,  854,  800,  809
1567,  855,  853,  803
1568,  856,  855,  801
1569,  856,  801,  800
1570,  959,  895,  958
1571,  857,  807,  806
1572,  860,  806,  805
1573,  929,  861,  919
1574,  858,  802,  804
1575,  921,  863,  859
1576,  859,  799,  807
1577,  860,  857,  806
1578,  861,  860,  805
1579,  861,  805,  802
1580,  984,  918,  924
1581,  927,  863,  921
1582,  863,  862,  798
1583,  863,  798,  799
1584,  985,  982,  927
1585,  875,  818,  819
1586,  864,  796,  797
1587,  903,  868,  867
1588,  865,  795,  796
1589,  876,  875,  819
1590,  866,  808,  795
1591,  942,  876,  903
1592,  867,  794,  808
1593,  903,  876,  874
1594,  868,  838,  794
1595,  869,  743,  744
1596,  991,  936,  963
1597,  870,  833,  773
1598,  892,  830,  890
1599,  871,  811,  745
1600, 1017,  937,  945
1601,  872,  813,   86
1602,  872,   85,  817
1603,  873,  817,  818
1604, 1106, 1051, 1096
1605,  874,  820,  821
1606,  874,  821,  838
1607,  875,  873,  818
1608,  876,  819,  820
1609,  876,  820,  874
1610,  903,  874,  868
1611,  877,  823,  813
1612,  996,  877,  937
1613,  906,  905,  847
1614,  933,  811,  871
1615,  912,  906,  851
1616,  879,  815,  825
1617,  913,  912,  850
1618,  880,  814,  815
1619,  883,  826,  812
1620,  884,  824,  882
1621,  882,  824,  814
1622,  967,  966,  906
1623,  883,  881,  826
1624,  884,  883,  812
1625,  884,  812,  824
1626,  998,  935,  992
1627,  885,  871,  810
1628,  885,  823,  877
1629,  886,  829,  185
1630,  889,  186,  187
1631,  887,  192,  193
1632,  964,  901,  904
1633,  888,  187,  188
1634, 1000,  891,  950
1635,  908,  840,  907
1636,  889,  886,  186
1637,  890,  830,  829
1638,  909,  844,  905
1639,  950,  189,  190
1640,  965,  904,  911
1641,  961,  892,  956
1642,  892,  831,  830
1643,  894,  834,  833
1644,  932,  833,  870
1645,  962,  870,  898
1646, 1014,  958, 1008
1647,  928,  925,  856
1648,  895,  828,  835
1649,  957,  928,  897
1650,  896,  832,  828
1651,  931,  897,  854
1652,  897,  832,  896
1653,  898,  870,  827
1654,  898,  831,  892
1655,  899,  732,  733
1656,  899,  753,  816
1657,  900,  754,  173
1658,  900,  174,  779
1659,  901,  839,  786
1660,  904,  901,  842
1661,  951,  902,  887
1662,  902,  839,  901
1663,  917,  867,  866
1664,  917,  903,  867
1665,  911,  842,  843
1666,  910,  841,  908
1667,  905,  844,  847
1668,  906,  847,  851
1669,  912,  851,  850
1670,  992,  935,  934
1671,  907,  840,  852
1672,  975,  970,  914
1673,  972,  971,  910
1674,  908,  841,  840
1675, 1188, 1140, 1107
1676,  909,  845,  844
1677, 1098, 1020, 1060
1678,  910,  843,  841
1679,  911,  904,  842
1680,  911,  843,  910
1681,  913,  850,  849
1682,  934,  882,  880
1683,  916,  849,  848
1684, 1043,  915,  991
1685,  914,  852,  792
1686,  975,  845,  909
1687,  915,  848,  846
1688,  946,  881,  883
1689,  916,  913,  849
1690,  916,  848,  915
1691,  926,  866,  865
1692,  920,  865,  864
1693,  918,  858,  853
1694, 1018,  932,  962
1695,  989,  929,  980
1696,  919,  861,  858
1697,  923,  864,  862
1698, 1106, 1064, 1051
1699,  922,  859,  857
1700,  922,  921,  859
1701,  930,  857,  860
1702,  988,  986,  922
1703,  923,  920,  864
1704,  927,  923,  862
1705,  925,  855,  856
1706,  958,  893,  949
1707,  928,  856,  854
1708,  977,  928,  957
1709,  926,  917,  866
1710,  926,  865,  920
1711,  927,  862,  863
1712, 1025,  967,  974
1713,  928,  854,  897
1714,  957,  897,  896
1715,  929,  860,  861
1716, 1033,  978,  984
1717,  930,  922,  857
1718,  930,  860,  929
1719,  931,  809,  837
1720,  931,  836,  897
1721,  932,  894,  833
1722, 1108, 1062, 1101
1723,  933,  878,  811
1724, 1035,  983,  982
1725,  940,  880,  879
1726,  941,  879,  878
1727, 1005,  946,  948
1728,  935,  884,  882
1729,  936,  846,  789
1730,  938,  869,  732
1731,  937,  877,  813
1732,  999,  945,  873
1733,  938,  732,  899
1734,  963,  899,  816
1735,  939,  890,  829
1736,  960,  886,  889
1737,  994,  878,  933
1738,  967,  906,  912
1739, 1011,  933,  947
1740, 1070, 1069, 1022
1741,  943,  875,  942
1742,  942,  875,  876
1743,  943,  873,  875
1744, 1019,  942,  903
1745,  944,  885,  877
1746, 1048,  944,  996
1747,  945,  937,  872
1748,  999,  873,  943
1749, 1043,  991, 1007
1750,  948,  946,  883
1751,  947,  933,  871
1752,  947,  885,  944
1753,  948,  883,  884
1754, 1088, 1026,  969
1755,  987,  924,  925
1756,  993,  894,  932
1757,  950,  891,  189
1758,  953,  190,  191
1759,  951,  193,  194
1760,  951,  731,  902
1761,  952,  191,  192
1762, 1004,  964,  990
1763, 1021, 1020,  965
1764,  953,  950,  190
1765,  955,  888,  954
1766,  954,  888,  891
1767,  973,  907,  970
1768, 1052,  954, 1000
1769,  956,  892,  890
1770, 1086, 1039, 1079
1771,  959,  896,  895
1772,  958,  895,  893
1773, 1066,  993, 1018
1774,  984,  978,  918
1775,  977,  957,  959
1776,  959,  957,  896
1777,  960,  939,  886
1778,  960,  889,  955
1779, 1049,  956,  997
1780,  961,  898,  892
1781,  962,  932,  870
1782,  962,  898,  961
1783,  963,  816,  881
1784, 1007,  991,  963
1785, 1004,  902,  964
1786,  990,  904,  965
1787,  971,  911,  910
1788,  972,  910,  908
1789,  986,  985,  921
1790,  966,  905,  906
1791,  974,  912,  913
1792, 1114, 1111, 1070
1793, 1151, 1113, 1147
1794,  968,  909,  905
1795,  976,  916,  969
1796,  969,  916,  915
1797,  970,  907,  914
1798, 1030, 1024,  975
1799,  971,  965,  911
1800,  973,  908,  907
1801,  973,  972,  908
1802, 1068, 1067, 1021
1803, 1097, 1006, 1052
1804, 1029,  973, 1028
1805,  974,  967,  912
1806,  976,  974,  913
1807,  975,  914,  845
1808, 1030,  909,  968
1809,  976,  913,  916
1810, 1074, 1073, 1031
1811,  987,  925,  977
1812,  977,  925,  928
1813,  978,  919,  918
1814, 1033, 1032,  978
1815,  981,  926,  920
1816,  981,  979,  926
1817, 1137, 1108, 1101
1818,  980,  929,  919
1819,  983,  920,  923
1820, 1080, 1034, 1036
1821,  985,  927,  921
1822, 1171, 1139, 1168
1823,  983,  981,  920
1824,  983,  923,  982
1825,  987,  984,  924
1826, 1058,  977, 1014
1827,  986,  921,  922
1828, 1001,  995,  940
1829,  988,  922,  930
1830, 1161, 1117, 1128
1831, 1084, 1078, 1033
1832, 1008,  958,  949
1833,  989,  988,  930
1834, 1039,  980, 1032
1835,  989,  930,  929
1836, 1158, 1121, 1154
1837, 1015,  952, 1004
1838,  990,  964,  904
1839,  991,  915,  846
1840,  991,  846,  936
1841,  995,  934,  940
1842, 1001,  940,  941
1843,  993,  949,  894
1844, 1012,  961, 1010
1845,  994,  941,  878
1846, 1160, 1127, 1159
1847, 1046,  941,  994
1848, 1073, 1070, 1025
1849,  996,  944,  877
1850, 1096, 1002, 1034
1851,  997,  956,  890
1852, 1016,  939,  960
1853, 1053, 1005,  998
1854,  998,  948,  935
1855, 1051,  943, 1002
1856, 1034, 1002,  979
1857, 1000,  954,  891
1858, 1013,  950,  953
1859, 1061,  994, 1011
1860, 1131, 1054, 1094
1861, 1002,  943,  942
1862, 1034,  979,  981
1863, 1003,  947,  944
1864, 1146, 1123, 1136
1865, 1004,  952,  887
1866, 1004,  887,  902
1867, 1088, 1043, 1005
1868, 1005,  948,  998
1869, 1009,  955, 1006
1870, 1006,  955,  954
1871, 1007,  881,  946
1872, 1043, 1007,  946
1873, 1042, 1033,  984
1874, 1045,  949,  993
1875, 1115, 1071, 1113
1876, 1009,  960,  955
1877, 1010,  961,  956
1878, 1023,  966, 1022
1879, 1011,  994,  933
1880, 1011,  947, 1003
1881, 1144, 1078, 1084
1882, 1012,  962,  961
1883, 1015,  953,  952
1884, 1020,  990,  965
1885, 1014,  977,  959
1886, 1014,  959,  958
1887, 1015, 1004,  990
1888, 1098,  990, 1020
1889, 1016,  997,  939
1890, 1016,  960, 1009
1891, 1017,  996,  937
1892, 1017,  945,  999
1893, 1018,  993,  932
1894, 1018,  962, 1012
1895, 1019,  903,  917
1896, 1019,  917,  979
1897, 1098, 1060, 1013
1898, 1021,  965,  971
1899, 1027,  971,  972
1900, 1029,  972,  973
1901, 1085, 1038, 1081
1902, 1022,  966,  967
1903, 1103, 1065, 1057
1904, 1023,  968,  966
1905, 1024,  970,  975
1906, 1077, 1071, 1030
1907, 1031,  974,  976
1908, 1044,  992,  995
1909, 1026,  976,  969
1910, 1047,  992, 1044
1911, 1027, 1021,  971
1912, 1028,  973,  970
1913, 1072, 1024, 1071
1914, 1076, 1028, 1072
1915, 1076, 1075, 1029
1916, 1029, 1027,  972
1917, 1030,  975,  909
1918, 1077,  968, 1023
1919, 1031, 1025,  974
1920, 1031,  976, 1026
1921, 1032,  980,  978
1922, 1055, 1012, 1010
1923, 1042,  984,  987
1924, 1084, 1042, 1059
1925, 1036,  981,  983
1926, 1146, 1136, 1102
1927, 1037,  982,  985
1928, 1037, 1035,  982
1929, 1036, 1034,  981
1930, 1036,  983, 1035
1931, 1041,  985,  986
1932, 1104, 1046, 1061
1933, 1038,  986,  988
1934, 1040,  988,  989
1935, 1039,  989,  980
1936, 1101, 1062, 1055
1937, 1040, 1038,  988
1938, 1040,  989, 1039
1939, 1041, 1037,  985
1940, 1041,  986, 1038
1941, 1058, 1042,  987
1942, 1059, 1058, 1014
1943, 1043,  946, 1005
1944, 1043,  969,  915
1945, 1050,  995, 1001
1946, 1092, 1001, 1046
1947, 1045, 1008,  949
1948, 1062, 1012, 1055
1949, 1046, 1001,  941
1950, 1054, 1011, 1003
1951, 1089, 1047, 1044
1952, 1047,  998,  992
1953, 1048, 1003,  944
1954, 1063,  996, 1017
1955, 1049, 1010,  956
1956, 1065,  997, 1016
1957, 1133, 1092, 1104
1958, 1050, 1044,  995
1959, 1064,  999, 1051
1960, 1051,  999,  943
1961, 1052, 1006,  954
1962, 1060, 1052, 1000
1963, 1088, 1053, 1026
1964, 1053,  998, 1047
1965, 1094, 1003, 1048
1966, 1083, 1082, 1035
1967, 1093, 1010, 1049
1968, 1138, 1109, 1103
1969, 1211, 1169, 1192
1970, 1056, 1009, 1006
1971, 1065, 1016, 1057
1972, 1057, 1016, 1009
1973, 1058,  987,  977
1974, 1059, 1014, 1008
1975, 1059, 1042, 1058
1976, 1091, 1008, 1045
1977, 1060, 1000, 1013
1978, 1067, 1020, 1021
1979, 1061, 1046,  994
1980, 1061, 1011, 1054
1981, 1066, 1018, 1062
1982, 1062, 1018, 1012
1983, 1063, 1048,  996
1984, 1064, 1063, 1017
1985, 1064, 1017,  999
1986, 1106, 1102, 1064
1987, 1103, 1057, 1100
1988, 1065, 1049,  997
1989, 1084, 1033, 1042
1990, 1066, 1045,  993
1991, 1107, 1060, 1067
1992, 1068, 1021, 1027
1993, 1075, 1027, 1029
1994, 1149, 1112, 1120
1995, 1069, 1023, 1022
1996, 1070, 1022, 1025
1997, 1073, 1025, 1031
1998, 1117, 1074, 1095
1999, 1071, 1024, 1030
2000, 1116, 1113, 1077
2001, 1174, 1112, 1149
2002, 1072, 1028, 1024
2003, 1074, 1031, 1026
2004, 1117, 1114, 1073
2005, 1074, 1026, 1053
2006, 1095, 1053, 1047
2007, 1075, 1068, 1027
2008, 1076, 1029, 1028
2009, 1118, 1072, 1115
2010, 1153, 1115, 1151
2011, 1077, 1030,  968
2012, 1116, 1023, 1069
2013, 1079, 1032, 1078
2014, 1078, 1032, 1033
2015, 1121, 1079, 1119
2016, 1079, 1039, 1032
2017, 1082, 1036, 1035
2018, 1082, 1080, 1036
2019, 1081, 1038, 1040
2020, 1086, 1081, 1040
2021, 1083, 1035, 1037
2022, 1186, 1168, 1136
2023, 1087, 1037, 1041
2024, 1126, 1085, 1122
2025, 1091, 1059, 1008
2026, 1145, 1059, 1091
2027, 1085, 1041, 1038
2028, 1175, 1161, 1128
2029, 1086, 1040, 1039
2030, 1198, 1173, 1172
2031, 1087, 1083, 1037
2032, 1087, 1041, 1085
2033, 1088,  969, 1043
2034, 1088, 1005, 1053
2035, 1090, 1044, 1050
2036, 1090, 1089, 1044
2037, 1114, 1070, 1073
2038, 1129, 1050, 1092
2039, 1110, 1045, 1066
2040, 1108, 1066, 1062
2041, 1092, 1050, 1001
2042, 1104, 1061, 1099
2043, 1093, 1055, 1010
2044, 1109, 1049, 1065
2045, 1094, 1054, 1003
2046, 1105, 1048, 1063
2047, 1095, 1074, 1053
2048, 1095, 1047, 1089
2049, 1096, 1051, 1002
2050, 1096, 1034, 1080
2051, 1097, 1056, 1006
2052, 1107, 1097, 1052
2053, 1098, 1013, 1015
2054, 1098, 1015,  990
2055, 1099, 1061, 1054
2056, 1159, 1126, 1157
2057, 1100, 1057, 1056
2058, 1132, 1056, 1097
2059, 1130, 1055, 1093
2060, 1172, 1142, 1138
2061, 1102, 1063, 1064
2062, 1123, 1080, 1082
2063, 1192, 1135, 1165
2064, 1109, 1065, 1103
2065, 1134, 1133, 1104
2066, 1104, 1092, 1046
2067, 1105, 1094, 1048
2068, 1105, 1063, 1102
2069, 1106, 1096, 1080
2070, 1146, 1080, 1123
2071, 1107, 1052, 1060
2072, 1188, 1112, 1140
2073, 1141, 1108, 1137
2074, 1110, 1066, 1108
2075, 1138, 1103, 1135
2076, 1109, 1093, 1049
2077, 1145, 1143, 1144
2078, 1110, 1091, 1045
2079, 1124, 1086, 1121
2080, 1111, 1069, 1070
2081, 1112, 1068, 1075
2082, 1120, 1075, 1076
2083, 1113, 1071, 1077
2084, 1152, 1147, 1116
2085, 1117, 1073, 1074
2086, 1128, 1117, 1089
2087, 1211, 1203, 1181
2088, 1115, 1072, 1071
2089, 1116, 1077, 1023
2090, 1152, 1069, 1111
2091, 1117, 1095, 1089
2092, 1128, 1089, 1090
2093, 1180, 1151, 1178
2094, 1118, 1076, 1072
2095, 1119, 1079, 1078
2096, 1170, 1141, 1137
2097, 1120, 1112, 1075
2098, 1120, 1076, 1118
2099, 1162, 1128, 1090
2100, 1121, 1086, 1079
2101, 1122, 1085, 1081
2102, 1124, 1122, 1081
2103, 1125, 1082, 1083
2104, 1125, 1123, 1082
2105, 1124, 1081, 1086
2106, 1241, 1170, 1177
2107, 1127, 1083, 1087
2108, 1231, 1187, 1209
2109, 1126, 1087, 1085
2110, 1184, 1158, 1182
2111, 1127, 1125, 1083
2112, 1127, 1087, 1126
2113, 1161, 1148, 1114
2114, 1162, 1090, 1129
2115, 1129, 1090, 1050
2116, 1133, 1129, 1092
2117, 1130, 1101, 1055
2118, 1142, 1093, 1109
2119, 1131, 1099, 1054
2120, 1139, 1094, 1105
2121, 1132, 1100, 1056
2122, 1140, 1132, 1097
2123, 1134, 1104, 1099
2124, 1166, 1162, 1129
2125, 1164, 1099, 1131
2126, 1157, 1122, 1156
2127, 1135, 1103, 1100
2128, 1165, 1100, 1132
2129, 1136, 1105, 1102
2130, 1194, 1186, 1160
2131, 1163, 1101, 1130
2132, 1218, 1199, 1204
2133, 1201, 1176, 1199
2134, 1142, 1109, 1138
2135, 1139, 1131, 1094
2136, 1139, 1105, 1136
2137, 1140, 1097, 1107
2138, 1188, 1107, 1067
2139, 1150, 1144, 1143
2140, 1141, 1110, 1108
2141, 1218, 1204, 1217
2142, 1142, 1130, 1093
2143, 1143, 1091, 1110
2144, 1143, 1110, 1141
2145, 1144, 1119, 1078
2146, 1145, 1144, 1084
2147, 1145, 1084, 1059
2148, 1145, 1091, 1143
2149, 1146, 1102, 1106
2150, 1146, 1106, 1080
2151, 1147, 1113, 1116
2152, 1179, 1152, 1111
2153, 1189, 1162, 1166
2154, 1148, 1111, 1114
2155, 1203, 1174, 1149
2156, 1155, 1120, 1118
2157, 1154, 1119, 1150
2158, 1150, 1119, 1144
2159, 1203, 1192, 1165
2160, 1151, 1115, 1113
2161, 1152, 1116, 1069
2162, 1179, 1176, 1152
2163, 1181, 1155, 1153
2164, 1153, 1118, 1115
2165, 1182, 1154, 1177
2166, 1154, 1121, 1119
2167, 1155, 1149, 1120
2168, 1155, 1118, 1153
2169, 1156, 1122, 1124
2170, 1158, 1156, 1124
2171, 1231, 1214, 1196
2172, 1157, 1126, 1122
2173, 1158, 1124, 1121
2174, 1226, 1177, 1170
2175, 1185, 1157, 1183
2176, 1159, 1127, 1126
2177, 1186, 1136, 1123
2178, 1160, 1125, 1127
2179, 1161, 1114, 1117
2180, 1175, 1128, 1162
2181, 1166, 1129, 1133
2182, 1167, 1133, 1134
2183, 1163, 1137, 1101
2184, 1173, 1130, 1142
2185, 1164, 1134, 1099
2186, 1171, 1131, 1139
2187, 1165, 1135, 1100
2188, 1174, 1165, 1132
2189, 1167, 1166, 1133
2190, 1232, 1221, 1219
2191, 1190, 1134, 1164
2192, 1183, 1157, 1156
2193, 1168, 1139, 1136
2194, 1194, 1160, 1187
2195, 1172, 1138, 1169
2196, 1169, 1138, 1135
2197, 1241, 1177, 1150
2198, 1191, 1137, 1163
2199, 1187, 1159, 1185
2200, 1171, 1164, 1131
2201, 1178, 1147, 1176
2202, 1173, 1142, 1172
2203, 1198, 1172, 1195
2204, 1173, 1163, 1130
2205, 1174, 1132, 1140
2206, 1174, 1140, 1112
2207, 1175, 1148, 1161
2208, 1193, 1166, 1167
2209, 1176, 1147, 1152
2210, 1204, 1179, 1148
2211, 1177, 1154, 1150
2212, 1226, 1200, 1177
2213, 1202, 1178, 1201
2214, 1178, 1151, 1147
2215, 1179, 1111, 1148
2216, 1204, 1148, 1175
2217, 1205, 1181, 1180
2218, 1180, 1153, 1151
2219, 1211, 1181, 1205
2220, 1181, 1153, 1180
2221, 1207, 1182, 1200
2222, 1182, 1158, 1154
2223, 1239, 1238, 1237
2224, 1184, 1183, 1156
2225, 1184, 1156, 1158
2226, 1198, 1197, 1173
2227, 1208, 1183, 1206
2228, 1185, 1159, 1157
2229, 1186, 1123, 1125
2230, 1186, 1125, 1160
2231, 1209, 1185, 1208
2232, 1187, 1160, 1159
2233, 1188, 1067, 1068
2234, 1188, 1068, 1112
2235, 1189, 1175, 1162
2236, 1193, 1189, 1166
2237, 1190, 1167, 1134
2238, 1196, 1164, 1171
2239, 1191, 1170, 1137
2240, 1197, 1163, 1173
2241, 1192, 1169, 1135
2242, 1203, 1165, 1174
2243, 1210, 1167, 1190
2244, 1206, 1183, 1184
2245, 1194, 1171, 1168
2246, 1194, 1168, 1186
2247, 1218, 1217, 1212
2248, 1195, 1172, 1169
2249, 1196, 1190, 1164
2250, 1196, 1171, 1194
2251, 1220, 1200, 1216
2252, 1197, 1191, 1163
2253, 1236, 1220, 1230
2254, 1215, 1198, 1213
2255, 1199, 1176, 1179
2256, 1204, 1199, 1179
2257, 1200, 1182, 1177
2258, 1216, 1191, 1197
2259, 1221, 1201, 1219
2260, 1201, 1178, 1176
2261, 1235, 1222, 1233
2262, 1202, 1180, 1178
2263, 1203, 1149, 1155
2264, 1203, 1155, 1181
2265, 1217, 1175, 1189
2266, 1212, 1189, 1193
2267, 1235, 1205, 1222
2268, 1205, 1180, 1202
2269, 1239, 1234, 1238
2270, 1207, 1206, 1184
2271, 1207, 1184, 1182
2272, 1235, 1233, 1213
2273, 1224, 1206, 1223
2274, 1208, 1185, 1183
2275, 1231, 1209, 1214
2276, 1209, 1187, 1185
2277, 1210, 1193, 1167
2278, 1214, 1210, 1190
2279, 1211, 1195, 1169
2280, 1211, 1192, 1203
2281, 1227, 1193, 1210
2282, 1240, 1236, 1229
2283, 1213, 1198, 1195
2284, 1235, 1211, 1205
2285, 1214, 1190, 1196
2286, 1225, 1209, 1208
2287, 1230, 1216, 1215
2288, 1215, 1197, 1198
2289, 1226, 1216, 1200
2290, 1216, 1197, 1215
2291, 1217, 1204, 1175
2292, 1217, 1189, 1212
2293, 1219, 1199, 1218
2294, 1239, 1224, 1234
2295, 1240, 1232, 1238
2296, 1219, 1201, 1199
2297, 1223, 1207, 1220
2298, 1220, 1207, 1200
2299, 1233, 1229, 1213
2300, 1221, 1202, 1201
2301, 1222, 1205, 1202
2302, 1222, 1202, 1221
2303, 1237, 1212, 1227
2304, 1223, 1206, 1207
2305, 1228, 1214, 1225
2306, 1224, 1208, 1206
2307, 1225, 1214, 1209
2308, 1225, 1208, 1224
2309, 1226, 1170, 1191
2310, 1226, 1191, 1216
2311, 1227, 1212, 1193
2312, 1228, 1227, 1210
2313, 1228, 1210, 1214
2314, 1239, 1225, 1224
2315, 1236, 1234, 1223
2316, 1229, 1215, 1213
2317, 1230, 1220, 1216
2318, 1230, 1215, 1229
2319, 1231, 1196, 1194
2320, 1231, 1194, 1187
2321, 1232, 1219, 1218
2322, 1237, 1232, 1218
2323, 1233, 1222, 1221
2324, 1240, 1221, 1232
2325, 1234, 1224, 1223
2326, 1236, 1223, 1220
2327, 1235, 1213, 1195
2328, 1235, 1195, 1211
2329, 1236, 1230, 1229
2330, 1240, 1238, 1236
2331, 1237, 1218, 1212
2332, 1239, 1237, 1227
2333, 1238, 1234, 1236
2334, 1238, 1232, 1237
2335, 1239, 1227, 1228
2336, 1239, 1228, 1225
2337, 1240, 1229, 1233
2338, 1240, 1233, 1221
2339, 1241, 1150, 1143
2340, 1241, 1141, 1170
*Orientation, name=Ori-1
1., 0., 0., 0., 1., 0.
3, 0.
** Region: (CompositeLayup-1-1: Generated From Layup)
*Elset, elset=CompositeLayup-1-1, generate
    1,  2340,     1
** Section: CompositeLayup-1-1
*Shell Section, elset=CompositeLayup-1-1, composite, orientation=Ori-1, layup=CompositeLayup-1, symmetric
0.25, 3, CFRP, 0., Ply-1
0.25, 3, CFRP, 45., Ply-2
0.25, 3, CFRP, 90., Ply-3
0.25, 3, CFRP, -45., Ply-4
*End Part
**  
**
** ASSEMBLY
**
*Assembly, name=Assembly
**  
*Instance, name=Plate-1, part=PLATE
*End Instance
**  
*Nset, nset=Set-1, instance=Plate-1
   6,   7,  12,  70,  71,  72,  73,  74,  75,  76,  77,  78, 153, 154, 155, 156
 157, 158, 159, 160, 161, 162, 163, 164, 165, 166, 167, 168, 169, 170, 171, 172
*Elset, elset=Set-1, instance=Plate-1
  242,  243,  264,  268,  342,  344,  346,  348,  389,  395, 1257, 1258, 1277, 1286, 1366, 1367
 1370, 1372, 1374, 1376, 1378, 1382, 1384, 1386, 1388, 1390, 1392, 1394, 1396, 1398, 1400
*Nset, nset=Set-2, instance=Plate-1
   4,   5,  11,  29,  30,  31,  32,  33,  34,  35,  36,  37, 129, 130, 131, 132
 133, 134, 135, 136, 137, 138, 139, 140, 141, 142, 143, 144, 145, 146, 147, 148
*Elset, elset=Set-2, instance=Plate-1
  12,  13,  20,  58,  59,  62,  64,  66,  68,  70, 746, 747, 756, 838, 840, 843
 845, 847, 849, 851, 853, 855, 857, 859, 861, 863, 865, 867, 869, 871, 936
*End Assembly
** 
** MATERIALS
** 
*Material, name=CFRP
*Elastic, type=ENGINEERING CONSTANTS
150000.,9000.,9000., 0.34, 0.34,  0.4,5000.,5000.
5000.,
** ----------------------------------------------------------------
** 
** STEP: Step-1
** 
*Step, name=Step-1, nlgeom=NO
*Static
1., 1., 1e-05, 1.
** 
** BOUNDARY CONDITIONS
** 
** Name: BC-1 Type: Symmetry/Antisymmetry/Encastre
*Boundary
Set-1, ENCASTRE
** Name: DISPLACEMENT Type: Displacement/Rotation
*Boundary
Set-2, 1, 1, 1.57895
** 
** OUTPUT REQUESTS
** 
*Restart, write, frequency=0
** 
** FIELD OUTPUT: F-Output-1
** 
*Output, field
*Element Output, position=NODES, directions=YES
E, 
** 
** HISTORY OUTPUT: H-Output-1
** 
*Output, history, variable=PRESELECT
*End Step
