*Heading
 Elastic fabric composite plate with hole
** Job name: Plate_85 Model name: Model-1
** Generated by: Abaqus/CAE 2024.HF3
*Preprint, echo=NO, model=NO, history=NO, contact=NO
**
** PARTS
**
*Part, name=PLATE
*Node
      1,   67.1895599,    121.23391,           0.
      2,   67.1895599,   56.2706833,           0.
      3,   79.0078125,   44.4524345,           0.
      4,   183.244263,   44.4524345,           0.
      5,   183.244263,    121.23391,           0.
      6,           0.,    121.23391,           0.
      7,           0.,   44.4524345,           0.
      8,    55.371315,   44.4524345,           0.
      9,   67.1895599,   32.6341858,           0.
     10,   67.1895599,           0.,           0.
     11,   183.244263,           0.,           0.
     12,           0.,           0.,           0.
     13,   67.1895599,   116.593681,           0.
     14,   67.1895599,   111.953453,           0.
     15,   67.1895599,   107.313217,           0.
     16,   67.1895599,   102.672989,           0.
     17,   67.1895599,   98.0327606,           0.
     18,   67.1895599,   93.3925247,           0.
     19,   67.1895599,   88.7522964,           0.
     20,   67.1895599,   84.1120682,           0.
     21,   67.1895599,   79.4718399,           0.
     22,   67.1895599,    74.831604,           0.
     23,   67.1895599,   70.1913757,           0.
     24,   67.1895599,   65.5511475,           0.
     25,   67.1895599,   60.9109154,           0.
     26,   71.7122116,   55.3710747,           0.
     27,   75.5463257,   52.8092003,           0.
     28,   78.1082001,   48.9750824,           0.
     29,   83.7458344,   44.4524345,           0.
     30,   88.4838562,   44.4524345,           0.
     31,   93.2218781,   44.4524345,           0.
     32,   97.9598923,   44.4524345,           0.
     33,   102.697914,   44.4524345,           0.
     34,   107.435936,   44.4524345,           0.
     35,   112.173958,   44.4524345,           0.
     36,    116.91198,   44.4524345,           0.
     37,   121.649994,   44.4524345,           0.
     38,   126.388016,   44.4524345,           0.
     39,   131.126038,   44.4524345,           0.
     40,   135.864059,   44.4524345,           0.
     41,   140.602081,   44.4524345,           0.
     42,   145.340103,   44.4524345,           0.
     43,   150.078125,   44.4524345,           0.
     44,   154.816147,   44.4524345,           0.
     45,   159.554169,   44.4524345,           0.
     46,   164.292175,   44.4524345,           0.
     47,   169.030197,   44.4524345,           0.
     48,   173.768219,   44.4524345,           0.
     49,   178.506241,   44.4524345,           0.
     50,   183.244263,   49.2512779,           0.
     51,   183.244263,   54.0501175,           0.
     52,   183.244263,   58.8489609,           0.
     53,   183.244263,   63.6478043,           0.
     54,   183.244263,   68.4466476,           0.
     55,   183.244263,    73.245491,           0.
     56,   183.244263,   78.0443268,           0.
     57,   183.244263,   82.8431702,           0.
     58,   183.244263,   87.6420135,           0.
     59,   183.244263,   92.4408569,           0.
     60,   183.244263,   97.2397003,           0.
     61,   183.244263,   102.038544,           0.
     62,   183.244263,   106.837387,           0.
     63,   183.244263,   111.636223,           0.
     64,   183.244263,   116.435066,           0.
     65,   178.602081,    121.23391,           0.
     66,   173.959885,    121.23391,           0.
     67,   169.317703,    121.23391,           0.
     68,   164.675507,    121.23391,           0.
     69,   160.033325,    121.23391,           0.
     70,   155.391129,    121.23391,           0.
     71,   150.748947,    121.23391,           0.
     72,   146.106766,    121.23391,           0.
     73,   141.464569,    121.23391,           0.
     74,   136.822388,    121.23391,           0.
     75,   132.180191,    121.23391,           0.
     76,    127.53801,    121.23391,           0.
     77,   122.895821,    121.23391,           0.
     78,   118.253632,    121.23391,           0.
     79,   113.611443,    121.23391,           0.
     80,   108.969254,    121.23391,           0.
     81,   104.327065,    121.23391,           0.
     82,   99.6848831,    121.23391,           0.
     83,   95.0426941,    121.23391,           0.
     84,   90.4005051,    121.23391,           0.
     85,    85.758316,    121.23391,           0.
     86,    81.116127,    121.23391,           0.
     87,    76.473938,    121.23391,           0.
     88,    71.831749,    121.23391,           0.
     89,   62.3903084,    121.23391,           0.
     90,    57.591053,    121.23391,           0.
     91,   52.7918015,    121.23391,           0.
     92,   47.9925461,    121.23391,           0.
     93,   43.1932907,    121.23391,           0.
     94,   38.3940353,    121.23391,           0.
     95,     33.59478,    121.23391,           0.
     96,   28.7955265,    121.23391,           0.
     97,    23.996273,    121.23391,           0.
     98,   19.1970177,    121.23391,           0.
     99,   14.3977633,    121.23391,           0.
    100,   9.59850883,    121.23391,           0.
    101,   4.79925442,    121.23391,           0.
    102,           0.,   116.435066,           0.
    103,           0.,   111.636223,           0.
    104,           0.,   106.837387,           0.
    105,           0.,   102.038544,           0.
    106,           0.,   97.2397003,           0.
    107,           0.,   92.4408569,           0.
    108,           0.,   87.6420135,           0.
    109,           0.,   82.8431702,           0.
    110,           0.,   78.0443268,           0.
    111,           0.,    73.245491,           0.
    112,           0.,   68.4466476,           0.
    113,           0.,   63.6478043,           0.
    114,           0.,   58.8489609,           0.
    115,           0.,   54.0501175,           0.
    116,           0.,   49.2512779,           0.
    117,   4.61427593,   44.4524345,           0.
    118,   9.22855186,   44.4524345,           0.
    119,   13.8428288,   44.4524345,           0.
    120,   18.4571037,   44.4524345,           0.
    121,   23.0713806,   44.4524345,           0.
    122,   27.6856575,   44.4524345,           0.
    123,   32.2999344,   44.4524345,           0.
    124,   36.9142075,   44.4524345,           0.
    125,   41.5284843,   44.4524345,           0.
    126,   46.1427612,   44.4524345,           0.
    127,   50.7570381,   44.4524345,           0.
    128,   56.2709236,   48.9750824,           0.
    129,    58.832798,   52.8092003,           0.
    130,   62.6669159,   55.3710747,           0.
    131,   67.1895599,   27.9721584,           0.
    132,   67.1895599,   23.3101311,           0.
    133,   67.1895599,   18.6481056,           0.
    134,   67.1895599,   13.9860792,           0.
    135,   67.1895599,   9.32405281,           0.
    136,   67.1895599,   4.66202641,           0.
    137,    71.831749,           0.,           0.
    138,    76.473938,           0.,           0.
    139,    81.116127,           0.,           0.
    140,    85.758316,           0.,           0.
    141,   90.4005051,           0.,           0.
    142,   95.0426941,           0.,           0.
    143,   99.6848831,           0.,           0.
    144,   104.327065,           0.,           0.
    145,   108.969254,           0.,           0.
    146,   113.611443,           0.,           0.
    147,   118.253632,           0.,           0.
    148,   122.895821,           0.,           0.
    149,    127.53801,           0.,           0.
    150,   132.180191,           0.,           0.
    151,   136.822388,           0.,           0.
    152,   141.464569,           0.,           0.
    153,   146.106766,           0.,           0.
    154,   150.748947,           0.,           0.
    155,   155.391129,           0.,           0.
    156,   160.033325,           0.,           0.
    157,   164.675507,           0.,           0.
    158,   169.317703,           0.,           0.
    159,   173.959885,           0.,           0.
    160,   178.602081,           0.,           0.
    161,   183.244263,   4.44524336,           0.
    162,   183.244263,   8.89048672,           0.
    163,   183.244263,   13.3357306,           0.
    164,   183.244263,   17.7809734,           0.
    165,   183.244263,   22.2262173,           0.
    166,   183.244263,   26.6714611,           0.
    167,   183.244263,    31.116703,           0.
    168,   183.244263,   35.5619469,           0.
    169,   183.244263,   40.0071907,           0.
    170,   78.1082001,   39.9297867,           0.
    171,   75.5463257,   36.0956688,           0.
    172,   71.7122116,   33.5337944,           0.
    173,   62.6669159,   33.5337944,           0.
    174,    58.832798,   36.0956688,           0.
    175,   56.2709236,   39.9297867,           0.
    176,           0.,   40.0071907,           0.
    177,           0.,   35.5619469,           0.
    178,           0.,    31.116703,           0.
    179,           0.,   26.6714611,           0.
    180,           0.,   22.2262173,           0.
    181,           0.,   17.7809734,           0.
    182,           0.,   13.3357306,           0.
    183,           0.,   8.89048672,           0.
    184,           0.,   4.44524336,           0.
    185,   4.79925442,           0.,           0.
    186,   9.59850883,           0.,           0.
    187,   14.3977633,           0.,           0.
    188,   19.1970177,           0.,           0.
    189,    23.996273,           0.,           0.
    190,   28.7955265,           0.,           0.
    191,     33.59478,           0.,           0.
    192,   38.3940353,           0.,           0.
    193,   43.1932907,           0.,           0.
    194,   47.9925461,           0.,           0.
    195,   52.7918015,           0.,           0.
    196,    57.591053,           0.,           0.
    197,   62.3903084,           0.,           0.
    198,   128.756989,   48.5529785,           0.
    199,   71.3983765,   115.014153,           0.
    200,   71.2104492,   86.4332123,           0.
    201,   71.2112808,   81.7925797,           0.
    202,   71.2114258,   77.1516876,           0.
    203,    71.210556,   72.5111313,           0.
    204,   75.5019379,    56.946022,           0.
    205,   71.1583862,   67.9134369,           0.
    206,   71.1927643,   63.3744774,           0.
    207,   71.3488159,   59.0133781,           0.
    208,   79.6733856,   53.8904228,           0.
    209,   147.708755,   48.5559807,           0.
    210,   142.970795,   48.5547447,           0.
    211,    138.23291,   48.5537605,           0.
    212,   133.494934,   48.5529213,           0.
    213,    124.01899,    48.552681,           0.
    214,   119.280952,   48.5524902,           0.
    215,   114.542839,   48.5520363,           0.
    216,   109.804726,   48.5512543,           0.
    217,   105.066589,   48.5499573,           0.
    218,     100.3284,   48.5480385,           0.
    219,   95.5969162,   48.5539856,           0.
    220,   90.9498978,   48.6613731,           0.
    221,   86.3751526,   48.8162727,           0.
    222,   179.096329,    85.240715,           0.
    223,   179.095566,   80.4428177,           0.
    224,   179.095108,   75.6447601,           0.
    225,   179.095016,   70.8459091,           0.
    226,   179.090302,   66.0379028,           0.
    227,   179.018768,   61.1134262,           0.
    228,   178.878479,    56.043354,           0.
    229,   178.888535,   50.8222466,           0.
    230,   88.0754089,   117.212326,           0.
    231,   92.7207336,   117.212646,           0.
    232,   97.3634796,   117.212044,           0.
    233,   102.005829,   117.211372,           0.
    234,   106.648094,   117.210968,           0.
    235,   111.290321,   117.210762,           0.
    236,   115.932526,   117.210678,           0.
    237,   120.574722,   117.210632,           0.
    238,   125.216904,   117.210587,           0.
    239,   129.859085,   117.210571,           0.
    240,   134.501205,   117.210175,           0.
    241,   139.143265,   117.209549,           0.
    242,   143.785339,   117.208359,           0.
    243,   148.427505,   117.206772,           0.
    244,   153.069504,   117.204544,           0.
    245,   157.711395,   117.201561,           0.
    246,    162.36113,   117.189308,           0.
    247,   167.110764,   117.079002,           0.
    248,   171.995422,   116.880638,           0.
    249,   177.049393,   116.836998,           0.
    250,   81.8950882,   48.9735565,           0.
    251,    75.196785,   70.2234879,           0.
    252,    75.234848,   84.1147308,           0.
    253,   75.2294006,   74.8381805,           0.
    254,   71.2167206,   95.7144318,           0.
    255,   71.2112045,   91.0737534,           0.
    256,   75.2354431,   79.4740677,           0.
    257,   75.2280273,   65.7093964,           0.
    258,   83.4218826,   117.222122,           0.
    259,    160.03894,   113.144974,           0.
    260,   141.463181,   113.179924,           0.
    261,   150.746552,   113.171631,           0.
    262,   169.594208,   112.855347,           0.
    263,   127.537933,   113.184608,           0.
    264,   90.3908768,   113.190353,           0.
    265,   108.969078,   113.185349,           0.
    266,   132.179901,   113.183693,           0.
    267,   99.6840363,    113.18763,           0.
    268,   118.253593,   113.184937,           0.
    269,   74.8929672,   117.513466,           0.
    270,   78.7963104,   117.188705,           0.
    271,   164.793793,   113.048645,           0.
    272,   155.388916,   113.161499,           0.
    273,   104.326553,   113.185783,           0.
    274,   113.611351,    113.18454,           0.
    275,   122.895767,   113.184311,           0.
    276,   95.0398254,    113.18911,           0.
    277,   136.821503,    113.18174,           0.
    278,   146.104614,   113.175339,           0.
    279,   152.446716,   48.5575829,           0.
    280,   157.184769,   48.5594597,           0.
    281,   107.434479,   52.6448631,           0.
    282,   97.9718399,   52.6494026,           0.
    283,     88.79776,   52.8871918,           0.
    284,   166.638229,   48.5423622,           0.
    285,   175.322586,   48.2376785,           0.
    286,   116.911499,   52.6492004,           0.
    287,   126.387856,    52.650589,           0.
    288,   140.600861,   52.6544266,           0.
    289,   145.338058,   52.6575165,           0.
    290,   161.919052,   48.5579453,           0.
    291,   135.863312,   52.6520958,           0.
    292,   102.697952,   52.6422348,           0.
    293,   93.3347778,   52.7178802,           0.
    294,   171.312286,   48.5575943,           0.
    295,   112.172844,   52.6466942,           0.
    296,   121.649773,   52.6495667,           0.
    297,    131.12561,   52.6505775,           0.
    298,    179.09906,   90.0399551,           0.
    299,   174.798706,   58.5218048,           0.
    300,   174.944092,   68.4338074,           0.
    301,   179.105591,   99.6399307,           0.
    302,   174.951584,   78.0427933,           0.
    303,   179.154602,   104.424347,           0.
    304,   174.950607,   73.2431259,           0.
    305,   179.102112,    94.839859,           0.
    306,   174.954803,   82.8399734,           0.
    307,   174.904785,   63.4974861,           0.
    308,   179.208969,   109.167732,           0.
    309,   179.526062,   113.234718,           0.
    310,   75.3156052,   61.3000374,           0.
    311,   76.0525742,   112.831139,           0.
    312,   174.178253,   53.0541496,           0.
    313,   174.862686,   112.126366,           0.
    314,    79.434021,   58.9797935,           0.
    315,   79.3251419,   63.4188042,           0.
    316,   84.3801575,   53.1028214,           0.
    317,   75.2516479,   93.3953018,           0.
    318,   71.2632828,   100.360191,           0.
    319,    71.363884,   105.079239,           0.
    320,   79.2894363,   77.1356125,           0.
    321,   79.3110199,   67.8042297,           0.
    322,   79.2722549,   81.7906799,           0.
    323,   79.4251251,   72.3800049,           0.
    324,   75.2368622,   88.7558441,           0.
    325,   81.0977936,   113.190247,           0.
    326,   120.574577,   109.155357,           0.
    327,    115.93235,   109.155243,           0.
    328,   125.216667,   109.154724,           0.
    329,   129.858398,   109.153717,           0.
    330,   134.499496,   109.151505,           0.
    331,    111.28994,   109.155693,           0.
    332,   106.647141,   109.156998,           0.
    333,   102.003868,    109.15937,           0.
    334,   92.7106857,   109.171364,           0.
    335,   97.3588943,   109.163391,           0.
    336,   148.421234,     109.1343,           0.
    337,    139.14006,   109.147575,           0.
    338,   143.780228,   109.140732,           0.
    339,   153.061264,   109.123047,           0.
    340,   157.703278,   109.105019,           0.
    341,     162.4702,   109.029144,           0.
    342,   167.273102,   108.912155,           0.
    343,    85.726532,   113.195747,           0.
    344,    150.07576,   52.6618042,           0.
    345,   154.813995,   52.6665001,           0.
    346,   164.260666,   52.8275986,           0.
    347,   159.523392,   52.7108727,           0.
    348,   124.018463,    56.744339,           0.
    349,   119.279884,   56.7425995,           0.
    350,   169.025467,   52.8635941,           0.
    351,   128.756271,   56.7448654,           0.
    352,   138.229858,   56.7500038,           0.
    353,    133.49324,   56.7462997,           0.
    354,   114.540665,   56.7397728,           0.
    355,   105.062737,   56.7310448,           0.
    356,   142.965714,   56.7553291,           0.
    357,   109.801239,   56.7353859,           0.
    358,   100.336876,   56.7302666,           0.
    359,   91.1098862,   56.8618011,           0.
    360,   95.6771545,   56.7637444,           0.
    361,   174.959991,   87.6388855,           0.
    362,   174.982376,   97.2057724,           0.
    363,   175.004623,   106.900215,           0.
    364,   174.900253,   102.038124,           0.
    365,    170.81424,   75.6427002,           0.
    366,     170.8116,    70.840744,           0.
    367,   170.821136,    65.886795,           0.
    368,   170.819077,   80.4401016,           0.
    369,   170.851059,   60.8950806,           0.
    370,   174.969894,    92.428688,           0.
    371,   83.7966766,   61.1273613,           0.
    372,   86.6396255,   56.9753609,           0.
    373,   79.2811813,   91.0785446,           0.
    374,   83.9325333,   69.6724548,           0.
    375,   155.369034,   105.060501,           0.
    376,   75.5992432,   102.754738,           0.
    377,   160.147949,   104.868553,           0.
    378,   71.4797363,   109.951385,           0.
    379,   75.3798981,    98.038559,           0.
    380,   150.731339,   105.078773,           0.
    381,    136.81662,   105.112984,           0.
    382,    141.45517,   105.104462,           0.
    383,   95.0200729,   105.131355,           0.
    384,   164.997665,   104.795525,           0.
    385,   83.3731308,   109.272758,           0.
    386,    127.53672,   105.120155,           0.
    387,    122.89521,   105.121071,           0.
    388,    132.17691,   105.116501,           0.
    389,   118.253174,   105.121552,           0.
    390,   83.3882828,   74.8153229,           0.
    391,   113.610672,   105.122253,           0.
    392,   108.967415,   105.124008,           0.
    393,   104.323257,   105.127274,           0.
    394,   79.2675476,   86.4378052,           0.
    395,   99.6757278,   105.130951,           0.
    396,   146.093079,   105.092308,           0.
    397,   88.0501328,   109.220375,           0.
    398,   83.3155136,   79.4834137,           0.
    399,   171.399353,   109.078644,           0.
    400,   147.702438,   56.7628975,           0.
    401,   140.592255,   60.8482285,           0.
    402,   93.4038925,   60.8558044,           0.
    403,   126.386627,   60.8350525,           0.
    404,    131.12323,   60.8367996,           0.
    405,   157.149261,   56.8421631,           0.
    406,   107.427315,   60.8176727,           0.
    407,   121.648003,   60.8326836,           0.
    408,   135.857941,   60.8407593,           0.
    409,   166.753586,   57.7492523,           0.
    410,   161.777878,   57.0303307,           0.
    411,   152.438721,   56.7942009,           0.
    412,   116.908104,    60.829113,           0.
    413,   112.167442,   60.8235512,           0.
    414,   98.0121918,   60.8186722,           0.
    415,   102.701454,   60.8118782,           0.
    416,   170.827576,   85.2388382,           0.
    417,   171.121414,   56.6167755,           0.
    418,    170.81871,   99.5001068,           0.
    419,   170.217041,   104.637619,           0.
    420,   166.620575,    68.244339,           0.
    421,   166.771347,    63.205307,           0.
    422,   166.659485,   73.1905441,           0.
    423,   166.683014,   78.0290146,           0.
    424,   170.855072,   94.7827454,           0.
    425,   170.842102,   90.0245056,           0.
    426,   79.3182449,   109.609085,           0.
    427,   88.7844696,   60.9772911,           0.
    428,   157.607986,   100.867134,           0.
    429,   83.3417969,   88.7375641,           0.
    430,   162.638138,   100.139984,           0.
    431,   139.129501,   101.065704,           0.
    432,    152.99855,   100.999657,           0.
    433,   79.5991821,    100.28437,           0.
    434,   143.764191,   101.051247,           0.
    435,   85.5379181,   105.244164,           0.
    436,   75.6994858,    107.57663,           0.
    437,   134.492569,   101.073662,           0.
    438,    79.395607,   95.7100067,           0.
    439,   148.388916,   101.031593,           0.
    440,   125.214912,   101.082298,           0.
    441,   129.854324,   101.078239,           0.
    442,    120.57354,   101.083267,           0.
    443,    115.93116,   101.084419,           0.
    444,   111.287468,   101.086624,           0.
    445,   106.642365,   101.090706,           0.
    446,   97.3494644,   101.086205,           0.
    447,   86.9791946,   72.9843903,           0.
    448,   101.995239,   101.093445,           0.
    449,   83.3084717,   84.1199493,           0.
    450,   87.2863617,   77.0693893,           0.
    451,   90.2686081,   105.076706,           0.
    452,   82.5981064,   65.4300079,           0.
    453,    145.32666,   60.8588905,           0.
    454,   138.217941,   64.9354935,           0.
    455,   128.752823,   64.9227753,           0.
    456,   124.015396,   64.9193039,           0.
    457,   133.486084,    64.927002,           0.
    458,   159.371796,   61.0653229,           0.
    459,   150.040314,   60.9088936,           0.
    460,   163.357208,   60.9049301,           0.
    461,    154.69342,   60.9709702,           0.
    462,   109.790726,   64.9016037,           0.
    463,   119.275299,    64.914917,           0.
    464,   105.052147,   64.8903351,           0.
    465,   114.533234,   64.9084015,           0.
    466,   95.7290726,   64.9312439,           0.
    467,      100.362,    64.892952,           0.
    468,   166.694809,    82.841217,           0.
    469,   166.795517,   97.1717987,           0.
    470,   166.709869,   92.4496841,           0.
    471,   162.042755,    65.447319,           0.
    472,   162.519287,   70.7431183,           0.
    473,   162.554535,   75.5863419,           0.
    474,   166.681778,   87.6574554,           0.
    475,   80.3584595,   105.236267,           0.
    476,   86.5276718,   65.2288818,           0.
    477,   91.1431122,   65.0684204,           0.
    478,   159.197754,    97.128624,           0.
    479,   155.222702,   96.9349213,           0.
    480,   87.2769012,   86.3157196,           0.
    481,   136.803528,   97.0230865,           0.
    482,   83.4711761,   97.9096222,           0.
    483,   87.6892242,   100.580055,           0.
    484,   141.434296,    97.007843,           0.
    485,   150.656189,   96.9697266,           0.
    486,   146.053894,   96.9887924,           0.
    487,   132.168823,     97.03125,           0.
    488,   127.531967,   97.0366135,           0.
    489,   122.892677,   97.0397949,           0.
    490,   118.251122,   97.0418549,           0.
    491,   83.4171143,   93.3094482,           0.
    492,   113.607315,   97.0445938,           0.
    493,   108.961319,   97.0493546,           0.
    494,   104.312889,   97.0561905,           0.
    495,   99.6777496,   96.9777451,           0.
    496,   91.3082504,   73.9057846,           0.
    497,   92.7491379,   101.051163,           0.
    498,   87.3196487,   81.7482452,           0.
    499,   167.093414,   101.249008,           0.
    500,   142.948929,   64.9486542,           0.
    501,   135.843689,   69.0172806,           0.
    502,   126.381058,   69.0029984,           0.
    503,   131.113983,   69.0082016,           0.
    504,   147.615646,   65.0159531,           0.
    505,   156.968384,   65.2498093,           0.
    506,   121.641861,   68.9974823,           0.
    507,   152.294739,   65.2349472,           0.
    508,    107.40876,   68.9699554,           0.
    509,   112.154625,   68.9818115,           0.
    510,   116.899132,    68.990097,           0.
    511,   102.621651,   69.1169662,           0.
    512,    97.951088,   69.1194839,           0.
    513,   162.566971,   80.4295349,           0.
    514,   162.622177,   94.9542847,           0.
    515,   162.487106,   90.0998764,           0.
    516,   158.922821,    68.917244,           0.
    517,   158.626724,   73.1360931,           0.
    518,   162.548782,   85.2394409,           0.
    519,   88.8969498,    69.337883,           0.
    520,   93.4429626,   69.1675339,           0.
    521,   157.942474,   92.7260361,           0.
    522,   152.947632,   93.0025558,           0.
    523,   87.5623322,   95.4748764,           0.
    524,   139.106155,   92.9623108,           0.
    525,   91.0561066,   97.3785706,           0.
    526,   134.477661,   92.9763107,           0.
    527,   148.367264,   92.9661102,           0.
    528,   143.734573,   92.9525299,           0.
    529,   129.845459,   92.9851532,           0.
    530,   91.1533127,   84.1405563,           0.
    531,   125.209496,   92.9906082,           0.
    532,   120.569923,   92.9941864,           0.
    533,   115.926743,   92.9977036,           0.
    534,   87.4232254,   90.7875061,           0.
    535,   111.280128,   93.0030289,           0.
    536,   106.633736,   93.0034866,           0.
    537,   102.016556,   92.8290482,           0.
    538,   95.0564117,   96.9650345,           0.
    539,   91.2956467,   79.2532806,           0.
    540,   140.570496,   69.0318146,           0.
    541,   133.431076,   73.0806503,           0.
    542,   145.239777,    69.112854,           0.
    543,   128.735229,   73.0820847,           0.
    544,   124.005417,   73.0767212,           0.
    545,   149.791733,   69.3302078,           0.
    546,   119.264854,   73.0694275,           0.
    547,   114.518967,   73.0598373,           0.
    548,   109.769264,   73.0464935,           0.
    549,   105.066124,   73.1938324,           0.
    550,   99.9992981,   73.9742813,           0.
    551,   158.549347,   77.9562988,           0.
    552,    158.31366,   87.5792084,           0.
    553,   158.350021,   82.7595673,           0.
    554,    83.331192,   101.850891,           0.
    555,   95.6370316,   72.6074982,           0.
    556,    150.72197,   89.0853958,           0.
    557,   136.815735,   88.9247971,           0.
    558,   141.416687,   88.9077377,           0.
    559,    146.08226,   88.9764023,           0.
    560,   132.272369,   88.9653091,           0.
    561,   92.0228958,   92.6859665,           0.
    562,   127.696602,   88.9930573,           0.
    563,   123.065392,   89.0025558,           0.
    564,   118.412697,   89.0063324,           0.
    565,   95.2101212,   82.0178299,           0.
    566,   113.751038,   89.0096283,           0.
    567,    90.569725,   88.2835922,           0.
    568,   109.092178,   88.9962845,           0.
    569,   104.480667,   88.7985001,           0.
    570,   97.2627487,   92.5661926,           0.
    571,   95.5581741,   76.9466324,           0.
    572,   138.059509,   73.0637207,           0.
    573,    142.68837,   73.1233444,           0.
    574,   130.920654,   77.1037445,           0.
    575,    126.25219,   77.1132202,           0.
    576,   147.290237,   73.2373581,           0.
    577,   154.666855,   70.0862579,           0.
    578,   121.526329,   77.1069336,           0.
    579,   116.790741,    77.098381,           0.
    580,    112.05043,   77.0853729,           0.
    581,   107.442894,   77.0264053,           0.
    582,   103.455055,    76.980545,           0.
    583,   154.600922,   75.3511429,           0.
    584,   153.674179,   85.1478424,           0.
    585,   154.295242,   80.0814514,           0.
    586,   154.719986,   89.5082092,           0.
    587,   139.299561,    84.926506,           0.
    588,   148.576675,   85.1902313,           0.
    589,   134.826111,   84.9818344,           0.
    590,   143.964813,   85.0295639,           0.
    591,   130.310654,   85.0311737,           0.
    592,    125.71492,    85.056778,           0.
    593,   121.042496,   85.0589294,           0.
    594,   116.354477,   85.0578156,           0.
    595,   111.665276,   85.0422058,           0.
    596,   94.9295197,   87.5112457,           0.
    597,   107.004463,   84.8725433,           0.
    598,   99.9180832,   88.4432755,           0.
    599,   99.9871292,   79.9515762,           0.
    600,   135.449356,   77.0526276,           0.
    601,   140.006058,   77.0560455,           0.
    602,   144.725464,   77.1737976,           0.
    603,   151.260834,   73.0909042,           0.
    604,   128.308441,   81.0816803,           0.
    605,   123.642792,   81.0892105,           0.
    606,   118.940506,    81.086853,           0.
    607,   114.226669,   81.0767517,           0.
    608,   109.542999,   80.9817276,           0.
    609,   104.965721,   80.7223434,           0.
    610,   149.918121,   77.4284058,           0.
    611,    102.46888,   84.5369415,           0.
    612,   137.383286,   81.0022583,           0.
    613,   141.998459,   81.0713425,           0.
    614,   146.637695,   81.2862701,           0.
    615,   132.866409,   81.0422211,           0.
    616,   150.620392,   81.8268433,           0.
    617,   98.5027466,   84.4921722,           0.
    618,   82.7847748,   56.8151512,           0.
    619,   54.8714485,   52.7543297,           0.
    620,   58.0829315,   56.9254456,           0.
    621,   29.9890327,   48.4627151,           0.
    622,   34.6054192,   48.4607201,           0.
    623,   39.2213631,   48.4585838,           0.
    624,   43.7919731,   48.4069824,           0.
    625,   48.3041534,   48.4445267,           0.
    626,   52.6715775,   48.6050415,           0.
    627,   63.1655922,   81.7914886,           0.
    628,   63.1627312,   86.4319077,           0.
    629,   63.1747208,    72.516922,           0.
    630,   63.1625977,     63.49543,           0.
    631,   62.8947372,   114.859573,           0.
    632,   62.9289474,   109.796974,           0.
    633,   63.1578522,   95.7136459,           0.
    634,   63.1597328,   91.0733643,           0.
    635,   63.1679268,   77.1521225,           0.
    636,   63.1906853,    67.974762,           0.
    637,   62.8985252,   59.1033707,           0.
    638,   4.14208555,   61.2508011,           0.
    639,   4.14473009,   66.0485382,           0.
    640,   4.14677763,   70.8461304,           0.
    641,   4.14841127,   75.6447067,           0.
    642,   4.14952517,   80.4435654,           0.
    643,   4.15071011,   85.2423553,           0.
    644,   4.15197992,   90.0411453,           0.
    645,   4.15341043,   94.8400497,           0.
    646,   4.15989161,   99.6475754,           0.
    647,   4.23665285,   104.566109,           0.
    648,   4.39193726,   109.630043,           0.
    649,   4.40122509,   114.855293,           0.
    650,   31.1969719,   117.081947,           0.
    651,   35.9957771,   117.084328,           0.
    652,   40.7946053,   117.087578,           0.
    653,   45.5939255,   117.091324,           0.
    654,   50.4357452,   117.022835,           0.
    655,   55.2199478,   116.990135,           0.
    656,   58.9885063,   61.5588684,           0.
    657,   32.2951469,   52.4806557,           0.
    658,   11.3030281,   48.8354759,           0.
    659,    20.760767,   48.5389061,           0.
    660,   25.3729496,    48.478363,           0.
    661,   36.9141312,   52.4745598,           0.
    662,   41.5114746,   52.4322014,           0.
    663,   46.0353737,    52.476387,           0.
    664,   63.1496124,   100.349152,           0.
    665,   59.1493988,   74.8394241,           0.
    666,   63.0823593,   105.007393,           0.
    667,   59.1960793,   70.3152695,           0.
    668,   59.1326637,   84.1100769,           0.
    669,   59.1171227,   93.3886566,           0.
    670,   59.1842957,   65.8720093,           0.
    671,   59.1391411,   79.4723053,           0.
    672,   59.1250877,   88.7513199,           0.
    673,   4.14352465,   56.4882469,           0.
    674,   8.27675629,   63.6510086,           0.
    675,    3.7900331,   52.4320908,           0.
    676,   8.29605389,   82.8420181,           0.
    677,   8.28904724,   73.2441025,           0.
    678,   8.49662685,    107.17276,           0.
    679,    8.3159914,   97.2628098,           0.
    680,   8.30473137,   92.4457092,           0.
    681,   8.29881573,   87.6417313,           0.
    682,   8.29176617,   78.0430069,           0.
    683,   8.28280354,   68.4477005,           0.
    684,   8.36972141,   102.196342,           0.
    685,   26.3975334,   117.081039,           0.
    686,    48.096447,   112.916191,           0.
    687,   38.3994637,   112.944565,           0.
    688,   21.5981312,   117.081398,           0.
    689,   16.8164825,    117.10791,           0.
    690,    12.075058,   117.124573,           0.
    691,   8.01230431,   117.421066,           0.
    692,   33.6014557,   112.938271,           0.
    693,   43.2151604,   112.947151,           0.
    694,   52.9569473,   112.903419,           0.
    695,   50.5119171,   52.5881348,           0.
    696,   58.1733208,   112.618523,           0.
    697,   52.9972992,   56.6977501,           0.
    698,   55.2828789,   60.0290527,           0.
    699,   48.4157143,   56.6728058,           0.
    700,    9.1554203,   112.636101,           0.
    701,   23.1131268,   52.6962395,           0.
    702,   6.25299931,   48.8160439,           0.
    703,   16.1137905,   48.7310829,           0.
    704,    43.817215,   56.5292397,           0.
    705,   39.2335091,   56.4889336,           0.
    706,   34.6069756,   56.5047073,           0.
    707,   27.6855831,   52.5247459,           0.
    708,    58.875206,   102.621887,           0.
    709,   55.2196846,   67.9478455,           0.
    710,   55.0259132,   72.4366989,           0.
    711,   55.0950241,   77.1372833,           0.
    712,   55.0596657,   91.0593491,           0.
    713,   55.0961456,   81.7843323,           0.
    714,   55.0837479,   86.4254303,           0.
    715,   58.6793823,    107.36554,           0.
    716,   59.0489616,   97.9882278,           0.
    717,   8.24201012,   58.8482819,           0.
    718,   28.8044109,     112.9319,           0.
    719,   12.4705162,   104.817993,           0.
    720,   12.4319811,   80.4399414,           0.
    721,   12.4566126,   99.8289871,           0.
    722,   12.4513664,   94.8924179,           0.
    723,   12.4241514,   75.6405411,           0.
    724,   12.4377251,   85.2387848,           0.
    725,   12.4438772,   90.0502853,           0.
    726,   12.4169769,    70.845932,           0.
    727,   12.3780489,   66.0815353,           0.
    728,   14.3658648,    112.85183,           0.
    729,   19.1919842,   112.785927,           0.
    730,   36.0099487,   108.805077,           0.
    731,   40.8229752,   108.824638,           0.
    732,   45.7700462,   108.867577,           0.
    733,   50.7111816,   108.960976,           0.
    734,   24.0216465,   112.893745,           0.
    735,   8.49560833,   53.6607742,           0.
    736,   59.2538719,   117.387207,           0.
    737,   51.1750031,   61.2056656,           0.
    738,   53.9186554,   105.002167,           0.
    739,   25.4604664,   56.8043327,           0.
    740,   36.9449806,    60.548336,           0.
    741,   41.5252037,   60.5625038,           0.
    742,   54.7340279,   100.150307,           0.
    743,   18.5108509,   53.1243362,           0.
    744,   30.0037193,   56.5709801,           0.
    745,   51.0132637,   74.7925949,           0.
    746,   50.6475983,   69.7184906,           0.
    747,   51.0581551,   79.4643402,           0.
    748,   51.0451698,   84.1012421,           0.
    749,   50.9897385,    88.698555,           0.
    750,   54.9325523,   95.6364594,           0.
    751,   54.8878975,   109.370125,           0.
    752,   12.2334585,   61.2778358,           0.
    753,   31.2176762,   108.791481,           0.
    754,   12.2291737,   109.102875,           0.
    755,    16.566431,    82.833847,           0.
    756,   16.5761814,   87.6373825,           0.
    757,   16.5694733,    102.49337,           0.
    758,   16.6392212,    107.92392,           0.
    759,    16.699728,   97.4757233,           0.
    760,   16.5513725,   68.4258575,           0.
    761,   38.4423218,   104.695183,           0.
    762,   48.4653587,   104.931206,           0.
    763,    16.554348,   78.0350342,           0.
    764,   46.1204758,   60.7653618,           0.
    765,   16.6187782,   92.5044327,           0.
    766,   21.7195454,   108.612511,           0.
    767,   16.5457916,   73.2370758,           0.
    768,   43.4431725,   104.698784,           0.
    769,   26.4526176,   108.743797,           0.
    770,   11.8065586,   57.0569267,           0.
    771,   48.2490654,   65.2011719,           0.
    772,     27.61483,   60.8221474,           0.
    773,    13.744339,   53.2794456,           0.
    774,   50.8236618,   101.649857,           0.
    775,   50.7454681,   97.7232437,           0.
    776,   39.1770821,    64.665451,           0.
    777,   21.0297947,   57.2347412,           0.
    778,   47.0143051,   81.7864761,           0.
    779,   47.0673561,   86.2571564,           0.
    780,   47.5470886,   72.9620667,           0.
    781,   47.1440392,   77.0489044,           0.
    782,   32.1901512,   60.7752342,           0.
    783,   52.1224022,   65.5694504,           0.
    784,   50.8844147,   93.2015839,           0.
    785,   16.3198109,   63.5040321,           0.
    786,   33.6395111,   104.623619,           0.
    787,   20.6973934,   85.2248459,           0.
    788,   20.6803207,   80.4252625,           0.
    789,   20.7357826,   90.0585251,           0.
    790,   20.0687466,   104.773788,           0.
    791,    21.323576,   100.149658,           0.
    792,   40.9738808,   100.633568,           0.
    793,   20.7895126,   94.8663559,           0.
    794,   24.1517944,    104.51722,           0.
    795,   20.7445087,    70.771553,           0.
    796,   20.6802425,   75.6196442,           0.
    797,   46.3073044,   100.272125,           0.
    798,   28.8729229,   104.519966,           0.
    799,   16.1734505,   58.1065331,           0.
    800,   43.6893692,   64.8880997,           0.
    801,   45.7891006,   69.2503586,           0.
    802,   29.5389805,   65.4635468,           0.
    803,   46.6129112,   95.2309265,           0.
    804,   42.9489059,   84.0017471,           0.
    805,   42.9723015,   79.1272507,           0.
    806,   43.2307625,   73.7161789,           0.
    807,   23.3076572,   61.0207558,           0.
    808,   34.6184998,   64.7615967,           0.
    809,   46.8513718,   90.6295929,           0.
    810,   20.9562035,   65.3831253,           0.
    811,   36.1377754,   100.499664,           0.
    812,   24.8550377,   82.8492584,           0.
    813,   24.8139076,   87.6210098,           0.
    814,   24.7407246,   92.4227905,           0.
    815,   24.9519463,   78.0935898,           0.
    816,   24.4345016,   96.6125793,           0.
    817,   42.9037399,   97.0086288,           0.
    818,   25.0313377,   73.2369766,           0.
    819,   31.3009644,   100.249268,           0.
    820,   41.2985878,   68.8888931,           0.
    821,   32.9445572,   68.5192032,           0.
    822,   38.4867058,   81.4083633,           0.
    823,   25.2794666,   64.2176895,           0.
    824,   38.6511917,   76.2965622,           0.
    825,   36.8796425,   68.6712036,           0.
    826,   43.4592628,   88.0378952,           0.
    827,   38.6900635,   96.4686966,           0.
    828,    25.143959,    68.301178,           0.
    829,   26.4832897,   100.248001,           0.
    830,   29.0429497,   85.4653168,           0.
    831,   28.7424412,   90.2642441,           0.
    832,   29.3375492,   80.6713181,           0.
    833,   28.8106918,   95.4885788,           0.
    834,   29.4842243,   75.6798782,           0.
    835,   33.8999786,   96.1992035,           0.
    836,   19.5573826,    61.049839,           0.
    837,   33.9885559,   78.4240112,           0.
    838,   34.3153687,   72.9299011,           0.
    839,   38.8751106,   72.1005478,           0.
    840,   41.9009438,   92.3460999,           0.
    841,   38.5291252,    87.087204,           0.
    842,   29.4097385,    70.688446,           0.
    843,   33.0755959,    88.464325,           0.
    844,   33.7434158,   83.5867538,           0.
    845,   36.3719559,     92.16008,           0.
    846,   32.1801338,   92.5152893,           0.
    847,   55.3287964,   63.6971474,           0.
    848,    71.289856,   29.6850624,           0.
    849,   92.7215652,    4.0208149,           0.
    850,   153.070587,   4.02272129,           0.
    851,   124.019005,   40.3541718,           0.
    852,   71.3468094,    11.655055,           0.
    853,   71.2817459,   16.3002415,           0.
    854,    71.195816,   20.9377499,           0.
    855,   71.0808029,   25.3815098,           0.
    856,   162.382431,   4.03919125,           0.
    857,   171.392242,   40.3841324,           0.
    858,   175.383957,   40.7602119,           0.
    859,   166.679367,   40.3644447,           0.
    860,   157.717758,   4.02380419,           0.
    861,   161.927063,   40.3607368,           0.
    862,   157.186218,   40.3577042,           0.
    863,    143.78566,   4.02504492,           0.
    864,    142.97113,   40.3542824,           0.
    865,     129.8591,   4.02526617,           0.
    866,   128.757034,   40.3544464,           0.
    867,   115.932541,   4.02513742,           0.
    868,   114.542969,   40.3542786,           0.
    869,   105.066643,   40.3551559,           0.
    870,   79.9330063,   35.2963753,           0.
    871,    88.079567,   4.02074337,           0.
    872,   83.4234848,   4.05636263,           0.
    873,   78.5963669,   4.18961191,           0.
    874,   73.5098038,   4.21253061,           0.
    875,   179.299484,   28.8778324,           0.
    876,   179.367279,   24.4310017,           0.
    877,   179.365616,   19.9987793,           0.
    878,   179.322815,   15.5431643,           0.
    879,   179.168823,   10.9342585,           0.
    880,   179.108231,   6.07436466,           0.
    881,   148.428131,   4.02471256,           0.
    882,   152.447495,   40.3562889,           0.
    883,   147.709259,   40.3556023,           0.
    884,   139.143478,   4.02546644,           0.
    885,   134.501297,   4.02584362,           0.
    886,   138.233093,   40.3547325,           0.
    887,   133.495056,   40.3550911,           0.
    888,   125.216911,   4.02541685,           0.
    889,   120.574722,   4.02579546,           0.
    890,   119.280991,   40.3547974,           0.
    891,   111.290283,   4.02519655,           0.
    892,   106.647964,   4.02464724,           0.
    893,   109.804893,   40.3550529,           0.
    894,   102.005608,   4.02348852,           0.
    895,   97.3634262,   4.02228117,           0.
    896,   100.328087,   40.3579712,           0.
    897,   95.5971603,   40.3630867,           0.
    898,   90.9336472,   40.4008904,           0.
    899,   86.3776093,   40.3374939,           0.
    900,   81.9448853,   40.0984879,           0.
    901,     76.04319,   31.2931614,           0.
    902,   179.056915,    33.504406,           0.
    903,   175.290894,   13.2568836,           0.
    904,   178.969879,     38.39674,           0.
    905,    175.44223,   26.6104507,           0.
    906,   175.476654,   22.1986599,           0.
    907,   175.411774,   17.7341194,           0.
    908,   167.073837,   4.05591774,           0.
    909,   146.107513,   8.05354691,           0.
    910,   171.706787,   4.04470682,           0.
    911,   160.052734,    8.0619297,           0.
    912,   122.895821,   8.05512047,           0.
    913,   104.325684,   8.05193901,           0.
    914,   85.7294693,   8.07079411,           0.
    915,    127.53801,   8.05558205,           0.
    916,   113.611237,   8.05490112,           0.
    917,   95.0416183,   8.04546452,           0.
    918,   136.822403,   8.05546188,           0.
    919,   108.968445,   8.05469036,           0.
    920,   155.398376,   8.04997444,           0.
    921,   90.3894806,   8.04988384,           0.
    922,   81.0017395,   8.17335033,           0.
    923,   175.604446,   3.68997383,           0.
    924,   150.751862,   8.05179501,           0.
    925,   141.464844,   8.05559921,           0.
    926,   132.180206,    8.0564394,           0.
    927,   118.253586,   8.05607986,           0.
    928,   99.6830978,   8.04959965,           0.
    929,   75.4389038,   18.5932674,           0.
    930,   71.0117798,   7.73210096,           0.
    931,   75.5544128,   13.8702269,           0.
    932,   75.0699768,   23.2819157,           0.
    933,   164.419144,   36.1569786,           0.
    934,   116.911972,   36.2609634,           0.
    935,   107.434982,   36.2628136,           0.
    936,   97.9856262,   36.2956657,           0.
    937,   159.578995,   36.2530632,           0.
    938,   126.388016,   36.2608757,           0.
    939,   145.340439,    36.261982,           0.
    940,   140.602249,   36.2617607,           0.
    941,   89.0387344,   36.2344818,           0.
    942,   112.173721,   36.2623215,           0.
    943,     174.4086,   36.1299515,           0.
    944,   169.297943,   36.1934738,           0.
    945,   154.821579,   36.2641678,           0.
    946,    150.07962,   36.2644043,           0.
    947,   131.126053,   36.2616196,           0.
    948,    135.86412,   36.2623749,           0.
    949,   121.649994,   36.2620125,           0.
    950,   102.699783,    36.271904,           0.
    951,   93.4760437,   36.4219322,           0.
    952,   174.580124,   8.22472286,           0.
    953,   84.6635437,   35.9682655,           0.
    954,   74.4720688,   27.2297459,           0.
    955,   75.7453537,   8.80444813,           0.
    956,   83.2136917,   32.3511543,           0.
    957,   78.8862152,    26.534256,           0.
    958,   171.635773,   11.5162935,           0.
    959,   171.498032,   19.9187813,           0.
    960,   171.465561,   15.4542885,           0.
    961,   171.429855,   24.3775864,           0.
    962,     175.2258,    31.095953,           0.
    963,    164.78157,   8.15746784,           0.
    964,   125.216919,   12.0911636,           0.
    965,   148.432068,   12.0855551,           0.
    966,   143.787415,   12.0895271,           0.
    967,   120.574684,   12.0919094,           0.
    968,   129.859116,   12.0920973,           0.
    969,   115.932152,   12.0917635,           0.
    970,   111.288956,   12.0905552,           0.
    971,   139.144028,   12.0915508,           0.
    972,   134.501434,   12.0929375,           0.
    973,   92.6866455,   12.1058741,           0.
    974,    83.261528,   12.0711946,           0.
    975,   106.645119,   12.0879612,           0.
    976,   87.9455566,   12.1382694,           0.
    977,   97.3541183,   12.0831032,           0.
    978,   102.000664,   12.0848436,           0.
    979,   153.079239,   12.0791893,           0.
    980,   157.723343,   12.0476427,           0.
    981,   169.521332,   8.10852528,           0.
    982,   80.1800766,   16.1919041,           0.
    983,   79.3516312,   21.3163891,           0.
    984,   79.1486206,   11.8222246,           0.
    985,   138.233368,   32.1746407,           0.
    986,   114.542709,   32.1743355,           0.
    987,    128.75705,   32.1740417,           0.
    988,   109.803185,   32.1767082,           0.
    989,    119.28093,   32.1748009,           0.
    990,   124.018997,   32.1752396,           0.
    991,   133.495148,     32.17556,           0.
    992,   105.058762,   32.1844902,           0.
    993,   142.971893,   32.1760139,           0.
    994,     147.7108,   32.1779099,           0.
    995,   152.451233,   32.1815605,           0.
    996,    157.19812,   32.1886024,           0.
    997,   161.960373,   32.1262932,           0.
    998,   100.322693,   32.2273216,           0.
    999,   91.6329041,   32.9322014,           0.
   1000,   95.6013412,   32.3990822,           0.
   1001,   167.113602,   31.5787563,           0.
   1002,   171.515915,   32.7622223,           0.
   1003,   167.348724,   12.6429119,           0.
   1004,   167.486771,   17.4956779,           0.
   1005,   167.169662,   21.9652138,           0.
   1006,   171.330551,   28.8334274,           0.
   1007,   80.3092499,   30.7663841,           0.
   1008,   95.0351562,   16.1822758,           0.
   1009,   90.2197876,   16.3098507,           0.
   1010,   127.684319,   16.1076679,           0.
   1011,   123.055794,   16.1038055,           0.
   1012,    141.66481,   16.1036987,           0.
   1013,   132.375168,   16.1019821,           0.
   1014,   118.416656,   16.1008396,           0.
   1015,   137.073746,   16.0959568,           0.
   1016,   113.763405,   16.0990868,           0.
   1017,    146.35611,   16.0962677,           0.
   1018,   99.7504654,    16.119463,           0.
   1019,   109.112183,   16.0952587,           0.
   1020,   104.461624,   16.0949097,           0.
   1021,   162.345383,   12.0529728,           0.
   1022,   151.024429,   16.0896549,           0.
   1023,   155.702972,   16.0210285,           0.
   1024,   83.1751709,    19.647871,           0.
   1025,   87.4185944,   31.4740524,           0.
   1026,   92.3380508,   28.4736443,           0.
   1027,   126.298256,   28.1124001,           0.
   1028,   121.554268,   28.1158714,           0.
   1029,   131.008224,   28.1176414,           0.
   1030,   135.735489,   28.1186237,           0.
   1031,   116.817146,   28.1177845,           0.
   1032,   112.085991,   28.1192398,           0.
   1033,   149.963562,   28.1179905,           0.
   1034,   107.348793,   28.1261349,           0.
   1035,    140.45636,   28.1208439,           0.
   1036,   145.175461,   28.1243896,           0.
   1037,    154.65242,   28.1332417,           0.
   1038,   159.399658,   28.2045631,           0.
   1039,   97.7093811,   28.2631149,           0.
   1040,   102.564064,   28.1710644,           0.
   1041,   163.587982,    28.523283,           0.
   1042,   83.3350143,   23.8031769,           0.
   1043,   167.140335,   26.5682449,           0.
   1044,   83.4503784,   28.5105152,           0.
   1045,   163.262863,    19.155695,           0.
   1046,   92.7893906,   20.2772808,           0.
   1047,   97.5265579,   20.1739807,           0.
   1048,    125.72036,   20.0909767,           0.
   1049,   121.056206,   20.0884705,           0.
   1050,   130.408585,   20.0911789,           0.
   1051,   135.108475,   20.0890694,           0.
   1052,   139.784317,   20.0903225,           0.
   1053,   116.372726,   20.0883751,           0.
   1054,   144.474106,   20.0887871,           0.
   1055,   111.696266,   20.0857544,           0.
   1056,   102.281807,   20.1156254,           0.
   1057,   107.005501,   20.0920486,           0.
   1058,   149.181046,   20.0846786,           0.
   1059,    85.394928,   16.1980991,           0.
   1060,   153.862869,   20.0521374,           0.
   1061,   160.279602,    15.788022,           0.
   1062,   164.144669,   15.4270563,           0.
   1063,   123.686935,   24.0932369,           0.
   1064,   128.383301,   24.0969791,           0.
   1065,   133.089981,   24.0983124,           0.
   1066,   118.967316,   24.0965919,           0.
   1067,   114.257446,   24.0972786,           0.
   1068,   137.788986,   24.1004505,           0.
   1069,   147.235886,   24.0970783,           0.
   1070,   142.485855,   24.1036453,           0.
   1071,   109.544975,   24.1008797,           0.
   1072,   151.926361,   24.0978813,           0.
   1073,   156.766022,   24.0922031,           0.
   1074,   104.802338,   24.1243763,           0.
   1075,   95.2542648,   24.2176647,           0.
   1076,   100.023071,   24.1776371,           0.
   1077,   162.267288,    24.063343,           0.
   1078,   87.6495819,   20.9068298,           0.
   1079,    87.547493,   26.1909485,           0.
   1080,   158.690277,    19.862072,           0.
   1081,   91.1157532,   24.0132732,           0.
   1082,   63.0586281,   16.2168274,           0.
   1083,    62.867012,   11.3061552,           0.
   1084,   34.6069145,   40.4497261,           0.
   1085,   62.8200798,   6.22745323,           0.
   1086,   52.5338516,   40.1638947,           0.
   1087,   54.5495758,   35.1687431,           0.
   1088,    58.847599,   32.0475082,           0.
   1089,   63.1841431,   20.9227371,           0.
   1090,   63.1727829,   25.4934216,           0.
   1091,   63.0216751,   29.8916855,           0.
   1092,   20.7385139,   40.4362793,           0.
   1093,   25.3731537,   40.4508896,           0.
   1094,   29.9911461,   40.4502907,           0.
   1095,   39.2215691,   40.4492531,           0.
   1096,   43.7576256,    40.489048,           0.
   1097,   48.1646957,   40.4264641,           0.
   1098,   4.18748522,   6.09650278,           0.
   1099,   4.11037683,   10.9127522,           0.
   1100,   3.94296813,   15.5235119,           0.
   1101,   3.89757824,   19.9989071,           0.
   1102,    3.8847549,   24.4481201,           0.
   1103,   3.92107391,   28.9098244,           0.
   1104,   4.06767178,   33.5226135,           0.
   1105,   4.12008476,   38.3824196,           0.
   1106,   50.3840408,   4.10489988,           0.
   1107,   45.5890579,   4.13788652,           0.
   1108,    40.792717,   4.14328814,           0.
   1109,   35.9941978,   4.14460135,           0.
   1110,   31.1947517,     4.143929,           0.
   1111,    26.394722,   4.13963413,           0.
   1112,   21.5851841,   4.12892962,           0.
   1113,   16.6884918,     4.128479,           0.
   1114,   11.8524666,   4.07793045,           0.
   1115,   7.93966007,   31.2072334,           0.
   1116,   7.80172682,   22.2365456,           0.
   1117,   8.04446507,   13.2434978,           0.
   1118,   7.89247751,   17.7357082,           0.
   1119,   7.83759785,   26.7253399,           0.
   1120,   16.0810833,   40.4168205,           0.
   1121,   11.4793558,    40.420517,           0.
   1122,   23.0556107,   36.4321823,           0.
   1123,   41.4278412,   36.4978065,           0.
   1124,   45.6927261,    36.592556,           0.
   1125,   7.60292244,    40.768837,           0.
   1126,   36.8970833,   36.4482574,           0.
   1127,   32.2943115,   36.4423447,           0.
   1128,   27.6770458,   36.4420509,           0.
   1129,   59.0521164,   18.5143108,           0.
   1130,    58.826931,   13.7008457,           0.
   1131,   59.0845566,    23.175396,           0.
   1132,   55.1458206,   4.05530977,           0.
   1133,   7.83095074,   3.69057655,           0.
   1134,   28.7908039,    8.2711916,           0.
   1135,   48.0525475,   8.36382675,           0.
   1136,   14.0545549,   8.17680931,           0.
   1137,   59.2076225,   3.73766851,           0.
   1138,   23.9746723,   8.25010586,           0.
   1139,   33.5930443,   8.27731609,           0.
   1140,   38.3935204,   8.27836895,           0.
   1141,   43.1994896,    8.2902298,           0.
   1142,   19.0080891,   8.29877758,           0.
   1143,   8.83326721,   8.25419331,           0.
   1144,   8.63245583,   36.2425995,           0.
   1145,   58.9876633,   27.6789303,           0.
   1146,   49.7784195,   36.2082062,           0.
   1147,   50.5782166,   31.7893276,           0.
   1148,   54.7814293,   29.9208736,           0.
   1149,   58.0992661,   8.41810513,           0.
   1150,   54.9344635,   25.3609581,           0.
   1151,   11.5717287,   32.9604912,           0.
   1152,   11.7522278,   29.0105667,           0.
   1153,   11.7866488,   24.5350704,           0.
   1154,   11.9124613,   20.0265427,           0.
   1155,    11.977005,   15.5424109,           0.
   1156,   18.3658447,   36.3311081,           0.
   1157,   34.5884438,   32.4201279,           0.
   1158,   39.1317215,   32.4423599,           0.
   1159,   43.5353279,   32.6532364,           0.
   1160,   25.2857075,   32.4608116,           0.
   1161,   29.9228497,   32.4285736,           0.
   1162,   13.6608953,   36.3686714,           0.
   1163,   54.9592628,   16.0839176,           0.
   1164,   55.0071564,   20.7842693,           0.
   1165,   52.9062805,   8.29637337,           0.
   1166,   35.9925461,   12.4000444,           0.
   1167,   31.1882229,   12.3867579,           0.
   1168,   40.8289223,   12.4222736,           0.
   1169,   45.6353188,   12.5329237,           0.
   1170,    26.394453,   12.3515606,           0.
   1171,   21.5794888,   12.3394585,           0.
   1172,   16.3289051,   12.8337374,           0.
   1173,   15.8286247,   31.8392067,           0.
   1174,   50.8633041,    27.300766,           0.
   1175,   15.7095127,    26.989336,           0.
   1176,   16.0415459,   22.5149994,           0.
   1177,   16.1663647,    17.885601,           0.
   1178,   11.8476391,   11.6101294,           0.
   1179,   27.3265514,   28.4948807,           0.
   1180,   41.3816261,   28.5449467,           0.
   1181,   32.0144577,   28.4415493,           0.
   1182,   36.6641617,   28.4505196,           0.
   1183,   20.7207069,   32.4426041,           0.
   1184,   50.9399757,   18.3334541,           0.
   1185,   55.1088715,   11.9181013,           0.
   1186,   50.7376671,   13.1316576,           0.
   1187,   38.5240364,   16.5101986,           0.
   1188,   33.6763306,   16.4636326,           0.
   1189,   43.3478508,   16.5006275,           0.
   1190,   19.8048248,   15.9684696,           0.
   1191,   23.9758568,   16.3282776,           0.
   1192,   28.8360043,   16.4099655,           0.
   1193,   50.9606743,   22.8630066,           0.
   1194,   47.6347351,   24.8286819,           0.
   1195,   19.8115215,   25.3490524,           0.
   1196,   18.9653206,   29.0518646,           0.
   1197,    29.272253,   24.4889393,           0.
   1198,   38.8403091,   24.5243034,           0.
   1199,   34.0597725,    24.485796,           0.
   1200,   22.7590351,   28.7323074,           0.
   1201,   46.4067993,   28.9883232,           0.
   1202,   47.4142914,   16.2133732,           0.
   1203,   41.1541977,   20.5339184,           0.
   1204,   36.2717247,   20.5025997,           0.
   1205,    20.949995,   20.4389782,           0.
   1206,   31.4202557,   20.4637909,           0.
   1207,   26.4831295,   20.4540958,           0.
   1208,   46.4374733,   20.5516453,           0.
   1209,   43.6425247,   24.6619701,           0.
   1210,   24.4337482,    24.659708,           0.
   1211,   47.1982956,   33.2463303,           0.
*Element, type=S3
  1, 325, 270, 311
  2, 269,  88, 199
  3, 235,  80, 234
  4, 199,  13,  14
  5, 250,   3,  29
  6, 318,  17, 254
  7, 254,  17,  18
  8, 255,  19, 200
  9, 200,  19,  20
 10, 231,  83,  84
 11, 201, 200,  20
 12, 202, 201,  21
 13, 219,  32, 218
 14, 205,  23,  24
 15, 257, 205, 206
 16, 203, 202,  22
 17, 310, 207, 204
 18, 207,   2,  26
 19, 250,  29, 221
 20,  49,   4,  50
 21, 229,  50,  51
 22, 350, 284, 294
 23, 302, 224, 223
 24, 410, 347, 346
 25, 350, 294, 312
 26, 280, 279,  44
 27, 279,  43,  44
 28, 242,  73, 241
 29, 210,  42, 209
 30, 211,  41, 210
 31, 263, 239, 238
 32, 213,  38, 198
 33, 214,  37, 213
 34, 215,  36, 214
 35, 216,  35, 215
 36, 253, 202, 203
 37, 217,  34, 216
 38, 218,  33, 217
 39, 208, 204,  27
 40, 221,  29,  30
 41,  65,  64,   5
 42, 249,  65,  66
 43, 271, 246, 259
 44, 259, 246, 245
 45, 272, 245, 244
 46, 375, 340, 339
 47, 303,  61,  62
 48, 298,  58,  59
 49, 223,  57, 222
 50, 224,  56, 223
 51, 225,  55, 224
 52, 226,  54, 225
 53, 227,  53, 226
 54, 228,  52, 227
 55, 229,  51, 228
 56,  88,   1,  13
 57, 199,  88,  13
 58, 270,  86,  87
 59, 258, 230,  85
 60, 258,  85,  86
 61, 376, 319, 318
 62, 231,  84, 230
 63, 273, 233, 267
 64, 265, 235, 234
 65, 274, 235, 265
 66, 236,  79, 235
 67, 237,  78, 236
 68, 387, 386, 328
 69, 238,  77, 237
 70, 266, 239, 263
 71, 240,  75, 239
 72, 241,  74, 240
 73, 243,  72, 242
 74, 244,  71, 243
 75, 245,  70, 244
 76, 246,  69, 245
 77, 247,  68, 246
 78, 248,  67, 247
 79, 249,  66, 248
 80, 198,  38,  39
 81, 212,  39,  40
 82, 378,  14,  15
 83, 311, 270, 269
 84, 201,  20,  21
 85, 256, 201, 202
 86, 202,  21,  22
 87, 267, 233, 232
 88, 203,  22,  23
 89, 323, 253, 251
 90, 207, 206,  25
 91, 204,  26,  27
 92, 208,  27,  28
 93, 618, 371, 314
 94, 205, 203,  23
 95, 206, 205,  24
 96, 206,  24,  25
 97, 257, 251, 205
 98, 207,  25,   2
 99, 207,  26, 204
100, 220,  31, 219
101, 282, 219, 218
102, 209,  42,  43
103, 306, 302, 223
104, 239,  76, 238
105, 210,  41,  42
106, 212,  40, 211
107, 211,  40,  41
108, 291, 211, 288
109, 212, 198,  39
110, 234,  81, 233
111, 213,  37,  38
112, 233,  82, 232
113, 214,  36,  37
114, 276, 231, 264
115, 215,  35,  36
116, 292, 217, 281
117, 216,  34,  35
118, 256, 202, 253
119, 217,  33,  34
120, 293, 219, 282
121, 218,  32,  33
122, 314, 310, 204
123, 219,  31,  32
124, 283, 221, 220
125, 220,  30,  31
126, 316, 221, 283
127, 221,  30, 220
128, 222,  57,  58
129, 260, 242, 241
130, 411, 345, 405
131, 223,  56,  57
132, 460, 458, 410
133, 224,  55,  56
134, 294,  48, 285
135, 225,  54,  55
136, 307, 226, 300
137, 226,  53,  54
138, 294,  47,  48
139, 227,  52,  53
140, 312, 285, 229
141, 228,  51,  52
142, 285,  49, 229
143, 229,  49,  50
144, 230,  84,  85
145, 325, 258, 270
146, 335, 276, 334
147, 232,  83, 231
148, 295, 215, 286
149, 232,  82,  83
150, 354, 286, 349
151, 233,  81,  82
152, 274, 268, 236
153, 234,  80,  81
154, 389, 387, 326
155, 235,  79,  80
156, 268, 237, 236
157, 236,  78,  79
158, 487, 481, 437
159, 237,  77,  78
160, 337, 277, 330
161, 238,  76,  77
162, 289, 288, 210
163, 239,  75,  76
164, 329, 263, 328
165, 240,  74,  75
166, 521, 514, 478
167, 241,  73,  74
168, 278, 242, 260
169, 242,  72,  73
170, 278, 261, 243
171, 243,  71,  72
172, 305,  60, 301
173, 244,  70,  71
174, 363, 308, 313
175, 245,  69,  70
176, 308, 303,  62
177, 246,  68,  69
178, 262, 248, 247
179, 247,  67,  68
180, 313, 248, 262
181, 248,  66,  67
182, 309,  64, 249
183, 249,  64,  65
184, 250, 208,  28
185, 250,  28,   3
186, 253, 203, 251
187, 251, 203, 205
188, 252, 200, 201
189, 357, 355, 281
190, 292, 282, 218
191, 321, 251, 257
192, 255,  18,  19
193, 255, 254,  18
194, 324, 200, 252
195, 324, 255, 200
196, 281, 217, 216
197, 256, 252, 201
198, 310, 257, 206
199, 618, 208, 316
200, 270,  87, 269
201, 319,  16, 318
202, 261, 244, 243
203, 521, 478, 479
204, 277, 241, 240
205, 356, 352, 288
206, 336, 261, 278
207, 278, 243, 242
208, 303, 301,  61
209, 271, 262, 247
210, 275, 238, 237
211, 408, 352, 401
212, 264, 231, 230
213, 343, 230, 258
214, 273, 234, 233
215, 296, 213, 287
216, 330, 266, 329
217, 266, 240, 239
218, 276, 267, 232
219, 333, 332, 273
220, 274, 236, 235
221, 328, 275, 326
222, 269,  87,  88
223, 311, 269, 199
224, 378, 199,  14
225, 270, 258,  86
226, 271, 247, 246
227, 340, 272, 339
228, 272, 259, 245
229, 272, 244, 261
230, 332, 331, 265
231, 273, 265, 234
232, 331, 327, 274
233, 327, 326, 268
234, 275, 263, 238
235, 275, 237, 268
236, 276, 232, 231
237, 397, 264, 343
238, 277, 260, 241
239, 277, 240, 266
240, 382, 337, 381
241, 473, 472, 422
242, 279, 209,  43
243, 280,  44,  45
244, 290,  45,  46
245, 366, 304, 365
246, 355, 292, 281
247, 295, 216, 215
248, 315, 257, 310
249, 292, 218, 217
250, 316, 250, 221
251, 293, 283, 220
252, 284,  46,  47
253, 299, 228, 227
254, 285,  48,  49
255, 312, 229, 228
256, 286, 215, 214
257, 296, 214, 213
258, 287, 213, 198
259, 297, 198, 212
260, 288, 211, 210
261, 289, 210, 209
262, 344, 209, 279
263, 304, 224, 302
264, 290, 280,  45
265, 290,  46, 284
266, 404, 403, 351
267, 291, 212, 211
268, 390, 320, 323
269, 519, 496, 447
270, 293, 220, 219
271, 358, 292, 355
272, 350, 346, 284
273, 294, 284,  47
274, 357, 295, 354
275, 295, 281, 216
276, 349, 296, 348
277, 296, 286, 214
278, 297, 287, 198
279, 297, 212, 291
280, 298, 222,  58
281, 305,  59,  60
282, 307, 227, 226
283, 300, 226, 225
284, 345, 344, 279
285, 304, 225, 224
286, 301,  60,  61
287, 342, 271, 341
288, 306, 223, 222
289, 461, 411, 405
290, 308,  62,  63
291, 377, 340, 375
292, 365, 304, 302
293, 304, 300, 225
294, 341, 259, 340
295, 305, 298,  59
296, 361, 222, 298
297, 339, 261, 336
298, 367, 300, 366
299, 307, 299, 227
300, 309, 308,  63
301, 313, 309, 249
302, 309,  63,  64
303, 313, 249, 248
304, 310, 206, 207
305, 314, 204, 208
306, 475, 376, 433
307, 426, 385, 325
308, 312, 294, 285
309, 312, 228, 299
310, 399, 363, 313
311, 313, 308, 309
312, 359, 283, 293
313, 315, 310, 314
314, 323, 251, 321
315, 321, 257, 315
316, 316, 208, 250
317, 372, 283, 359
318, 317, 254, 255
319, 394, 373, 324
320, 318,  16,  17
321, 379, 254, 317
322, 436, 426, 311
323, 319,  15,  16
324, 322, 256, 320
325, 320, 256, 253
326, 360, 359, 293
327, 402, 359, 360
328, 451, 334, 397
329, 322, 252, 256
330, 360, 282, 358
331, 323, 320, 253
332, 324, 317, 255
333, 394, 252, 322
334, 343, 258, 325
335, 436, 378, 319
336, 326, 275, 268
337, 327, 268, 274
338, 331, 274, 265
339, 407, 348, 403
340, 351, 348, 287
341, 328, 263, 275
342, 489, 488, 440
343, 329, 266, 263
344, 527, 522, 485
345, 330, 277, 266
346, 332, 265, 273
347, 412, 349, 407
348, 333, 273, 267
349, 393, 392, 332
350, 335, 267, 276
351, 395, 333, 335
352, 334, 276, 264
353, 475, 435, 385
354, 383, 335, 334
355, 335, 333, 267
356, 338, 278, 260
357, 486, 434, 484
358, 337, 260, 277
359, 437, 431, 381
360, 338, 336, 278
361, 338, 260, 337
362, 430, 377, 428
363, 339, 272, 261
364, 364, 301, 303
365, 340, 259, 272
366, 364, 303, 363
367, 341, 271, 259
368, 419, 363, 399
369, 342, 262, 271
370, 343, 264, 230
371, 482, 433, 438
372, 344, 289, 209
373, 345, 279, 280
374, 347, 280, 290
375, 422, 420, 366
376, 346, 290, 284
377, 369, 307, 367
378, 347, 345, 280
379, 347, 290, 346
380, 348, 296, 287
381, 351, 287, 297
382, 391, 389, 327
383, 349, 286, 296
384, 417, 312, 299
385, 471, 421, 420
386, 353, 297, 291
387, 488, 487, 441
388, 352, 291, 288
389, 356, 288, 289
390, 353, 351, 297
391, 353, 291, 352
392, 392, 391, 331
393, 354, 295, 286
394, 476, 452, 371
395, 357, 281, 295
396, 400, 289, 344
397, 577, 505, 516
398, 412, 354, 349
399, 445, 444, 392
400, 452, 374, 321
401, 358, 282, 292
402, 618, 372, 371
403, 360, 293, 282
404, 476, 374, 452
405, 477, 402, 466
406, 361, 306, 222
407, 370, 298, 305
408, 362, 305, 301
409, 384, 341, 377
410, 363, 303, 308
411, 399, 313, 262
412, 428, 377, 375
413, 364, 362, 301
414, 368, 302, 306
415, 368, 365, 302
416, 410, 346, 409
417, 366, 300, 304
418, 417, 409, 350
419, 367, 307, 300
420, 416, 306, 361
421, 478, 430, 428
422, 417, 369, 409
423, 369, 299, 307
424, 370, 361, 298
425, 370, 305, 362
426, 452, 315, 371
427, 371, 315, 314
428, 372, 316, 283
429, 427, 359, 402
430, 373, 317, 324
431, 429, 373, 394
432, 390, 323, 374
433, 374, 323, 321
434, 380, 339, 336
435, 380, 375, 339
436, 379, 376, 318
437, 491, 482, 438
438, 419, 364, 363
439, 377, 341, 340
440, 378, 311, 199
441, 378,  15, 319
442, 379, 318, 254
443, 438, 317, 373
444, 396, 336, 338
445, 586, 556, 584
446, 381, 337, 330
447, 388, 330, 329
448, 434, 382, 431
449, 382, 338, 337
450, 415, 414, 358
451, 395, 335, 383
452, 499, 419, 384
453, 384, 342, 341
454, 554, 433, 482
455, 385, 343, 325
456, 386, 329, 328
457, 387, 328, 326
458, 389, 326, 327
459, 442, 440, 387
460, 388, 381, 330
461, 388, 329, 386
462, 391, 327, 331
463, 456, 403, 455
464, 415, 358, 355
465, 398, 320, 390
466, 392, 331, 332
467, 463, 407, 456
468, 393, 332, 333
469, 444, 443, 391
470, 395, 393, 333
471, 448, 395, 446
472, 394, 324, 252
473, 449, 322, 398
474, 497, 383, 451
475, 494, 493, 445
476, 396, 380, 336
477, 396, 338, 382
478, 397, 334, 264
479, 397, 343, 385
480, 536, 535, 493
481, 398, 322, 320
482, 399, 262, 342
483, 419, 418, 364
484, 400, 356, 289
485, 411, 344, 345
486, 401, 352, 356
487, 453, 356, 400
488, 414, 360, 358
489, 415, 355, 406
490, 403, 348, 351
491, 404, 351, 353
492, 408, 404, 353
493, 457, 408, 454
494, 405, 345, 347
495, 420, 367, 366
496, 406, 355, 357
497, 413, 357, 354
498, 443, 442, 389
499, 407, 349, 348
500, 408, 353, 352
501, 614, 602, 610
502, 409, 346, 350
503, 421, 409, 369
504, 421, 369, 367
505, 410, 405, 347
506, 461, 459, 411
507, 411, 400, 344
508, 463, 412, 407
509, 413, 354, 412
510, 492, 490, 443
511, 413, 406, 357
512, 466, 402, 414
513, 414, 402, 360
514, 464, 406, 462
515, 467, 415, 464
516, 416, 368, 306
517, 425, 361, 370
518, 417, 350, 312
519, 417, 299, 369
520, 424, 362, 418
521, 418, 362, 364
522, 419, 399, 342
523, 419, 342, 384
524, 422, 366, 365
525, 423, 365, 368
526, 460, 409, 421
527, 421, 367, 420
528, 423, 422, 365
529, 504, 500, 453
530, 468, 368, 416
531, 432, 428, 375
532, 499, 469, 418
533, 424, 370, 362
534, 425, 416, 361
535, 425, 370, 424
536, 426, 325, 311
537, 436, 311, 378
538, 427, 371, 372
539, 427, 372, 359
540, 514, 430, 478
541, 432, 375, 380
542, 523, 482, 491
543, 449, 394, 322
544, 499, 430, 469
545, 430, 384, 377
546, 431, 382, 381
547, 437, 381, 388
548, 439, 380, 396
549, 588, 584, 556
550, 433, 376, 379
551, 438, 433, 379
552, 434, 396, 382
553, 484, 431, 481
554, 554, 483, 435
555, 435, 397, 385
556, 436, 319, 376
557, 475, 436, 376
558, 441, 388, 386
559, 591, 589, 560
560, 438, 379, 317
561, 491, 373, 429
562, 439, 432, 380
563, 439, 396, 434
564, 440, 386, 387
565, 442, 387, 389
566, 441, 437, 388
567, 441, 386, 440
568, 443, 389, 391
569, 529, 526, 487
570, 444, 391, 392
571, 544, 502, 543
572, 445, 392, 393
573, 493, 492, 444
574, 448, 393, 395
575, 599, 571, 550
576, 446, 395, 383
577, 480, 429, 449
578, 450, 390, 447
579, 447, 390, 374
580, 448, 445, 393
581, 495, 494, 448
582, 449, 429, 394
583, 498, 398, 450
584, 537, 536, 494
585, 450, 398, 390
586, 451, 383, 334
587, 451, 397, 435
588, 452, 321, 315
589, 476, 371, 427
590, 453, 401, 356
591, 459, 400, 411
592, 454, 408, 401
593, 500, 401, 453
594, 455, 403, 404
595, 457, 455, 404
596, 465, 412, 463
597, 456, 407, 403
598, 457, 404, 408
599, 526, 524, 481
600, 461, 405, 458
601, 458, 405, 410
602, 516, 471, 472
603, 459, 453, 400
604, 460, 410, 409
605, 471, 460, 421
606, 471, 458, 460
607, 505, 458, 471
608, 462, 406, 413
609, 465, 413, 412
610, 532, 531, 489
611, 490, 489, 442
612, 467, 466, 414
613, 464, 415, 406
614, 509, 508, 462
615, 465, 462, 413
616, 477, 476, 427
617, 467, 414, 415
618, 511, 464, 508
619, 512, 466, 467
620, 468, 423, 368
621, 474, 416, 425
622, 470, 424, 469
623, 469, 424, 418
624, 514, 469, 430
625, 470, 425, 424
626, 472, 420, 422
627, 472, 471, 420
628, 473, 422, 423
629, 513, 423, 468
630, 552, 515, 521
631, 528, 484, 524
632, 474, 468, 416
633, 474, 425, 470
634, 475, 385, 426
635, 475, 426, 436
636, 477, 427, 402
637, 519, 374, 476
638, 520, 466, 512
639, 520, 477, 466
640, 479, 428, 432
641, 479, 478, 428
642, 485, 432, 439
643, 586, 521, 522
644, 561, 523, 534
645, 498, 449, 398
646, 481, 431, 437
647, 487, 437, 441
648, 534, 523, 491
649, 554, 482, 483
650, 525, 483, 523
651, 483, 451, 435
652, 542, 540, 500
653, 484, 434, 431
654, 485, 479, 432
655, 486, 485, 439
656, 486, 439, 434
657, 558, 524, 557
658, 488, 441, 440
659, 503, 457, 501
660, 489, 440, 442
661, 531, 529, 488
662, 490, 442, 443
663, 506, 456, 502
664, 492, 443, 444
665, 510, 463, 506
666, 491, 438, 373
667, 534, 429, 480
668, 493, 444, 445
669, 510, 465, 463
670, 494, 445, 448
671, 535, 533, 492
672, 495, 448, 446
673, 539, 498, 450
674, 538, 446, 497
675, 539, 530, 498
676, 496, 450, 447
677, 549, 508, 548
678, 497, 446, 383
679, 497, 451, 483
680, 498, 480, 449
681, 539, 450, 496
682, 499, 418, 419
683, 499, 384, 430
684, 500, 454, 401
685, 504, 453, 459
686, 501, 457, 454
687, 540, 454, 500
688, 502, 456, 455
689, 503, 502, 455
690, 503, 455, 457
691, 612, 600, 601
692, 507, 459, 461
693, 577, 545, 507
694, 505, 461, 458
695, 517, 516, 472
696, 533, 532, 490
697, 506, 463, 456
698, 507, 504, 459
699, 507, 461, 505
700, 508, 464, 462
701, 509, 462, 465
702, 510, 509, 465
703, 580, 547, 579
704, 546, 506, 544
705, 547, 510, 546
706, 550, 511, 549
707, 511, 467, 464
708, 520, 519, 477
709, 512, 467, 511
710, 513, 473, 423
711, 518, 468, 474
712, 515, 470, 514
713, 514, 470, 469
714, 521, 515, 514
715, 515, 474, 470
716, 516, 505, 471
717, 517, 472, 473
718, 545, 542, 504
719, 551, 473, 513
720, 518, 513, 468
721, 518, 474, 515
722, 519, 447, 374
723, 519, 476, 477
724, 555, 520, 512
725, 520, 496, 519
726, 522, 479, 485
727, 522, 521, 479
728, 527, 485, 486
729, 586, 584, 552
730, 561, 538, 525
731, 523, 483, 482
732, 524, 484, 481
733, 526, 481, 487
734, 561, 525, 523
735, 525, 497, 483
736, 529, 487, 488
737, 560, 557, 526
738, 528, 527, 486
739, 576, 573, 542
740, 528, 486, 484
741, 601, 600, 572
742, 531, 488, 489
743, 543, 503, 541
744, 596, 561, 567
745, 530, 480, 498
746, 532, 489, 490
747, 575, 543, 574
748, 533, 490, 492
749, 578, 544, 575
750, 535, 492, 493
751, 579, 546, 578
752, 534, 491, 429
753, 567, 561, 534
754, 536, 493, 494
755, 548, 509, 547
756, 537, 494, 495
757, 581, 548, 580
758, 570, 495, 538
759, 571, 565, 539
760, 538, 495, 446
761, 538, 497, 525
762, 582, 549, 581
763, 571, 496, 555
764, 540, 501, 454
765, 542, 500, 504
766, 541, 503, 501
767, 572, 501, 540
768, 545, 504, 507
769, 590, 558, 587
770, 562, 560, 529
771, 543, 502, 503
772, 563, 562, 531
773, 544, 506, 502
774, 577, 507, 505
775, 610, 603, 583
776, 564, 563, 532
777, 546, 510, 506
778, 566, 564, 533
779, 547, 509, 510
780, 568, 566, 535
781, 548, 508, 509
782, 569, 568, 536
783, 549, 511, 508
784, 611, 597, 569
785, 550, 512, 511
786, 551, 517, 473
787, 553, 513, 518
788, 552, 518, 515
789, 556, 522, 527
790, 553, 551, 513
791, 553, 518, 552
792, 554, 435, 475
793, 554, 475, 433
794, 555, 496, 520
795, 555, 512, 550
796, 559, 527, 528
797, 585, 553, 584
798, 557, 524, 526
799, 560, 526, 529
800, 573, 572, 540
801, 558, 528, 524
802, 559, 556, 527
803, 559, 528, 558
804, 562, 529, 531
805, 615, 600, 612
806, 567, 534, 480
807, 596, 567, 530
808, 563, 531, 532
809, 604, 591, 592
810, 564, 532, 533
811, 605, 592, 593
812, 566, 533, 535
813, 606, 593, 594
814, 598, 570, 596
815, 565, 530, 539
816, 568, 535, 536
817, 607, 594, 595
818, 567, 480, 530
819, 596, 570, 561
820, 569, 536, 537
821, 608, 595, 597
822, 617, 611, 598
823, 611, 609, 597
824, 570, 537, 495
825, 570, 538, 561
826, 571, 539, 496
827, 571, 555, 550
828, 572, 541, 501
829, 573, 540, 542
830, 576, 542, 545
831, 602, 601, 573
832, 574, 543, 541
833, 600, 541, 572
834, 592, 591, 562
835, 575, 544, 543
836, 603, 545, 577
837, 616, 614, 610
838, 577, 516, 517
839, 583, 577, 517
840, 593, 592, 563
841, 578, 546, 544
842, 594, 593, 564
843, 579, 547, 546
844, 595, 594, 566
845, 580, 548, 547
846, 597, 595, 568
847, 581, 549, 548
848, 599, 550, 582
849, 582, 550, 549
850, 583, 517, 551
851, 585, 551, 553
852, 584, 553, 552
853, 616, 584, 588
854, 610, 602, 576
855, 585, 583, 551
856, 586, 552, 521
857, 586, 522, 556
858, 587, 558, 557
859, 589, 587, 557
860, 588, 556, 559
861, 590, 588, 559
862, 589, 557, 560
863, 591, 560, 562
864, 590, 559, 558
865, 613, 601, 602
866, 592, 562, 563
867, 615, 591, 604
868, 593, 563, 564
869, 605, 604, 592
870, 594, 564, 566
871, 606, 605, 593
872, 595, 566, 568
873, 607, 606, 594
874, 597, 568, 569
875, 608, 607, 595
876, 596, 530, 565
877, 617, 599, 611
878, 611, 569, 598
879, 609, 608, 597
880, 598, 569, 537
881, 598, 537, 570
882, 599, 565, 571
883, 609, 599, 582
884, 600, 574, 541
885, 601, 572, 573
886, 602, 573, 576
887, 613, 612, 601
888, 610, 576, 603
889, 614, 613, 602
890, 603, 576, 545
891, 603, 577, 583
892, 604, 575, 574
893, 615, 574, 600
894, 605, 578, 575
895, 605, 575, 604
896, 606, 579, 578
897, 606, 578, 605
898, 607, 580, 579
899, 607, 579, 606
900, 608, 581, 580
901, 608, 580, 607
902, 609, 582, 581
903, 609, 581, 608
904, 610, 583, 585
905, 616, 610, 585
906, 617, 598, 596
907, 611, 599, 609
908, 612, 587, 589
909, 615, 612, 589
910, 613, 590, 587
911, 613, 587, 612
912, 614, 588, 590
913, 614, 590, 613
914, 615, 589, 591
915, 615, 604, 574
916, 616, 585, 584
917, 616, 588, 614
918, 617, 596, 565
919, 617, 565, 599
920, 618, 314, 208
921, 618, 316, 372
 922, 637,   2,  25
 923, 741, 740, 705
 924, 641, 111, 640
 925, 702, 117, 118
 926, 705, 661, 662
 927,  13,   1,  89
 928, 631,  13,  89
 929, 655,  91, 654
 930, 632,  15,  14
 931, 666,  16,  15
 932, 664,  17,  16
 933, 634,  18, 633
 934, 714, 672, 712
 935, 628, 627,  20
 936, 635,  21, 627
 937, 723, 720, 682
 938, 620, 619, 129
 939, 630,  25,  24
 940, 101,   6, 102
 941, 649, 102, 103
 942, 678, 648, 647
 943, 679, 646, 645
 944, 718, 692, 650
 945, 681, 643, 676
 946, 729, 689, 728
 947, 730, 687, 692
 948, 680, 679, 645
 949, 653,  93, 652
 950, 687, 652, 651
 951, 715, 708, 666
 952, 736,  89,  90
 953, 117, 116,   7
 954, 702, 675, 116
 955, 735, 675, 702
 956, 673, 114, 115
 957, 657, 621, 622
 958, 639, 113, 638
 959, 640, 112, 639
 960, 642, 110, 641
 961, 643, 109, 642
 962, 644, 108, 643
 963, 645, 107, 644
 964, 646, 106, 645
 965, 647, 105, 646
 966, 648, 104, 647
 967, 649, 103, 648
 968, 717, 674, 638
 969, 703, 120, 659
 970, 659, 120, 121
 971, 660, 122, 621
 972, 621, 122, 123
 973, 622, 621, 123
 974, 623, 622, 124
 975, 624, 623, 125
 976, 626, 625, 127
 977, 695, 626, 619
 978, 626,   8, 128
 979, 656, 637, 630
 980, 619, 128, 129
 981, 620, 129, 130
 982, 636,  23, 629
 983, 629,  23,  22
 984, 836, 777, 807
 985, 622, 123, 124
 986, 623, 124, 125
 987, 683, 677, 640
 988, 624, 125, 126
 989, 662, 623, 624
 990, 625, 624, 126
 991, 661, 657, 622
 992, 625, 126, 127
 993, 663, 662, 624
 994, 626, 127,   8
 995, 626, 128, 619
 996, 627,  21,  20
 997, 628,  20,  19
 998, 634,  19,  18
 999, 685,  96,  97
1000, 636, 630,  24
1001, 635, 629,  22
1002, 637, 620, 130
1003, 636,  24,  23
1004, 632,  14, 631
1005, 631,  14,  13
1006, 654,  92, 653
1007, 666,  15, 632
1008, 633,  18,  17
1009, 652,  94, 651
1010, 651,  95, 650
1011, 634, 628,  19
1012, 635,  22,  21
1013, 682, 641, 677
1014, 667, 629, 665
1015, 670, 630, 636
1016, 637, 130,   2
1017, 637,  25, 630
1018, 638, 113, 114
1019, 773, 735, 658
1020, 683, 639, 674
1021, 639, 112, 113
1022, 741, 705, 704
1023, 640, 111, 112
1024, 749, 748, 714
1025, 641, 110, 111
1026, 711, 710, 665
1027, 642, 109, 110
1028, 672, 634, 669
1029, 643, 108, 109
1030, 689, 688,  98
1031, 644, 107, 108
1032, 728, 690, 700
1033, 645, 106, 107
1034, 684, 646, 679
1035, 646, 105, 106
1036, 690, 689,  99
1037, 647, 104, 105
1038, 700, 648, 678
1039, 648, 103, 104
1040, 691, 101, 649
1041, 649, 101, 102
1042, 716, 633, 664
1043, 650,  95,  96
1044, 731, 687, 730
1045, 651,  94,  95
1046, 733, 686, 732
1047, 652,  93,  94
1048, 696, 655, 694
1049, 653,  92,  93
1050, 694, 654, 686
1051, 654,  91,  92
1052, 736, 655, 696
1053, 655,  90,  91
1054, 656, 620, 637
1055, 667, 636, 629
1056, 661, 622, 623
1057, 699, 663, 695
1058, 658, 118, 119
1059, 703, 119, 120
1060, 660, 121, 122
1061, 660, 659, 121
1062, 707, 621, 657
1063, 707, 701, 660
1064, 662, 661, 623
1065, 847, 783, 737
1066, 663, 624, 625
1067, 697, 695, 619
1068, 695, 663, 625
1069, 698, 620, 656
1070, 664, 633,  17
1071, 666, 664,  16
1072, 665, 629, 635
1073, 671, 635, 627
1074, 768, 731, 761
1075, 715, 632, 696
1076, 847, 709, 783
1077, 670, 636, 667
1078, 668, 627, 628
1079, 672, 628, 634
1080, 669, 634, 633
1081, 693, 652, 687
1082, 746, 710, 745
1083, 670, 656, 630
1084, 671, 665, 635
1085, 671, 627, 668
1086, 750, 669, 716
1087, 672, 668, 628
1088, 673, 638, 114
1089, 675, 673, 115
1090, 674, 639, 638
1091, 717, 638, 673
1092, 675, 115, 116
1093, 702, 116, 117
1094, 676, 643, 642
1095, 682, 642, 641
1096, 677, 641, 640
1097, 683, 640, 639
1098, 688, 685,  97
1099, 684, 647, 646
1100, 680, 645, 644
1101, 681, 680, 644
1102, 724, 676, 720
1103, 725, 681, 724
1104, 681, 644, 643
1105, 748, 747, 713
1106, 781, 747, 778
1107, 682, 676, 642
1108, 727, 726, 683
1109, 771, 764, 737
1110, 766, 729, 758
1111, 684, 678, 647
1112, 685, 650,  96
1113, 688,  97,  98
1114, 686, 654, 653
1115, 693, 653, 652
1116, 692, 651, 650
1117, 692, 687, 651
1118, 689,  98,  99
1119, 729, 688, 689
1120, 690,  99, 100
1121, 758, 728, 754
1122, 691, 690, 100
1123, 700, 690, 691
1124, 691, 100, 101
1125, 700, 691, 649
1126, 718, 650, 685
1127, 759, 757, 721
1128, 732, 693, 731
1129, 693, 686, 653
1130, 797, 774, 762
1131, 694, 655, 654
1132, 695, 625, 626
1133, 697, 619, 620
1134, 696, 632, 631
1135, 736, 696, 631
1136, 699, 695, 697
1137, 698, 697, 620
1138, 847, 656, 670
1139, 709, 670, 667
1140, 704, 663, 699
1141, 737, 697, 698
1142, 700, 649, 648
1143, 754, 728, 700
1144, 701, 659, 660
1145, 744, 739, 707
1146, 702, 118, 658
1147, 735, 702, 658
1148, 703, 658, 119
1149, 743, 659, 701
1150, 705, 662, 704
1151, 704, 662, 663
1152, 726, 723, 677
1153, 706, 661, 705
1154, 807, 777, 739
1155, 706, 657, 661
1156, 707, 660, 621
1157, 744, 657, 706
1158, 762, 733, 732
1159, 708, 664, 666
1160, 710, 667, 665
1161, 710, 709, 667
1162, 711, 665, 671
1163, 767, 723, 726
1164, 713, 671, 668
1165, 747, 745, 711
1166, 722, 721, 679
1167, 712, 672, 669
1168, 713, 711, 671
1169, 714, 713, 668
1170, 714, 668, 672
1171, 756, 724, 755
1172, 715, 666, 632
1173, 751, 696, 694
1174, 716, 669, 633
1175, 716, 664, 708
1176, 735, 717, 673
1177, 773, 770, 735
1178, 734, 685, 688
1179, 721, 719, 684
1180, 719, 678, 684
1181, 721, 684, 679
1182, 720, 676, 682
1183, 723, 682, 677
1184, 753, 730, 692
1185, 722, 679, 680
1186, 725, 680, 681
1187, 786, 761, 730
1188, 726, 677, 683
1189, 767, 726, 760
1190, 724, 681, 676
1191, 788, 787, 755
1192, 765, 725, 756
1193, 725, 722, 680
1194, 727, 683, 674
1195, 767, 763, 723
1196, 752, 674, 717
1197, 799, 785, 752
1198, 728, 689, 690
1199, 754, 700, 678
1200, 790, 758, 757
1201, 734, 688, 729
1202, 761, 731, 730
1203, 753, 692, 718
1204, 762, 738, 733
1205, 731, 693, 687
1206, 751, 738, 715
1207, 732, 686, 693
1208, 751, 733, 738
1209, 733, 694, 686
1210, 794, 766, 790
1211, 734, 718, 685
1212, 735, 673, 675
1213, 799, 773, 743
1214, 736, 631,  89
1215, 736,  90, 655
1216, 764, 699, 737
1217, 737, 699, 697
1218, 742, 708, 738
1219, 738, 708, 715
1220, 739, 701, 707
1221, 836, 810, 785
1222, 740, 706, 705
1223, 800, 776, 741
1224, 764, 741, 704
1225, 801, 746, 780
1226, 768, 762, 732
1227, 742, 716, 708
1228, 743, 703, 659
1229, 777, 701, 739
1230, 744, 707, 657
1231, 782, 706, 740
1232, 745, 710, 711
1233, 747, 711, 713
1234, 783, 746, 771
1235, 746, 709, 710
1236, 748, 713, 714
1237, 805, 778, 804
1238, 749, 714, 712
1239, 779, 778, 748
1240, 784, 712, 750
1241, 831, 813, 830
1242, 750, 712, 669
1243, 750, 716, 742
1244, 751, 715, 696
1245, 751, 694, 733
1246, 752, 727, 674
1247, 770, 752, 717
1248, 769, 718, 734
1249, 765, 722, 725
1250, 754, 678, 719
1251, 758, 754, 719
1252, 755, 724, 720
1253, 763, 720, 723
1254, 845, 841, 840
1255, 756, 725, 724
1256, 757, 719, 721
1257, 759, 721, 722
1258, 758, 729, 728
1259, 758, 719, 757
1260, 813, 787, 812
1261, 794, 790, 791
1262, 760, 726, 727
1263, 772, 739, 744
1264, 775, 750, 742
1265, 786, 730, 753
1266, 774, 738, 762
1267, 768, 732, 731
1268, 796, 767, 795
1269, 763, 755, 720
1270, 764, 704, 699
1271, 783, 771, 737
1272, 765, 759, 722
1273, 789, 756, 787
1274, 769, 734, 766
1275, 766, 734, 729
1276, 823, 807, 772
1277, 818, 815, 796
1278, 840, 803, 817
1279, 803, 775, 797
1280, 791, 790, 757
1281, 769, 753, 718
1282, 770, 717, 735
1283, 799, 743, 777
1284, 780, 746, 745
1285, 800, 764, 771
1286, 782, 772, 744
1287, 828, 810, 823
1288, 773, 658, 703
1289, 773, 703, 743
1290, 775, 742, 774
1291, 774, 742, 738
1292, 797, 762, 768
1293, 817, 797, 792
1294, 776, 740, 741
1295, 781, 780, 745
1296, 777, 743, 701
1297, 836, 799, 777
1298, 778, 747, 748
1299, 779, 748, 749
1300, 809, 784, 803
1301, 814, 789, 813
1302, 801, 800, 771
1303, 781, 745, 747
1304, 832, 830, 812
1305, 806, 781, 805
1306, 782, 744, 706
1307, 808, 740, 776
1308, 847, 737, 698
1309, 783, 709, 746
1310, 784, 749, 712
1311, 784, 750, 775
1312, 785, 760, 727
1313, 785, 727, 752
1314, 798, 753, 769
1315, 793, 765, 789
1316, 787, 756, 755
1317, 788, 755, 763
1318, 796, 763, 767
1319, 842, 828, 802
1320, 793, 791, 759
1321, 789, 765, 756
1322, 790, 766, 758
1323, 791, 757, 759
1324, 793, 759, 765
1325, 829, 791, 816
1326, 792, 768, 761
1327, 811, 761, 786
1328, 844, 841, 843
1329, 845, 840, 827
1330, 798, 769, 794
1331, 794, 769, 766
1332, 795, 767, 760
1333, 802, 772, 782
1334, 842, 838, 834
1335, 796, 788, 763
1336, 797, 775, 774
1337, 797, 768, 792
1338, 816, 793, 814
1339, 798, 786, 753
1340, 799, 752, 770
1341, 799, 770, 773
1342, 800, 741, 764
1343, 801, 771, 746
1344, 806, 780, 781
1345, 820, 800, 801
1346, 808, 802, 782
1347, 824, 805, 822
1348, 817, 803, 797
1349, 803, 784, 775
1350, 804, 778, 779
1351, 826, 779, 809
1352, 815, 812, 788
1353, 805, 781, 778
1354, 825, 821, 808
1355, 806, 801, 780
1356, 807, 739, 772
1357, 823, 810, 807
1358, 808, 782, 740
1359, 825, 776, 820
1360, 809, 779, 749
1361, 809, 749, 784
1362, 810, 795, 760
1363, 810, 760, 785
1364, 811, 792, 761
1365, 819, 786, 798
1366, 812, 787, 788
1367, 815, 788, 796
1368, 846, 843, 845
1369, 813, 789, 787
1370, 833, 816, 814
1371, 814, 793, 789
1372, 818, 796, 795
1373, 837, 832, 834
1374, 833, 829, 816
1375, 816, 791, 793
1376, 827, 792, 811
1377, 840, 809, 803
1378, 828, 823, 802
1379, 821, 802, 808
1380, 819, 811, 786
1381, 829, 819, 798
1382, 820, 776, 800
1383, 820, 801, 806
1384, 825, 808, 776
1385, 839, 838, 825
1386, 822, 805, 804
1387, 841, 804, 826
1388, 823, 772, 802
1389, 842, 802, 821
1390, 834, 832, 815
1391, 824, 806, 805
1392, 839, 820, 806
1393, 839, 825, 820
1394, 845, 843, 841
1395, 826, 804, 779
1396, 827, 817, 792
1397, 835, 811, 819
1398, 828, 818, 795
1399, 828, 795, 810
1400, 829, 798, 794
1401, 829, 794, 791
1402, 830, 813, 812
1403, 832, 812, 815
1404, 846, 845, 835
1405, 831, 814, 813
1406, 834, 815, 818
1407, 844, 832, 837
1408, 833, 819, 829
1409, 833, 814, 831
1410, 842, 834, 818
1411, 838, 837, 834
1412, 835, 827, 811
1413, 835, 819, 833
1414, 836, 785, 799
1415, 836, 807, 810
1416, 837, 824, 822
1417, 844, 822, 841
1418, 838, 821, 825
1419, 838, 824, 837
1420, 839, 806, 824
1421, 839, 824, 838
1422, 840, 826, 809
1423, 840, 817, 827
1424, 841, 822, 804
1425, 841, 826, 840
1426, 842, 818, 828
1427, 842, 821, 838
1428, 843, 831, 830
1429, 844, 843, 830
1430, 844, 830, 832
1431, 844, 837, 822
1432, 845, 827, 835
1433, 846, 835, 833
1434, 846, 833, 831
1435, 846, 831, 843
1436, 847, 698, 656
1437, 847, 670, 709
1438,  848,    9,  131
1439,  853,  133,  134
1440,  849,  141,  142
1441,  862,  861,   45
1442,  890,   37,   36
1443,  136,   10,  137
1444,  874,  136,  137
1445,  930,  136,  874
1446,  984,  974,  982
1447,  854,  133,  853
1448,  855,  131,  132
1449,  160,   11,  161
1450,  880,  161,  162
1451,  903,  879,  878
1452,  910,  908,  158
1453,  908,  157,  158
1454,  859,  857,   47
1455,  857,   48,   47
1456,  858,   48,  857
1457,  861,  859,   46
1458, 1062, 1045, 1061
1459,  937,  933,  861
1460,  883,   43,   42
1461,  883,   42,  864
1462,  885,  151,  884
1463,  887,   39,  866
1464,  866,   38,  851
1465,  890,   36,  868
1466, 1016,  969, 1014
1467,  896,   33,   32
1468,  901,  171,  172
1469,  871,  141,  849
1470,  872,  140,  871
1471,  873,  139,  872
1472,  955,  930,  874
1473,   49,  169,    4
1474, 1002,  943,  944
1475,  904,  169,   49
1476,  902,  875,  167
1477,  876,  166,  875
1478,  877,  165,  876
1479,  878,  164,  877
1480,  879,  163,  878
1481,  880,  162,  879
1482,  881,  154,  850
1483,  883,  882,   43
1484,  924,  881,  850
1485,  884,  152,  863
1486,  884,  151,  152
1487,  887,  886,   40
1488,  948,  887,  947
1489,  912,  889,  888
1490,  888,  149,  865
1491,  927,  916,  867
1492,  891,  146,  867
1493,  919,  891,  916
1494,  975,  919,  970
1495,  892,  145,  891
1496,  913,  894,  892
1497,  896,  869,   33
1498,  897,  896,   32
1499, 1078, 1059, 1009
1500,  900,  899,   29
1501,  953,  900,  870
1502,  900,    3,  170
1503,  901,  172,  848
1504,  848,  172,    9
1505,  853,  134,  852
1506,  895,  142,  143
1507,  901,  870,  171
1508,  850,  154,  155
1509,  860,  155,  156
1510,  889,  148,  888
1511,  851,   38,   37
1512,  852,  134,  135
1513,  914,  872,  871
1514,  955,  931,  852
1515,  854,  132,  133
1516, 1059, 1024,  982
1517,  855,  132,  854
1518,  957,  901,  954
1519,  855,  848,  131
1520,  856,  156,  157
1521,  944,  859,  933
1522,  902,  167,  168
1523,  859,   47,   46
1524,  904,   49,  858
1525,  858,   49,   48
1526,  861,   46,   45
1527, 1004, 1003,  960
1528,  860,  850,  155
1529,  860,  156,  856
1530,  862,   45,   44
1531,  945,  937,  862
1532,  882,   44,   43
1533,  920,  860,  911
1534,  863,  152,  153
1535,  881,  863,  153
1536,  864,   42,   41
1537,  886,   41,   40
1538,  865,  149,  150
1539,  885,  150,  151
1540,  866,   39,   38
1541, 1049, 1011, 1048
1542,  867,  146,  147
1543,  889,  147,  148
1544,  868,   36,   35
1545,  893,   35,   34
1546,  894,  144,  892
1547,  869,   34,   33
1548,  898,  897,   31
1549,  870,  170,  171
1550,  871,  140,  141
1551,  921,  871,  849
1552,  922,  872,  914
1553,  872,  139,  140
1554,  955,  874,  873
1555,  873,  138,  139
1556,  874,  137,  138
1557,  874,  138,  873
1558,  962,  875,  902
1559,  875,  166,  167
1560,  961,  959,  906
1561,  876,  165,  166
1562,  907,  878,  877
1563,  877,  164,  165
1564,  981,  952,  958
1565,  878,  163,  164
1566,  952,  879,  903
1567,  879,  162,  163
1568,  923,  160,  880
1569,  880,  160,  161
1570,  881,  153,  154
1571,  920,  850,  860
1572,  980,  979,  920
1573,  882,  862,   44
1574,  993,  940,  985
1575,  946,  883,  939
1576,  925,  863,  909
1577,  971,  925,  966
1578,  991,  947,  987
1579,  885,  865,  150
1580,  886,  864,   41
1581,  887,   40,   39
1582,  947,  866,  938
1583, 1065, 1050, 1051
1584,  888,  148,  149
1585,  915,  912,  888
1586,  927,  889,  912
1587,  889,  867,  147
1588,  967,  912,  964
1589,  890,  851,   37
1590,  891,  145,  146
1591,  916,  891,  867
1592,  928,  894,  913
1593,  892,  144,  145
1594,  893,  868,   35
1595,  893,   34,  869
1596,  895,  143,  894
1597,  894,  143,  144
1598,  998,  992,  950
1599,  895,  849,  142
1600,  897,   32,   31
1601,  977,  973,  917
1602,  898,   31,   30
1603, 1081, 1078, 1046
1604,  899,  898,   30
1605, 1042,  983, 1024
1606,  899,   30,   29
1607,  953,  941,  899
1608,  900,   29,    3
1609,  900,  170,  870
1610,  954,  848,  855
1611, 1059,  974,  976
1612,  904,  902,  168
1613,  943,  858,  857
1614,  906,  876,  905
1615, 1003,  958,  960
1616,  904,  168,  169
1617,  943,  904,  858
1618,  905,  876,  875
1619,  944,  943,  857
1620,  959,  907,  906
1621,  906,  877,  876
1622,  907,  903,  878
1623,  907,  877,  906
1624,  908,  856,  157
1625,  910,  158,  159
1626,  940,  939,  864
1627,  909,  863,  881
1628,  923,  910,  159
1629,  952,  923,  880
1630,  911,  860,  856
1631,  963,  856,  908
1632,  915,  888,  865
1633,  949,  890,  934
1634,  919,  892,  891
1635,  950,  896,  936
1636, 1000,  951,  999
1637,  931,  929,  853
1638,  926,  865,  885
1639,  968,  964,  915
1640,  927,  867,  889
1641,  942,  893,  935
1642,  917,  849,  895
1643,  928,  917,  895
1644,  918,  885,  884
1645,  925,  918,  884
1646, 1019,  970, 1016
1647,  919,  913,  892
1648,  979,  965,  924
1649,  924,  850,  920
1650,  921,  914,  871
1651,  921,  849,  917
1652,  984,  955,  922
1653,  922,  873,  872
1654,  923,  159,  160
1655,  952,  880,  879
1656,  946,  945,  882
1657,  924,  909,  881
1658,  925,  884,  863
1659,  966,  909,  965
1660,  926,  915,  865
1661,  926,  885,  918
1662,  949,  938,  851
1663,  969,  927,  967
1664,  928,  895,  894
1665,  978,  977,  928
1666,  932,  854,  929
1667,  929,  854,  853
1668,  930,  852,  135
1669,  930,  135,  136
1670,  931,  853,  852
1671,  974,  922,  914
1672,  957,  954,  932
1673,  932,  855,  854
1674,  933,  859,  861
1675,  937,  861,  862
1676,  934,  890,  868
1677,  942,  868,  893
1678,  935,  893,  869
1679,  950,  869,  896
1680,  936,  896,  897
1681,  951,  897,  898
1682,  945,  862,  882
1683,  997,  937,  996
1684,  938,  866,  851
1685,  949,  851,  890
1686,  939,  883,  864
1687,  940,  864,  886
1688,  948,  886,  887
1689, 1070, 1068, 1052
1690,  941,  898,  899
1691,  956,  953,  870
1692,  970,  916,  969
1693,  942,  934,  868
1694,  943,  902,  904
1695,  944,  857,  859
1696, 1001,  944,  933
1697, 1043, 1001, 1041
1698,  946,  882,  883
1699, 1072, 1069, 1058
1700,  994,  939,  993
1701, 1072, 1058, 1060
1702,  972,  918,  971
1703,  947,  887,  866
1704, 1035,  985, 1030
1705,  948,  940,  886
1706, 1064, 1048, 1050
1707,  989,  934,  986
1708,  978,  913,  975
1709,  950,  935,  869
1710,  951,  936,  897
1711,  951,  898,  941
1712,  958,  952,  903
1713,  952,  910,  923
1714,  953,  899,  900
1715, 1007,  870,  901
1716,  954,  901,  848
1717,  954,  855,  932
1718,  955,  852,  930
1719,  955,  873,  922
1720, 1044, 1007,  957
1721, 1025,  953,  956
1722,  983,  929,  982
1723,  976,  921,  973
1724, 1003,  981,  958
1725,  960,  903,  907
1726, 1021,  963, 1003
1727,  961,  906,  905
1728,  960,  958,  903
1729,  960,  907,  959
1730, 1006,  962, 1002
1731, 1038,  996, 1037
1732,  962,  905,  875
1733,  962,  902,  943
1734,  963,  911,  856
1735,  981,  963,  908
1736,  964,  912,  915
1737,  968,  915,  926
1738,  965,  909,  924
1739,  979,  924,  920
1740, 1015, 1013,  972
1741,  966,  925,  909
1742, 1053, 1014, 1049
1743,  967,  927,  912
1744,  972,  926,  918
1745, 1013, 1010,  968
1746, 1014,  967, 1011
1747,  969,  916,  927
1748,  988,  986,  942
1749,  970,  919,  916
1750, 1015,  971, 1012
1751,  971,  918,  925
1752, 1064, 1063, 1048
1753,  972,  968,  926
1754,  973,  921,  917
1755,  977,  917,  928
1756,  984,  982,  931
1757,  976,  974,  914
1758,  992,  988,  935
1759,  975,  913,  919
1760,  976,  914,  921
1761, 1009,  973, 1008
1762,  978,  928,  913
1763, 1039, 1000, 1026
1764, 1020,  975, 1019
1765, 1040,  998, 1039
1766,  980,  920,  911
1767,  995,  946,  994
1768, 1021,  911,  963
1769,  996,  945,  995
1770,  981,  908,  910
1771,  981,  910,  952
1772,  983,  932,  929
1773,  982,  929,  931
1774, 1079, 1025, 1044
1775,  983,  957,  932
1776,  984,  931,  955
1777,  984,  922,  974
1778,  985,  940,  948
1779,  991,  948,  947
1780,  986,  934,  942
1781,  988,  942,  935
1782,  987,  947,  938
1783,  990,  938,  949
1784,  992,  935,  950
1785, 1055, 1016, 1053
1786, 1011,  964, 1010
1787,  989,  949,  934
1788,  990,  987,  938
1789,  990,  949,  989
1790, 1065, 1064, 1050
1791,  991,  985,  948
1792,  998,  950,  936
1793, 1057, 1019, 1055
1794, 1017, 1012,  966
1795,  993,  939,  940
1796, 1022, 1017,  965
1797,  994,  946,  939
1798, 1023, 1022,  979
1799,  995,  945,  946
1800, 1080, 1045, 1077
1801,  996,  937,  945
1802, 1043, 1005,  961
1803,  997,  933,  937
1804, 1000,  936,  951
1805, 1018, 1008,  977
1806,  999,  951,  941
1807, 1025,  941,  953
1808, 1047, 1046, 1008
1809, 1000,  998,  936
1810, 1006, 1002, 1001
1811, 1001,  933,  997
1812, 1002,  962,  943
1813, 1002,  944, 1001
1814, 1003,  963,  981
1815, 1004,  960,  959
1816, 1005,  959,  961
1817, 1005, 1004,  959
1818, 1077, 1043, 1041
1819, 1073, 1037, 1072
1820, 1006,  961,  905
1821, 1006,  905,  962
1822, 1007,  956,  870
1823, 1007,  901,  957
1824, 1008,  973,  977
1825, 1018,  977,  978
1826, 1081, 1079, 1078
1827, 1009,  976,  973
1828, 1010,  964,  968
1829, 1013,  968,  972
1830, 1028, 1027,  990
1831, 1011,  967,  964
1832, 1012,  971,  966
1833, 1017,  966,  965
1834, 1015,  972,  971
1835, 1029,  987, 1027
1836, 1031, 1028,  989
1837, 1014,  969,  967
1838, 1068, 1065, 1051
1839, 1030,  991, 1029
1840, 1032, 1031,  986
1841, 1016,  970,  969
1842, 1022,  965,  979
1843, 1036,  993, 1035
1844, 1020,  978,  975
1845, 1075, 1046, 1047
1846, 1034, 1032,  988
1847, 1019,  975,  970
1848, 1076, 1075, 1047
1849, 1020, 1018,  978
1850, 1021,  980,  911
1851, 1062, 1003, 1004
1852, 1023,  979,  980
1853, 1073, 1072, 1060
1854, 1061,  980, 1021
1855, 1037,  995, 1033
1856, 1024,  983,  982
1857, 1059,  982,  974
1858, 1025,  999,  941
1859, 1079, 1042, 1078
1860, 1026, 1000,  999
1861, 1026,  999, 1025
1862, 1027,  987,  990
1863, 1028,  990,  989
1864, 1031,  989,  986
1865, 1063, 1049, 1048
1866, 1068, 1051, 1052
1867, 1029,  991,  987
1868, 1070, 1052, 1054
1869, 1030,  985,  991
1870, 1032,  986,  988
1871, 1066, 1053, 1049
1872, 1034,  988,  992
1873, 1067, 1055, 1053
1874, 1033,  995,  994
1875, 1036,  994,  993
1876, 1040,  992,  998
1877, 1057, 1056, 1020
1878, 1070, 1054, 1069
1879, 1035,  993,  985
1880, 1069, 1054, 1058
1881, 1036, 1033,  994
1882, 1080, 1060, 1023
1883, 1037,  996,  995
1884, 1077, 1045, 1005
1885, 1038,  997,  996
1886, 1076, 1056, 1074
1887, 1039,  998, 1000
1888, 1074, 1056, 1057
1889, 1040, 1034,  992
1890, 1041, 1001,  997
1891, 1041,  997, 1038
1892, 1044,  957, 1042
1893, 1042,  957,  983
1894, 1043,  961, 1006
1895, 1043, 1006, 1001
1896, 1044, 1025,  956
1897, 1044,  956, 1007
1898, 1045, 1004, 1005
1899, 1077, 1005, 1043
1900, 1046, 1009, 1008
1901, 1047, 1008, 1018
1902, 1056, 1047, 1018
1903, 1076, 1047, 1056
1904, 1048, 1011, 1010
1905, 1050, 1048, 1010
1906, 1066, 1049, 1063
1907, 1049, 1014, 1011
1908, 1050, 1010, 1013
1909, 1051, 1050, 1013
1910, 1051, 1013, 1015
1911, 1052, 1051, 1015
1912, 1052, 1015, 1012
1913, 1054, 1052, 1012
1914, 1067, 1053, 1066
1915, 1053, 1016, 1014
1916, 1054, 1012, 1017
1917, 1058, 1054, 1017
1918, 1071, 1055, 1067
1919, 1055, 1019, 1016
1920, 1056, 1018, 1020
1921, 1057, 1020, 1019
1922, 1071, 1057, 1055
1923, 1074, 1057, 1071
1924, 1058, 1017, 1022
1925, 1060, 1058, 1022
1926, 1059,  976, 1009
1927, 1078, 1009, 1046
1928, 1060, 1022, 1023
1929, 1080, 1073, 1060
1930, 1061, 1023,  980
1931, 1062, 1061, 1021
1932, 1062, 1021, 1003
1933, 1062, 1004, 1045
1934, 1063, 1027, 1028
1935, 1066, 1063, 1028
1936, 1064, 1029, 1027
1937, 1064, 1027, 1063
1938, 1065, 1030, 1029
1939, 1065, 1029, 1064
1940, 1066, 1028, 1031
1941, 1067, 1066, 1031
1942, 1067, 1031, 1032
1943, 1071, 1067, 1032
1944, 1068, 1035, 1030
1945, 1068, 1030, 1065
1946, 1069, 1033, 1036
1947, 1070, 1069, 1036
1948, 1070, 1036, 1035
1949, 1070, 1035, 1068
1950, 1071, 1032, 1034
1951, 1074, 1071, 1034
1952, 1072, 1037, 1033
1953, 1072, 1033, 1069
1954, 1080, 1077, 1073
1955, 1073, 1038, 1037
1956, 1074, 1034, 1040
1957, 1076, 1074, 1040
1958, 1075, 1039, 1026
1959, 1081, 1026, 1079
1960, 1076, 1040, 1039
1961, 1076, 1039, 1075
1962, 1077, 1041, 1038
1963, 1077, 1038, 1073
1964, 1078, 1042, 1024
1965, 1078, 1024, 1059
1966, 1079, 1026, 1025
1967, 1079, 1044, 1042
1968, 1080, 1023, 1061
1969, 1080, 1061, 1045
1970, 1081, 1046, 1075
1971, 1081, 1075, 1026
1972, 1082,  134,  133
1973, 1083,  134, 1082
1974, 1109,  192, 1108
1975, 1085,  135, 1083
1976, 1086,    8,  127
1977, 1087,  175, 1086
1978, 1130, 1082, 1129
1979, 1088,  173,  174
1980, 1091, 1090,  131
1981, 1145, 1091, 1088
1982, 1091,    9,  173
1983, 1108,  193, 1107
1984,  117,    7,  176
1985, 1105,  176,  177
1986, 1115, 1104, 1103
1987, 1121, 1120,  119
1988, 1120,  120,  119
1989, 1111,  190, 1110
1990, 1093,  121, 1092
1991, 1127, 1126, 1084
1992, 1095,  124, 1084
1993, 1096,  125, 1095
1994, 1097,  127,  126
1995,  185,  184,   12
1996, 1098,  184,  185
1997, 1114,  187, 1113
1998, 1099,  182,  183
1999, 1100,  181,  182
2000, 1102,  180, 1101
2001, 1103,  179, 1102
2002, 1104,  178, 1103
2003, 1105,  177, 1104
2004,  197,   10,  136
2005, 1085,  136,  135
2006, 1132, 1106,  195
2007, 1132,  195,  196
2008, 1129, 1082, 1089
2009, 1096,  126,  125
2010, 1165, 1106, 1132
2011, 1110,  191, 1109
2012, 1192, 1191, 1170
2013, 1112,  189, 1111
2014, 1178, 1143, 1136
2015, 1155, 1154, 1118
2016, 1133,  185,  186
2017, 1089,  133,  132
2018, 1140, 1139, 1109
2019, 1149, 1132, 1137
2020, 1083,  135,  134
2021, 1084,  124,  123
2022, 1094,  123,  122
2023, 1137,  197, 1085
2024, 1085,  197,  136
2025, 1086,  175,    8
2026, 1174, 1148, 1147
2027, 1107,  194, 1106
2028, 1087,  174,  175
2029, 1163, 1130, 1129
2030, 1088,  174, 1087
2031, 1089, 1082,  133
2032, 1090, 1089,  132
2033, 1090,  132,  131
2034, 1131, 1129, 1089
2035, 1091,  131,    9
2036, 1091,  173, 1088
2037, 1092,  121,  120
2038, 1138, 1111, 1134
2039, 1094,  122, 1093
2040, 1093,  122,  121
2041, 1139, 1134, 1110
2042, 1094, 1084,  123
2043, 1095,  125,  124
2044, 1141, 1108, 1107
2045, 1124, 1096, 1123
2046, 1097,  126, 1096
2047, 1146, 1086, 1097
2048, 1097, 1086,  127
2049, 1099,  183, 1098
2050, 1098,  183,  184
2051, 1113,  188, 1112
2052, 1100,  182, 1099
2053, 1143, 1099, 1098
2054, 1101,  181, 1100
2055, 1183, 1156, 1173
2056, 1101,  180,  181
2057, 1119, 1103, 1102
2058, 1102,  179,  180
2059, 1162, 1144, 1151
2060, 1103,  178,  179
2061, 1144, 1104, 1115
2062, 1104,  177,  178
2063, 1125,  117, 1105
2064, 1105,  117,  176
2065, 1148, 1088, 1087
2066, 1106,  194,  195
2067, 1141, 1107, 1135
2068, 1107,  193,  194
2069, 1126, 1123, 1095
2070, 1108,  192,  193
2071, 1128, 1094, 1093
2072, 1109,  191,  192
2073, 1128, 1093, 1122
2074, 1110,  190,  191
2075, 1152, 1151, 1115
2076, 1111,  189,  190
2077, 1142, 1112, 1138
2078, 1112,  188,  189
2079, 1143, 1098, 1133
2080, 1113,  187,  188
2081, 1143, 1133, 1114
2082, 1114,  186,  187
2083, 1116, 1102, 1101
2084, 1173, 1151, 1152
2085, 1118, 1101, 1100
2086, 1154, 1153, 1116
2087, 1117, 1100, 1099
2088, 1136, 1114, 1113
2089, 1118, 1116, 1101
2090, 1118, 1100, 1117
2091, 1119, 1115, 1103
2092, 1119, 1102, 1116
2093, 1120, 1092,  120
2094, 1121,  119,  118
2095, 1125, 1121,  118
2096, 1144, 1125, 1105
2097, 1122, 1093, 1092
2098, 1156, 1092, 1120
2099, 1123, 1096, 1095
2100, 1126, 1095, 1084
2101, 1211, 1146, 1124
2102, 1124, 1097, 1096
2103, 1125,  118,  117
2104, 1144, 1105, 1104
2105, 1127, 1084, 1094
2106, 1182, 1157, 1181
2107, 1128, 1127, 1094
2108, 1167, 1139, 1166
2109, 1175, 1173, 1152
2110, 1161, 1128, 1160
2111, 1131, 1089, 1090
2112, 1164, 1131, 1150
2113, 1165, 1132, 1149
2114, 1130, 1083, 1082
2115, 1145, 1131, 1090
2116, 1147, 1087, 1146
2117, 1137, 1132,  196
2118, 1149, 1085, 1083
2119, 1133, 1098,  185
2120, 1133,  186, 1114
2121, 1134, 1111, 1110
2122, 1139, 1110, 1109
2123, 1159, 1123, 1158
2124, 1135, 1107, 1106
2125, 1142, 1113, 1112
2126, 1138, 1112, 1111
2127, 1137,  196,  197
2128, 1149, 1137, 1085
2129, 1170, 1134, 1167
2130, 1200, 1196, 1195
2131, 1140, 1109, 1108
2132, 1181, 1161, 1179
2133, 1141, 1140, 1108
2134, 1158, 1126, 1157
2135, 1194, 1193, 1174
2136, 1169, 1168, 1141
2137, 1191, 1190, 1171
2138, 1142, 1136, 1113
2139, 1143, 1114, 1136
2140, 1143, 1117, 1099
2141, 1151, 1144, 1115
2142, 1144, 1121, 1125
2143, 1145, 1090, 1091
2144, 1148, 1087, 1147
2145, 1146, 1087, 1086
2146, 1146, 1097, 1124
2147, 1159, 1124, 1123
2148, 1189, 1187, 1168
2149, 1150, 1145, 1148
2150, 1148, 1145, 1088
2151, 1149, 1083, 1130
2152, 1185, 1149, 1130
2153, 1164, 1163, 1129
2154, 1150, 1131, 1145
2155, 1173, 1162, 1151
2156, 1152, 1115, 1119
2157, 1153, 1119, 1116
2158, 1153, 1152, 1119
2159, 1154, 1116, 1118
2160, 1177, 1176, 1154
2161, 1155, 1118, 1117
2162, 1171, 1138, 1170
2163, 1178, 1155, 1117
2164, 1172, 1136, 1142
2165, 1156, 1122, 1092
2166, 1162, 1156, 1120
2167, 1157, 1126, 1127
2168, 1161, 1127, 1128
2169, 1168, 1166, 1140
2170, 1158, 1123, 1126
2171, 1211, 1201, 1147
2172, 1211, 1159, 1201
2173, 1160, 1128, 1122
2174, 1183, 1122, 1156
2175, 1204, 1203, 1198
2176, 1161, 1157, 1127
2177, 1162, 1120, 1121
2178, 1162, 1121, 1144
2179, 1186, 1165, 1185
2180, 1164, 1129, 1131
2181, 1193, 1150, 1174
2182, 1209, 1203, 1208
2183, 1185, 1165, 1149
2184, 1165, 1135, 1106
2185, 1166, 1139, 1140
2186, 1168, 1140, 1141
2187, 1192, 1167, 1188
2188, 1167, 1134, 1139
2189, 1169, 1141, 1135
2190, 1204, 1198, 1199
2191, 1186, 1135, 1165
2192, 1184, 1163, 1164
2193, 1200, 1160, 1183
2194, 1170, 1138, 1134
2195, 1190, 1177, 1172
2196, 1171, 1142, 1138
2197, 1178, 1172, 1155
2198, 1172, 1142, 1171
2199, 1173, 1156, 1162
2200, 1175, 1152, 1153
2201, 1174, 1150, 1148
2202, 1209, 1201, 1180
2203, 1176, 1153, 1154
2204, 1176, 1175, 1153
2205, 1177, 1154, 1155
2206, 1205, 1195, 1176
2207, 1177, 1155, 1172
2208, 1190, 1172, 1171
2209, 1178, 1117, 1143
2210, 1178, 1136, 1172
2211, 1179, 1161, 1160
2212, 1200, 1183, 1196
2213, 1180, 1159, 1158
2214, 1182, 1158, 1157
2215, 1188, 1166, 1187
2216, 1181, 1157, 1161
2217, 1199, 1181, 1197
2218, 1182, 1180, 1158
2219, 1183, 1160, 1122
2220, 1196, 1173, 1175
2221, 1202, 1186, 1184
2222, 1193, 1184, 1164
2223, 1185, 1130, 1163
2224, 1186, 1185, 1163
2225, 1186, 1163, 1184
2226, 1186, 1169, 1135
2227, 1187, 1166, 1168
2228, 1189, 1168, 1169
2229, 1207, 1206, 1197
2230, 1188, 1167, 1166
2231, 1202, 1189, 1169
2232, 1208, 1193, 1194
2233, 1191, 1171, 1170
2234, 1205, 1177, 1190
2235, 1192, 1170, 1167
2236, 1210, 1205, 1207
2237, 1199, 1198, 1182
2238, 1207, 1192, 1206
2239, 1193, 1164, 1150
2240, 1201, 1194, 1174
2241, 1209, 1180, 1198
2242, 1208, 1202, 1184
2243, 1195, 1175, 1176
2244, 1205, 1176, 1177
2245, 1196, 1183, 1173
2246, 1196, 1175, 1195
2247, 1197, 1181, 1179
2248, 1210, 1179, 1200
2249, 1198, 1180, 1182
2250, 1199, 1182, 1181
2251, 1206, 1204, 1199
2252, 1206, 1199, 1197
2253, 1210, 1207, 1197
2254, 1200, 1179, 1160
2255, 1201, 1174, 1147
2256, 1201, 1159, 1180
2257, 1202, 1169, 1186
2258, 1208, 1184, 1193
2259, 1203, 1187, 1189
2260, 1208, 1203, 1189
2261, 1204, 1188, 1187
2262, 1204, 1187, 1203
2263, 1205, 1190, 1191
2264, 1207, 1191, 1192
2265, 1206, 1192, 1188
2266, 1206, 1188, 1204
2267, 1210, 1197, 1179
2268, 1207, 1205, 1191
2269, 1209, 1208, 1194
2270, 1208, 1189, 1202
2271, 1209, 1194, 1201
2272, 1209, 1198, 1203
2273, 1210, 1200, 1195
2274, 1210, 1195, 1205
2275, 1211, 1147, 1146
2276, 1211, 1124, 1159
*Orientation, name=Ori-1
1., 0., 0., 0., 1., 0.
3, 0.
** Region: (CompositeLayup-1-1: Generated From Layup)
*Elset, elset=CompositeLayup-1-1, generate
    1,  2276,     1
** Section: CompositeLayup-1-1
*Shell Section, elset=CompositeLayup-1-1, composite, orientation=Ori-1, layup=CompositeLayup-1, symmetric
0.25, 3, CFRP, 0., Ply-1
0.25, 3, CFRP, 45., Ply-2
0.25, 3, CFRP, 90., Ply-3
0.25, 3, CFRP, -45., Ply-4
*End Part
**  
**
** ASSEMBLY
**
*Assembly, name=Assembly
**  
*Instance, name=Plate-1, part=PLATE
*End Instance
**  
*Nset, nset=Set-1, instance=Plate-1
   6,   7,  12, 102, 103, 104, 105, 106, 107, 108, 109, 110, 111, 112, 113, 114
 115, 116, 176, 177, 178, 179, 180, 181, 182, 183, 184
*Elset, elset=Set-1, instance=Plate-1
  940,  941,  953,  956, 1018, 1021, 1023, 1025, 1027, 1029, 1031, 1033, 1035, 1037, 1039, 1092
 1984, 1985, 1995, 1998, 1999, 2050, 2056, 2058, 2060, 2062
*Nset, nset=Set-2, instance=Plate-1
   4,   5,  11,  50,  51,  52,  53,  54,  55,  56,  57,  58,  59,  60,  61,  62
  63,  64, 161, 162, 163, 164, 165, 166, 167, 168, 169
*Elset, elset=Set-2, instance=Plate-1
   20,   21,   41,   47,   48,  128,  131,  133,  135,  137,  139,  141,  281,  286,  290,  302
 1449, 1450, 1473, 1522, 1559, 1561, 1563, 1565, 1567, 1616
*End Assembly
** 
** MATERIALS
** 
*Material, name=CFRP
*Elastic, type=ENGINEERING CONSTANTS
150000.,9000.,9000., 0.34, 0.34,  0.4,5000.,5000.
5000.,
** ----------------------------------------------------------------
** 
** STEP: Step-1
** 
*Step, name=Step-1, nlgeom=NO
*Static
1., 1., 1e-05, 1.
** 
** BOUNDARY CONDITIONS
** 
** Name: BC-1 Type: Symmetry/Antisymmetry/Encastre
*Boundary
Set-1, ENCASTRE
** Name: DISPLACEMENT Type: Displacement/Rotation
*Boundary
Set-2, 1, 1, 1.26316
** 
** OUTPUT REQUESTS
** 
*Restart, write, frequency=0
** 
** FIELD OUTPUT: F-Output-1
** 
*Output, field
*Element Output, position=NODES, directions=YES
E, 
** 
** HISTORY OUTPUT: H-Output-1
** 
*Output, history, variable=PRESELECT
*End Step
