*Heading
 Elastic fabric composite plate with hole
** Job name: Plate_103 Model name: Model-1
** Generated by: Abaqus/CAE 2024.HF3
*Preprint, echo=NO, model=NO, history=NO, contact=NO
**
** PARTS
**
*Part, name=PLATE
*Node
      1,   45.3638382,   130.424225,           0.
      2,   45.3638382,    65.243515,           0.
      3,   60.6114044,   49.9959526,           0.
      4,   118.340454,   49.9959526,           0.
      5,   118.340454,   130.424225,           0.
      6,           0.,   130.424225,           0.
      7,           0.,   49.9959526,           0.
      8,   30.1162758,   49.9959526,           0.
      9,   45.3638382,   34.7483902,           0.
     10,   45.3638382,           0.,           0.
     11,   118.340454,           0.,           0.
     12,           0.,           0.,           0.
     13,   45.3638382,   126.590065,           0.
     14,   45.3638382,   122.755905,           0.
     15,   45.3638382,   118.921745,           0.
     16,   45.3638382,   115.087585,           0.
     17,   45.3638382,   111.253426,           0.
     18,   45.3638382,   107.419266,           0.
     19,   45.3638382,   103.585106,           0.
     20,   45.3638382,   99.7509537,           0.
     21,   45.3638382,   95.9167938,           0.
     22,   45.3638382,    92.082634,           0.
     23,   45.3638382,   88.2484741,           0.
     24,   45.3638382,   84.4143143,           0.
     25,   45.3638382,   80.5801544,           0.
     26,   45.3638382,   76.7459946,           0.
     27,   45.3638382,   72.9118347,           0.
     28,   45.3638382,   69.0776749,           0.
     29,   49.3101997,   64.7239685,           0.
     30,   52.9876213,   63.2007294,           0.
     31,   56.1454964,    60.777607,           0.
     32,   58.5686188,   57.6197357,           0.
     33,   60.0918541,   53.9423141,           0.
     34,   64.4600067,   49.9959526,           0.
     35,    68.308609,   49.9959526,           0.
     36,   72.1572113,   49.9959526,           0.
     37,   76.0058136,   49.9959526,           0.
     38,   79.8544159,   49.9959526,           0.
     39,   83.7030258,   49.9959526,           0.
     40,   87.5516281,   49.9959526,           0.
     41,   91.4002304,   49.9959526,           0.
     42,   95.2488327,   49.9959526,           0.
     43,    99.097435,   49.9959526,           0.
     44,   102.946037,   49.9959526,           0.
     45,    106.79464,   49.9959526,           0.
     46,   110.643242,   49.9959526,           0.
     47,   114.491844,   49.9959526,           0.
     48,   118.340454,   53.8258705,           0.
     49,   118.340454,   57.6557884,           0.
     50,   118.340454,   61.4857063,           0.
     51,   118.340454,   65.3156204,           0.
     52,   118.340454,   69.1455383,           0.
     53,   118.340454,   72.9754562,           0.
     54,   118.340454,   76.8053741,           0.
     55,   118.340454,   80.6352921,           0.
     56,   118.340454,     84.46521,           0.
     57,   118.340454,   88.2951279,           0.
     58,   118.340454,   92.1250458,           0.
     59,   118.340454,   95.9549637,           0.
     60,   118.340454,   99.7848816,           0.
     61,   118.340454,   103.614799,           0.
     62,   118.340454,   107.444717,           0.
     63,   118.340454,   111.274635,           0.
     64,   118.340454,   115.104553,           0.
     65,   118.340454,   118.934471,           0.
     66,   118.340454,   122.764389,           0.
     67,   118.340454,   126.594307,           0.
     68,    114.49958,   130.424225,           0.
     69,   110.658699,   130.424225,           0.
     70,   106.817825,   130.424225,           0.
     71,   102.976952,   130.424225,           0.
     72,   99.1360779,   130.424225,           0.
     73,   95.2952042,   130.424225,           0.
     74,   91.4543304,   130.424225,           0.
     75,   87.6134567,   130.424225,           0.
     76,    83.772583,   130.424225,           0.
     77,   79.9317093,   130.424225,           0.
     78,   76.0908356,   130.424225,           0.
     79,   72.2499619,   130.424225,           0.
     80,   68.4090881,   130.424225,           0.
     81,   64.5682144,   130.424225,           0.
     82,   60.7273369,   130.424225,           0.
     83,   56.8864632,   130.424225,           0.
     84,   53.0455894,   130.424225,           0.
     85,   49.2047157,   130.424225,           0.
     86,    41.583519,   130.424225,           0.
     87,   37.8031998,   130.424225,           0.
     88,   34.0228806,   130.424225,           0.
     89,   30.2425594,   130.424225,           0.
     90,   26.4622402,   130.424225,           0.
     91,   22.6819191,   130.424225,           0.
     92,   18.9015999,   130.424225,           0.
     93,   15.1212797,   130.424225,           0.
     94,   11.3409595,   130.424225,           0.
     95,   7.56063986,   130.424225,           0.
     96,   3.78031993,   130.424225,           0.
     97,           0.,   126.594307,           0.
     98,           0.,   122.764389,           0.
     99,           0.,   118.934471,           0.
    100,           0.,   115.104553,           0.
    101,           0.,   111.274635,           0.
    102,           0.,   107.444717,           0.
    103,           0.,   103.614799,           0.
    104,           0.,   99.7848816,           0.
    105,           0.,   95.9549637,           0.
    106,           0.,   92.1250458,           0.
    107,           0.,   88.2951279,           0.
    108,           0.,     84.46521,           0.
    109,           0.,   80.6352921,           0.
    110,           0.,   76.8053741,           0.
    111,           0.,   72.9754562,           0.
    112,           0.,   69.1455383,           0.
    113,           0.,   65.3156204,           0.
    114,           0.,   61.4857063,           0.
    115,           0.,   57.6557884,           0.
    116,           0.,   53.8258705,           0.
    117,   3.76453447,   49.9959526,           0.
    118,   7.52906895,   49.9959526,           0.
    119,   11.2936029,   49.9959526,           0.
    120,   15.0581379,   49.9959526,           0.
    121,   18.8226719,   49.9959526,           0.
    122,   22.5872059,   49.9959526,           0.
    123,   26.3517399,   49.9959526,           0.
    124,   30.6358242,   53.9423141,           0.
    125,   32.1590614,   57.6197357,           0.
    126,   34.5821838,    60.777607,           0.
    127,   37.7400589,   63.2007294,           0.
    128,   41.4174805,   64.7239685,           0.
    129,   45.3638382,   30.8874569,           0.
    130,   45.3638382,   27.0265236,           0.
    131,   45.3638382,   23.1655922,           0.
    132,   45.3638382,   19.3046608,           0.
    133,   45.3638382,   15.4437284,           0.
    134,   45.3638382,   11.5827961,           0.
    135,   45.3638382,   7.72186422,           0.
    136,   45.3638382,   3.86093211,           0.
    137,   49.2047157,           0.,           0.
    138,   53.0455894,           0.,           0.
    139,   56.8864632,           0.,           0.
    140,   60.7273369,           0.,           0.
    141,   64.5682144,           0.,           0.
    142,   68.4090881,           0.,           0.
    143,   72.2499619,           0.,           0.
    144,   76.0908356,           0.,           0.
    145,   79.9317093,           0.,           0.
    146,    83.772583,           0.,           0.
    147,   87.6134567,           0.,           0.
    148,   91.4543304,           0.,           0.
    149,   95.2952042,           0.,           0.
    150,   99.1360779,           0.,           0.
    151,   102.976952,           0.,           0.
    152,   106.817825,           0.,           0.
    153,   110.658699,           0.,           0.
    154,    114.49958,           0.,           0.
    155,   118.340454,    3.8458426,           0.
    156,   118.340454,    7.6916852,           0.
    157,   118.340454,   11.5375271,           0.
    158,   118.340454,   15.3833704,           0.
    159,   118.340454,   19.2292118,           0.
    160,   118.340454,   23.0750542,           0.
    161,   118.340454,   26.9208984,           0.
    162,   118.340454,   30.7667408,           0.
    163,   118.340454,   34.6125832,           0.
    164,   118.340454,   38.4584236,           0.
    165,   118.340454,   42.3042679,           0.
    166,   118.340454,   46.1501083,           0.
    167,   60.0918541,   46.0495911,           0.
    168,   58.5686188,   42.3721695,           0.
    169,   56.1454964,   39.2142982,           0.
    170,   52.9876213,   36.7911758,           0.
    171,   49.3101997,   35.2679367,           0.
    172,   41.4174805,   35.2679367,           0.
    173,   37.7400589,   36.7911758,           0.
    174,   34.5821838,   39.2142982,           0.
    175,   32.1590614,   42.3721695,           0.
    176,   30.6358242,   46.0495911,           0.
    177,           0.,   46.1501083,           0.
    178,           0.,   42.3042679,           0.
    179,           0.,   38.4584236,           0.
    180,           0.,   34.6125832,           0.
    181,           0.,   30.7667408,           0.
    182,           0.,   26.9208984,           0.
    183,           0.,   23.0750542,           0.
    184,           0.,   19.2292118,           0.
    185,           0.,   15.3833704,           0.
    186,           0.,   11.5375271,           0.
    187,           0.,    7.6916852,           0.
    188,           0.,    3.8458426,           0.
    189,   3.78031993,           0.,           0.
    190,   7.56063986,           0.,           0.
    191,   11.3409595,           0.,           0.
    192,   15.1212797,           0.,           0.
    193,   18.9015999,           0.,           0.
    194,   22.6819191,           0.,           0.
    195,   26.4622402,           0.,           0.
    196,   30.2425594,           0.,           0.
    197,   34.0228806,           0.,           0.
    198,   37.8031998,           0.,           0.
    199,    41.583519,           0.,           0.
    200,    48.851902,   125.302238,           0.
    201,   59.5061951,   61.1599197,           0.
    202,     62.85355,   52.9322319,           0.
    203,   48.6845055,    105.50219,           0.
    204,   48.6843643,   101.668022,           0.
    205,   48.6843185,   97.8338699,           0.
    206,   48.6846504,   93.9998093,           0.
    207,   48.6862297,   90.1660233,           0.
    208,   48.6895294,   86.3323746,           0.
    209,    48.694664,    82.498642,           0.
    210,   48.7331429,   78.6203156,           0.
    211,   56.4007149,   64.2668304,           0.
    212,   48.7935944,   74.6800079,           0.
    213,   48.7797432,   70.7123795,           0.
    214,   48.2737694,   67.4865646,           0.
    215,   62.9964066,   57.3099327,           0.
    216,   52.6140862,   67.6820526,           0.
    217,   85.6292953,   53.3329849,           0.
    218,   81.7802963,   53.3360786,           0.
    219,   77.9310989,   53.3397636,           0.
    220,   74.0365677,   53.3755074,           0.
    221,   70.0869904,   53.4400673,           0.
    222,   66.1109085,   53.4469948,           0.
    223,   115.044113,   117.003807,           0.
    224,   115.026886,   113.187012,           0.
    225,   115.024071,   109.359245,           0.
    226,   115.023613,   105.529686,           0.
    227,   115.023544,   101.699829,           0.
    228,   115.023529,   97.8699188,           0.
    229,   115.023468,   94.0400162,           0.
    230,   115.023331,   90.2101288,           0.
    231,   115.023109,   86.3802338,           0.
    232,    115.02285,   82.5503082,           0.
    233,   115.022568,   78.7203903,           0.
    234,   115.022285,     74.89048,           0.
    235,   115.021194,   71.0594559,           0.
    236,   115.016212,   67.2226105,           0.
    237,   114.954781,   63.3000183,           0.
    238,   114.827141,   59.2608032,           0.
    239,   114.815231,   55.0906029,           0.
    240,   85.6932678,   127.098679,           0.
    241,   89.5340576,   127.098854,           0.
    242,   93.3748398,    127.09903,           0.
    243,    97.215683,   127.099174,           0.
    244,   101.056541,   127.099274,           0.
    245,   104.993126,   127.039841,           0.
    246,   109.054283,   126.914246,           0.
    247,   113.237465,   126.909264,           0.
    248,   115.056335,   120.785172,           0.
    249,   111.542961,    61.224205,           0.
    250,   111.701279,   72.9741211,           0.
    251,   111.705246,   88.2953873,           0.
    252,   111.714432,   111.255424,           0.
    253,   111.706482,   103.614784,           0.
    254,   111.706352,   95.9550247,           0.
    255,   111.703804,   80.6355896,           0.
    256,   111.650604,   65.2019043,           0.
    257,   111.690681,   69.1234589,           0.
    258,   111.702637,   76.8054581,           0.
    259,   111.615692,   115.084328,           0.
    260,   111.707802,   107.441414,           0.
    261,   111.705849,   92.1252213,           0.
    262,   111.706429,   99.7848969,           0.
    263,   111.704239,   84.4655457,           0.
    264,   115.291428,   124.027481,           0.
    265,   48.6848755,   113.170586,           0.
    266,   52.0696716,   80.5519714,           0.
    267,   48.7178764,   117.067841,           0.
    268,   52.1761551,   76.6457291,           0.
    269,   52.0048828,    99.750946,           0.
    270,   52.0080986,   92.0842896,           0.
    271,   48.6847305,   109.336342,           0.
    272,   52.3259544,   72.5798645,           0.
    273,   52.0051384,   103.584999,           0.
    274,   52.0309296,   84.4148941,           0.
    275,   52.0056915,   95.9173813,           0.
    276,   52.0161591,   88.2517242,           0.
    277,   81.8523788,   127.098663,           0.
    278,   51.7326698,   127.353317,           0.
    279,   62.6368256,   127.107216,           0.
    280,   74.1705704,   127.098442,           0.
    281,   78.0114822,   127.098595,           0.
    282,   87.6141357,   123.773979,           0.
    283,     91.45504,   123.774406,           0.
    284,   95.2970963,   123.774597,           0.
    285,   99.1463089,   123.773682,           0.
    286,   103.095467,    123.73053,           0.
    287,   107.078506,   123.632477,           0.
    288,    89.477562,   53.3310471,           0.
    289,   79.8591919,   56.6880188,           0.
    290,   97.1733475,   53.3283081,           0.
    291,   93.3253403,     53.32938,           0.
    292,     83.71035,   56.6793938,           0.
    293,   75.9701462,   56.7273254,           0.
    294,   72.0383453,    56.825489,           0.
    295,   67.9258041,   56.9931259,           0.
    296,   101.021545,   53.3262405,           0.
    297,   104.857521,   53.3017273,           0.
    298,   108.661888,   53.2838974,           0.
    299,   111.919411,   53.0432281,           0.
    300,   111.443512,   123.113861,           0.
    301,   52.6132851,   123.482658,           0.
    302,    111.00721,   56.8663826,           0.
    303,   108.388268,    94.040451,           0.
    304,   108.388779,   97.8700867,           0.
    305,   108.388695,   101.699699,           0.
    306,   108.387062,   105.528198,           0.
    307,   108.385269,   109.331406,           0.
    308,   108.259384,   113.079033,           0.
    309,   108.383492,    82.551178,           0.
    310,   108.382004,   78.7211533,           0.
    311,    108.38681,   90.2109146,           0.
    312,   108.380363,   74.8905334,           0.
    313,   108.384865,   86.3812485,           0.
    314,   108.389267,    67.097023,           0.
    315,    108.38353,   71.0258636,           0.
    316,   108.400475,   63.1144257,           0.
    317,   111.589775,   118.946404,           0.
    318,   52.0060539,   111.253426,           0.
    319,   52.0197678,   115.166542,           0.
    320,   48.8318405,   121.099869,           0.
    321,   55.3291626,   94.0030212,           0.
    322,   55.3264465,   97.8348999,           0.
    323,   55.3258324,     101.6679,           0.
    324,   55.3379478,   90.1735153,           0.
    325,    55.355114,   86.3451004,           0.
    326,   55.3897514,   82.5057907,           0.
    327,   55.4886856,   78.6621933,           0.
    328,    52.005619,   107.419121,           0.
    329,   83.7732391,   123.773788,           0.
    330,   58.7792091,    127.10733,           0.
    331,    70.329361,   127.098503,           0.
    332,   54.9757652,   127.096725,           0.
    333,   66.4848938,   127.100159,           0.
    334,   76.0913544,   123.773232,           0.
    335,   105.154137,   120.452278,           0.
    336,   101.171959,   120.458252,           0.
    337,   97.2394028,   120.452187,           0.
    338,    93.380249,   120.451088,           0.
    339,   89.5361176,   120.450401,           0.
    340,   79.9323196,    123.77359,           0.
    341,   91.4039612,   56.6658478,           0.
    342,   99.0977402,   56.6578789,           0.
    343,   95.2507706,   56.6622581,           0.
    344,   106.845795,   56.7104187,           0.
    345,   102.991501,   56.7647057,           0.
    346,   74.0362549,   60.1361465,           0.
    347,   77.9258728,   60.0685692,           0.
    348,   81.7931747,   60.0386925,           0.
    349,    87.558197,   56.6722107,           0.
    350,   58.7756729,   80.6339417,           0.
    351,   105.068428,   92.1268005,           0.
    352,   105.122093,   64.9765015,           0.
    353,   105.065498,   88.2975693,           0.
    354,   105.051979,    72.948616,           0.
    355,    105.05677,   76.8022232,           0.
    356,   104.980423,   111.191498,           0.
    357,   105.035835,    107.42836,           0.
    358,   105.061279,   103.611954,           0.
    359,   105.059486,   80.6365662,           0.
    360,   105.068665,   99.7846603,           0.
    361,   105.069611,   95.9558716,           0.
    362,   105.000412,   68.9719849,           0.
    363,    105.06221,   84.4676132,           0.
    364,   107.661217,   117.125664,           0.
    365,   58.6590424,   92.0954666,           0.
    366,    58.678257,   88.2731705,           0.
    367,    58.714077,   84.4498825,           0.
    368,   58.6470566,   99.7520981,           0.
    369,    55.288414,   113.296448,           0.
    370,   55.3218803,   109.373344,           0.
    371,   58.6508827,   95.9226456,           0.
    372,   55.3255234,   105.507935,           0.
    373,   52.0912971,    119.12645,           0.
    374,   108.580132,   59.7037811,           0.
    375,   108.585434,   120.654137,           0.
    376,   85.6945038,   120.449867,           0.
    377,   72.2499008,   123.773247,           0.
    378,   60.6525841,   123.662308,           0.
    379,   64.5460815,     123.7565,           0.
    380,   95.2870941,   117.138031,           0.
    381,   99.2530136,     117.0933,           0.
    382,   103.293365,   117.175644,           0.
    383,   91.4532166,   117.130913,           0.
    384,   78.0123825,   120.448792,           0.
    385,   68.4043808,   123.770798,           0.
    386,   81.8534317,   120.449402,           0.
    387,   89.4873352,    60.009285,           0.
    388,   93.3314896,   60.0010719,           0.
    389,   100.984337,   60.0863266,           0.
    390,   105.042999,   60.6436119,           0.
    391,   97.1803436,   60.0148773,           0.
    392,   79.8776245,   63.4042282,           0.
    393,   76.0077972,   63.4443321,           0.
    394,   85.6433029,   60.0223274,           0.
    395,   55.6586418,   74.8031158,           0.
    396,    56.770031,   123.628609,           0.
    397,   62.0766945,   82.5726318,           0.
    398,    62.029953,   86.3839874,           0.
    399,   61.9987259,    90.199585,           0.
    400,   61.9802666,   94.0180893,           0.
    401,   101.746254,   90.2144928,           0.
    402,   101.749527,   94.0429459,           0.
    403,   101.731949,    109.36499,           0.
    404,   101.728394,   74.8873901,           0.
    405,   101.318558,   66.8538818,           0.
    406,   101.714851,   71.0695572,           0.
    407,   101.750366,   97.8712234,           0.
    408,   101.741386,   86.3852158,           0.
    409,   101.732422,   78.7221375,           0.
    410,   101.732231,   105.579994,           0.
    411,   101.738037,   101.728088,           0.
    412,   101.736481,   82.5545349,           0.
    413,   105.122948,   114.402451,           0.
    414,   61.9714317,    97.842041,           0.
    415,   58.6498566,   107.460991,           0.
    416,   58.6690521,   111.441742,           0.
    417,   58.6473618,   103.592827,           0.
    418,   55.2362976,   117.235924,           0.
    419,   87.5769882,   63.3604584,           0.
    420,   87.6149216,   117.127678,           0.
    421,   74.1704559,   120.448601,           0.
    422,   97.2970581,   113.818733,           0.
    423,    93.485733,   113.786583,           0.
    424,   101.495308,   113.429398,           0.
    425,   66.4539413,   120.443909,           0.
    426,   62.6402321,   120.337379,           0.
    427,   79.9337158,   117.125168,           0.
    428,   70.3191147,   120.447227,           0.
    429,   83.7746277,   117.126244,           0.
    430,   91.4120331,   63.3753052,           0.
    431,   95.2581329,   63.4074287,           0.
    432,    99.045166,   63.3936081,           0.
    433,   77.9660339,   66.7763367,           0.
    434,    58.922905,   76.8507462,           0.
    435,   83.7326431,   63.3806992,           0.
    436,   72.1614609,    63.574131,           0.
    437,    56.029953,   70.8763962,           0.
    438,   58.5695877,   119.748161,           0.
    439,   55.0560989,   120.644356,           0.
    440,   70.1176071,   60.3275375,           0.
    441,    68.368866,   63.8579521,           0.
    442,   65.3849716,    84.503212,           0.
    443,   65.3449402,   88.3135986,           0.
    444,    65.316246,    92.125351,           0.
    445,   59.1583939,   73.1264343,           0.
    446,   65.2992096,    95.940834,           0.
    447,    98.426712,   92.1317673,           0.
    448,   98.4300003,   95.9588623,           0.
    449,   98.6674042,   69.6926804,           0.
    450,   98.4206467,   88.3037796,           0.
    451,   98.3410797,   76.8383102,           0.
    452,   98.3111343,   73.0162048,           0.
    453,   98.4359283,    107.75502,           0.
    454,   98.4081192,   99.8304749,           0.
    455,   98.2768402,   103.855553,           0.
    456,   85.6724625,   66.7181091,           0.
    457,   98.3857574,   80.6496735,           0.
    458,   98.4084549,   84.4755707,           0.
    459,   61.9653358,   105.563377,           0.
    460,   61.9682426,   101.681725,           0.
    461,   61.9678383,   109.464005,           0.
    462,   58.5541153,   115.447464,           0.
    463,    89.595871,   113.777977,           0.
    464,   89.4315796,   66.6613235,           0.
    465,   76.0916824,   117.125191,           0.
    466,   98.9258499,   110.967155,           0.
    467,   95.6880569,   110.518219,           0.
    468,   64.5969467,   117.128746,           0.
    469,   68.4148331,   117.144585,           0.
    470,   81.8552856,   113.802322,           0.
    471,   72.2504272,    117.13118,           0.
    472,   85.7118225,   113.795776,           0.
    473,   93.1607819,    66.755928,           0.
    474,   97.0254059,   66.7893143,           0.
    475,   102.302635,   63.1907845,           0.
    476,   62.1610413,   78.8307724,           0.
    477,   81.8250961,   66.7450333,           0.
    478,   74.1444473,   66.8526611,           0.
    479,   61.3433304,   117.265717,           0.
    480,   66.1292496,   60.7620201,           0.
    481,   62.3681221,   113.668365,           0.
    482,   64.5738602,   64.5130997,           0.
    483,   59.6762238,   69.4255905,           0.
    484,   68.6947098,   86.4323044,           0.
    485,   68.6573639,   90.2430649,           0.
    486,   68.6315384,    94.052124,           0.
    487,     95.10672,   94.0486679,           0.
    488,     95.10009,   90.2227478,           0.
    489,   83.7400589,   70.0578613,           0.
    490,    95.085556,   97.9031219,           0.
    491,   94.8214035,   101.901848,           0.
    492,   94.2379074,   106.448822,           0.
    493,     94.59552,   74.9040909,           0.
    494,   94.8385391,   78.7920227,           0.
    495,   95.0851059,   86.3966064,           0.
    496,   95.0118179,   82.5852585,           0.
    497,   65.2537689,   103.676796,           0.
    498,   87.5986099,   69.9073868,           0.
    499,   65.1543274,   107.587898,           0.
    500,   65.2860336,   99.7780228,           0.
    501,   62.3936806,   75.1720276,           0.
    502,   91.7215118,   110.357849,           0.
    503,   91.0154648,   69.4117355,           0.
    504,   78.0172119,   113.802437,           0.
    505,   66.5037537,   113.803436,           0.
    506,   70.3528366,   113.734459,           0.
    507,    83.785202,   110.504959,           0.
    508,   74.2003632,   113.793518,           0.
    509,   87.6967545,   110.483711,           0.
    510,   65.4294281,   80.7804947,           0.
    511,    79.909729,   70.1050262,           0.
    512,    70.371933,   67.0298691,           0.
    513,   76.1018753,   70.1639252,           0.
    514,   62.6524773,   71.5947647,           0.
    515,   66.7228775,   67.3496628,           0.
    516,   71.9984283,   88.3661652,           0.
    517,   71.9684067,   92.1728973,           0.
    518,    91.779747,   92.1412125,           0.
    519,   91.7701569,   95.9667282,           0.
    520,   85.7025223,   73.3239136,           0.
    521,    91.530304,   99.8015366,           0.
    522,   68.6461487,   101.809059,           0.
    523,   91.7642136,   88.3178177,           0.
    524,   94.7085266,   70.5245209,           0.
    525,   68.6228485,   97.8864212,           0.
    526,   91.1855927,   77.2737656,           0.
    527,   91.6211929,   80.8598785,           0.
    528,   90.3037186,   73.1521835,           0.
    529,   68.4937439,   105.769104,           0.
    530,   91.7186203,    84.527153,           0.
    531,   81.8027649,   73.4158707,           0.
    532,   64.8788452,   110.911949,           0.
    533,   79.9769211,   110.510742,           0.
    534,   68.7615356,   82.6223755,           0.
    535,   68.4152832,   109.969368,           0.
    536,   72.4564819,   110.468849,           0.
    537,   85.8219299,   107.254982,           0.
    538,   65.5872879,   77.2176056,           0.
    539,   76.2318115,   110.535614,           0.
    540,   72.2834015,   70.2279434,           0.
    541,   77.9612579,   73.6237946,           0.
    542,   90.9906082,   103.590187,           0.
    543,   63.2244835,   68.0519485,           0.
    544,   68.5460587,   70.2864761,           0.
    545,   66.2230453,   73.4127502,           0.
    546,   75.2830811,   90.2820053,           0.
    547,   71.9770813,   99.7887039,           0.
    548,   88.4410477,   94.0459976,           0.
    549,   83.5833206,   76.7189255,           0.
    550,   88.4439697,   90.2352371,           0.
    551,   88.2596436,   97.8238449,           0.
    552,   71.9558868,   95.9795303,           0.
    553,   88.4089813,   86.4424591,           0.
    554,   72.3264313,   103.907333,           0.
    555,    72.062355,   84.4461899,           0.
    556,   88.4123077,   82.7374649,           0.
    557,   88.7378387,   79.6231537,           0.
    558,   82.0433197,   107.156052,           0.
    559,   71.2400284,    107.49192,           0.
    560,   68.7215805,   78.9594345,           0.
    561,   74.4941177,   107.278847,           0.
    562,   89.6989899,   107.129799,           0.
    563,   78.2450943,    107.21138,           0.
    564,   79.9101944,   76.9570541,           0.
    565,   74.0215683,    73.643074,           0.
    566,   87.9146042,   101.505501,           0.
    567,   70.2288513,   73.3775787,           0.
    568,   65.4737854,    70.139122,           0.
    569,   84.8448334,   99.5758591,           0.
    570,   75.2131271,   97.8693924,           0.
    571,   60.4320564,   65.2418137,           0.
    572,   85.1204834,   92.1384201,           0.
    573,   75.2553864,   94.0744476,           0.
    574,   85.0346451,   95.8789749,           0.
    575,   74.8968735,   101.152657,           0.
    576,   75.2911453,   86.4109802,           0.
    577,   85.0937347,   88.3893967,           0.
    578,   87.4438782,    76.769455,           0.
    579,    85.097641,   84.5815887,           0.
    580,   72.0542145,   80.4612427,           0.
    581,   85.2374496,   80.3924026,           0.
    582,   81.8536072,   79.5176773,           0.
    583,   84.3551941,   103.560104,           0.
    584,   80.2502747,   103.849945,           0.
    585,   75.6720505,   77.7773819,           0.
    586,   68.4860001,   75.9321365,           0.
    587,   71.5307083,   76.6918106,           0.
    588,   81.7687988,   97.7719879,           0.
    589,    78.516777,   96.0249176,           0.
    590,   78.4306259,   100.231331,           0.
    591,   78.5446854,   92.1749573,           0.
    592,   81.8046722,   94.0419083,           0.
    593,   81.8094101,   90.2893372,           0.
    594,    78.526413,   88.4049454,           0.
    595,   75.3877411,   82.4154587,           0.
    596,   81.8028259,   86.5187531,           0.
    597,   57.0306053,   67.4985352,           0.
    598,    76.440567,   103.938583,           0.
    599,   78.8522186,   80.6858063,           0.
    600,   81.9299469,   100.997849,           0.
    601,   62.7275543,   61.7973557,           0.
    602,   78.6083984,     84.53685,           0.
    603,   87.7562637,   104.608116,           0.
    604,   81.9086914,    82.705513,           0.
    605,   9.18481731,   53.4984093,           0.
    606,   13.1161737,   53.3640671,           0.
    607,   16.9656773,   53.3452797,           0.
    608,   20.8383465,   53.4070663,           0.
    609,    24.733902,    53.408329,           0.
    610,   27.9055042,    52.910099,           0.
    611,   20.7905159,   127.145836,           0.
    612,    24.571188,   127.145302,           0.
    613,   28.3583355,   127.139709,           0.
    614,    32.227932,   127.075714,           0.
    615,   36.2110291,   126.941605,           0.
    616,   40.3274727,   126.920616,           0.
    617,   3.32118297,   67.2338943,           0.
    618,   3.32245159,   71.0614014,           0.
    619,   3.32114124,   74.8910217,           0.
    620,   3.31929135,   78.7206955,           0.
    621,   3.31794024,   82.5504074,           0.
    622,   3.31733298,   86.3802338,           0.
    623,   3.31711984,   90.2101135,           0.
    624,   3.31700611,   94.0400238,           0.
    625,    3.3168335,   97.8699799,           0.
    626,    3.3164103,   101.699982,           0.
    627,   3.31567478,   105.529961,           0.
    628,   3.31530881,   109.361137,           0.
    629,   3.31827807,   113.198601,           0.
    630,   3.37402129,   117.127853,           0.
    631,   3.48538661,   121.174896,           0.
    632,   3.47905278,   125.344543,           0.
    633,   3.04783344,   56.4092712,           0.
    634,   3.32142377,   59.6360016,           0.
    635,   3.32441235,   63.4171257,           0.
    636,     42.04422,   101.668137,           0.
    637,   42.0437546,    97.833931,           0.
    638,   42.0414391,   86.3317261,           0.
    639,   42.0470619,    78.666069,           0.
    640,    42.042717,   90.1656799,           0.
    641,   42.0459175,   109.335991,           0.
    642,   42.0451164,   105.502151,           0.
    643,   42.0433884,   93.9997559,           0.
    644,   42.0406799,   82.4982681,           0.
    645,   42.0468864,   74.8027039,           0.
    646,   42.5106888,   67.6198425,           0.
    647,   27.6794415,    57.258316,           0.
    648,   33.7051086,   65.1423874,           0.
    649,   38.2577019,   68.1854706,           0.
    650,   30.8561764,   61.1911736,           0.
    651,   42.0429344,   70.9110184,           0.
    652,    5.0723877,   53.5095329,           0.
    653,   14.9979906,    56.649334,           0.
    654,   18.8743877,    56.742218,           0.
    655,   11.1128502,   56.7337074,           0.
    656,   22.8870392,   56.9332123,           0.
    657,   17.0104275,   127.145226,           0.
    658,   34.2681541,   123.685791,           0.
    659,   13.2506495,   127.162056,           0.
    660,    9.5242939,   127.166351,           0.
    661,   6.32328796,   127.393127,           0.
    662,   22.6821098,   123.864304,           0.
    663,   26.4688301,   123.855446,           0.
    664,   30.3487186,   123.803444,           0.
    665,   6.63579607,   84.4657059,           0.
    666,    6.6314621,   103.615723,           0.
    667,   6.63293314,   99.7854385,           0.
    668,   6.63379097,   95.9552002,           0.
    669,   6.63884735,   80.6366653,           0.
    670,   6.74389505,   119.197914,           0.
    671,   6.66112852,   115.225784,           0.
    672,   6.84713078,    57.295639,           0.
    673,   6.74662256,   65.2585831,           0.
    674,   6.64352322,   76.8076859,           0.
    675,   6.63422775,   92.1251755,           0.
    676,    6.6299696,   107.447578,           0.
    677,   6.63424635,   111.299736,           0.
    678,   6.63481045,   88.2953644,           0.
    679,   6.64796257,   72.9776688,           0.
    680,    6.6663413,   69.1373062,           0.
    681,   6.71946239,   61.3977432,           0.
    682,   42.0492668,   113.170418,           0.
    683,   38.7245445,   99.7514877,           0.
    684,   38.7190399,   76.7537994,           0.
    685,   42.0777245,   116.996208,           0.
    686,   38.7285042,   107.419533,           0.
    687,   38.7220535,   92.0831375,           0.
    688,   38.7128754,   80.5836029,           0.
    689,   42.1027908,   120.791023,           0.
    690,   42.3476944,   124.035576,           0.
    691,   38.7192078,   88.2499542,           0.
    692,   38.7264137,   103.585754,           0.
    693,   38.7233887,     95.91716,           0.
    694,     38.71492,   84.4178085,           0.
    695,   7.23766613,    123.56263,           0.
    696,   38.5658531,   123.136024,           0.
    697,   38.7085762,   72.8656387,           0.
    698,   16.6226692,    59.876442,           0.
    699,   12.8693199,    59.724247,           0.
    700,   15.1495724,   123.760895,           0.
    701,   11.3519268,   123.720909,           0.
    702,   24.5821686,   120.566772,           0.
    703,   28.4804058,   120.551476,           0.
    704,   32.4076805,   120.524788,           0.
    705,   18.9274216,   123.854507,           0.
    706,   9.95001888,    97.871048,           0.
    707,   9.95133305,   94.0405807,           0.
    708,   9.95240307,   90.2106857,           0.
    709,   9.95440674,   86.3816757,           0.
    710,   9.95882225,   82.5538025,           0.
    711,   9.94165421,   109.369537,           0.
    712,   9.94756222,   101.702095,           0.
    713,   9.96616554,   78.7260666,           0.
    714,   9.92800808,   113.323486,           0.
    715,   9.94433498,   105.534348,           0.
    716,   9.90116882,   117.306053,           0.
    717,   10.1999788,    67.168541,           0.
    718,   10.0350056,   71.0543289,           0.
    719,    9.9839735,   74.8950195,           0.
    720,   9.61894989,   59.6325188,           0.
    721,   10.6301565,   62.9812737,           0.
    722,    38.727066,   111.240967,           0.
    723,   38.7129173,   118.969681,           0.
    724,   35.4045105,    97.835289,           0.
    725,   35.4019432,   94.0014496,           0.
    726,   35.3978882,   90.1690903,           0.
    727,   35.4071846,   101.669853,           0.
    728,   35.4040337,    105.51255,           0.
    729,    35.390873,   86.3385391,           0.
    730,   35.3822021,   82.5041046,           0.
    731,   35.3847809,   78.6910858,           0.
    732,   38.6392555,   115.104767,           0.
    733,   20.4869461,   60.2128868,           0.
    734,   17.8208008,    63.588562,           0.
    735,   17.1408539,   120.422157,           0.
    736,   13.1692028,   119.810257,           0.
    737,   30.5385742,    117.26545,           0.
    738,   26.5754337,   117.195915,           0.
    739,    20.825016,   120.520569,           0.
    740,   35.7689133,    120.69474,           0.
    741,   9.68077183,   120.719551,           0.
    742,   32.0458641,   80.6010895,           0.
    743,   13.3021364,   76.8182755,           0.
    744,   13.2883148,   80.6459045,           0.
    745,   13.2412615,   107.436646,           0.
    746,   13.2789783,   84.4716187,           0.
    747,   13.2735891,    88.298233,           0.
    748,   13.2705898,   92.1267624,           0.
    749,   13.2680674,   95.9571762,           0.
    750,   13.2588224,   111.400017,           0.
    751,   13.2556248,   103.615547,           0.
    752,   13.3418713,   72.9863739,           0.
    753,   35.3917351,   109.335251,           0.
    754,   13.2635031,   99.7876663,           0.
    755,   13.1455536,   115.445366,           0.
    756,   32.0590401,   84.4298935,           0.
    757,   32.0698586,   88.2593918,           0.
    758,   13.9146242,   65.4326019,           0.
    759,   32.0830841,   95.9207611,           0.
    760,   32.0775757,   92.0892181,           0.
    761,   32.0873032,   99.7549667,           0.
    762,   32.0730553,   103.607994,           0.
    763,   34.8228836,   117.161964,           0.
    764,   35.3251839,   113.099014,           0.
    765,   13.5316458,   69.1847229,           0.
    766,   35.4685783,   74.8734894,           0.
    767,   24.4316902,   60.6430283,           0.
    768,     19.02178,   117.150467,           0.
    769,   15.8600101,   117.279579,           0.
    770,   28.6949482,   113.501907,           0.
    771,   22.7369289,   117.214645,           0.
    772,   28.7963181,    82.527298,           0.
    773,   16.6253452,   78.7432251,           0.
    774,   16.5774059,   82.5664368,           0.
    775,   16.4930477,   86.3882751,           0.
    776,   28.7896214,   86.3549957,           0.
    777,   16.6529598,   74.9136353,           0.
    778,    16.433033,    90.212326,           0.
    779,   28.7655163,   90.1810913,           0.
    780,   16.4882679,   109.394814,           0.
    781,   16.4451447,   94.0409775,           0.
    782,   16.5259075,   105.559601,           0.
    783,   32.0670967,   107.449753,           0.
    784,    16.508009,   97.8738632,           0.
    785,   28.7930908,   94.0106964,           0.
    786,   16.8518867,   113.633751,           0.
    787,   16.5439625,    101.71299,           0.
    788,   32.2875023,   114.459801,           0.
    789,   28.8671761,    97.845047,           0.
    790,   32.0887718,   111.209358,           0.
    791,   28.9046535,   101.692902,           0.
    792,    16.787344,   71.1377716,           0.
    793,   17.0670872,   67.4918747,           0.
    794,   21.9882088,   63.6777611,           0.
    795,    31.936451,    76.672493,           0.
    796,   34.1545753,   69.1981964,           0.
    797,   29.3027725,   64.7559509,           0.
    798,   25.6222591,   64.2897186,           0.
    799,    20.853405,   113.818192,           0.
    800,   24.5971603,   113.788132,           0.
    801,   25.6438828,   84.4560471,           0.
    802,   19.7257004,   80.6582336,           0.
    803,   19.5815239,   84.4761353,           0.
    804,   25.5950394,   88.2781677,           0.
    805,   25.6388607,   92.1056061,           0.
    806,   19.4846268,   88.2957993,           0.
    807,    19.854557,   76.8823547,           0.
    808,   19.5104179,    92.122261,           0.
    809,   19.6067104,   107.549881,           0.
    810,   28.9030399,   105.561996,           0.
    811,   19.6250324,   95.9556808,           0.
    812,   19.6928043,   103.685844,           0.
    813,   25.7630615,   95.9393692,           0.
    814,   19.6673737,   99.8064957,           0.
    815,   20.2205715,   73.1293793,           0.
    816,   25.8360577,   99.7834778,           0.
    817,   20.3433132,   69.4100037,           0.
    818,   14.3715143,   62.3206253,           0.
    819,   28.6472645,   78.7706299,           0.
    820,   32.0676117,   72.3684845,           0.
    821,   28.9308281,   109.374649,           0.
    822,   22.6451035,   82.5574341,           0.
    823,   22.5612392,    86.376976,           0.
    824,   22.8102283,   78.9222794,           0.
    825,   22.5710697,   90.2016983,           0.
    826,   22.6516247,   94.0322189,           0.
    827,   25.8391953,   103.688683,           0.
    828,   22.7305775,   105.722595,           0.
    829,   25.6994133,     80.80233,           0.
    830,   23.4770126,   75.4005508,           0.
    831,   22.7293797,   97.8765259,           0.
    832,   22.7492313,   101.760605,           0.
    833,   24.3883686,   71.2530441,           0.
    834,   22.7048569,   110.039871,           0.
    835,   20.1051445,    66.265007,           0.
    836,   27.5784683,    61.627636,           0.
    837,   23.2514973,   67.1384811,           0.
    838,   27.8088551,   74.7389908,           0.
    839,   26.9828987,   67.8439407,           0.
    840,   25.8632259,   107.552444,           0.
    841,   19.3010254,   110.887299,           0.
    842,   26.1582031,   110.851402,           0.
    843,   25.6885548,   77.7269592,           0.
    844,   28.4177284,   70.9406891,           0.
    845,   30.7717819,    68.374939,           0.
    846,    35.731411,   71.4982529,           0.
    847,   48.7199478,   21.2353096,           0.
    848,   56.6123238,   35.3388443,           0.
    849,   60.4430656,   38.6160278,           0.
    850,   48.6856613,   13.5250797,           0.
    851,   48.7110519,   17.3750858,           0.
    852,   48.7211113,   25.1450748,           0.
    853,   48.6932945,   29.0747242,           0.
    854,    93.374855,   3.32665682,           0.
    855,    89.533989,   3.32680202,           0.
    856,   85.6932373,     3.327528,           0.
    857,   93.3245239,   46.6632347,           0.
    858,    78.011528,   3.33008695,           0.
    859,   74.1705627,   3.33149052,           0.
    860,   70.3294983,   3.33214426,           0.
    861,   66.4885025,    3.3318789,           0.
    862,   62.6408119,   3.33563304,           0.
    863,   58.7058601,    3.3970437,           0.
    864,   54.6550064,   3.52459693,           0.
    865,   50.4731293,   3.53643608,           0.
    866,   114.873482,   44.7886314,           0.
    867,   115.007896,   36.5508652,           0.
    868,   115.009819,   28.8438034,           0.
    869,   115.009933,   24.9979477,           0.
    870,   115.010071,   21.1520996,           0.
    871,   115.004715,   17.2988701,           0.
    872,   114.931198,   13.3517017,           0.
    873,   114.801804,   9.29076385,           0.
    874,   114.802528,   5.10796309,           0.
    875,   101.023514,    46.659874,           0.
    876,   97.1734009,   46.6627121,           0.
    877,   81.8525314,   3.32885242,           0.
    878,   89.4759293,   46.6631508,           0.
    879,   85.6274872,    46.662571,           0.
    880,   81.7791977,   46.6610489,           0.
    881,   77.9308472,   46.6583252,           0.
    882,   74.0395508,   46.6312752,           0.
    883,   70.0348892,   46.5953445,           0.
    884,   66.0088806,   46.6800194,           0.
    885,   62.8043251,    47.195507,           0.
    886,   52.5538902,   31.9693508,           0.
    887,   62.9588623,    43.378479,           0.
    888,   97.2157135,   3.32673502,           0.
    889,   104.874321,   3.30327868,           0.
    890,   87.6143341,   6.65492344,           0.
    891,   72.2503891,   6.66804552,           0.
    892,   56.6249046,   6.82032728,           0.
    893,   111.909882,   3.03962636,           0.
    894,   79.9334793,   6.66119003,           0.
    895,   64.5484543,    6.6758399,           0.
    896,   60.6029358,   6.71795559,           0.
    897,   101.052696,   3.32290292,           0.
    898,   68.4039078,   6.67152357,           0.
    899,   76.0923767,    6.6656332,           0.
    900,   91.4548798,   6.65397406,           0.
    901,   108.667015,   3.30274868,           0.
    902,   83.7742233,   6.65788507,           0.
    903,   114.886307,   40.5916901,           0.
    904,   115.009415,   32.6922073,           0.
    905,   111.520058,   11.2826147,           0.
    906,   111.672699,    19.219183,           0.
    907,   111.679337,   26.9207439,           0.
    908,   111.678474,   23.0732155,           0.
    909,   111.627357,   15.2665005,           0.
    910,   79.8570938,   43.3202248,           0.
    911,   108.716957,   46.6103096,           0.
    912,   104.890877,   46.6321297,           0.
    913,   67.6280746,     43.21064,           0.
    914,   99.0979767,   43.3295631,           0.
    915,   95.2489548,   43.3304176,           0.
    916,   91.4003372,   43.3304024,           0.
    917,   87.5522232,   43.3294067,           0.
    918,   83.7049332,   43.3261032,           0.
    919,   75.9767914,   43.2927017,           0.
    920,   71.8924713,   43.2371368,           0.
    921,   48.6631699,   9.70909786,           0.
    922,   52.0955048,   27.1346111,           0.
    923,   52.0759315,   19.2986698,           0.
    924,   48.4201698,   6.44146824,           0.
    925,     52.15205,   15.4020338,           0.
    926,   52.0780029,   23.1645164,           0.
    927,   48.2570114,   32.3895721,           0.
    928,   110.997131,   6.90555477,           0.
    929,    52.255661,   7.35652876,           0.
    930,    99.116806,    6.6455617,           0.
    931,   102.954453,   6.74072933,           0.
    932,    106.82328,   6.76367283,           0.
    933,   89.5370178,   9.98350239,           0.
    934,   70.3254395,   10.0112724,           0.
    935,   58.5339165,   9.97816849,           0.
    936,   74.1729126,   10.0068197,           0.
    937,   62.5122719,   9.98126221,           0.
    938,   66.4474792,   10.0046911,           0.
    939,   85.6969833,    9.9863348,           0.
    940,   78.0163651,   9.99982834,           0.
    941,   81.8574295,   9.99260902,           0.
    942,    95.292244,   6.65244818,           0.
    943,   111.673439,    34.668087,           0.
    944,   108.348946,   24.9971867,           0.
    945,   108.349503,   21.1405048,           0.
    946,   108.345604,   17.1769714,           0.
    947,   108.340103,   13.1937265,           0.
    948,   111.677414,   30.7834816,           0.
    949,   111.597168,   38.6211624,           0.
    950,   103.004166,   43.1843071,           0.
    951,   89.4772491,    39.996727,           0.
    952,   93.3250046,    39.997818,           0.
    953,   97.1917953,   39.9800682,           0.
    954,    85.631073,    39.993103,           0.
    955,   81.7856979,   39.9840965,           0.
    956,   73.8759689,   39.8996429,           0.
    957,   77.8999786,   39.9574127,           0.
    958,   106.896408,   43.1386757,           0.
    959,   52.1219559,   11.5220346,           0.
    960,   55.5342751,   17.3866673,           0.
    961,   55.4706268,   21.1768665,           0.
    962,   55.3162384,   25.0444603,           0.
    963,    87.622467,   13.3171167,           0.
    964,   83.7833252,   13.3223228,           0.
    965,   60.4212341,   13.2463436,           0.
    966,   64.4410248,   13.3685188,           0.
    967,   97.2011261,   9.99554825,           0.
    968,   100.957169,   10.1160631,           0.
    969,   105.005302,   10.7002039,           0.
    970,   93.3794327,   9.99136162,           0.
    971,   79.9437943,   13.3330297,           0.
    972,   68.3887405,   13.3539238,           0.
    973,   76.1012878,   13.3446293,           0.
    974,   72.2529221,   13.3525848,           0.
    975,    108.53717,   9.76915455,           0.
    976,   83.7150345,   36.6518974,           0.
    977,   108.353424,   28.8603401,           0.
    978,   108.422401,   36.7121468,           0.
    979,    105.03553,   23.0815983,           0.
    980,   105.077499,   15.0856752,           0.
    981,    108.40184,   32.7756844,           0.
    982,   104.990776,   19.1183491,           0.
    983,   79.8680115,   36.6323929,           0.
    984,   111.081902,    42.963047,           0.
    985,   101.003418,   39.8343391,           0.
    986,   87.5577316,   36.6601295,           0.
    987,   91.4027328,   36.6640587,           0.
    988,    95.271225,   36.6400452,           0.
    989,   105.088058,    39.215313,           0.
    990,   55.1108894,   9.78890228,           0.
    991,   75.9067535,   36.5893593,           0.
    992,    58.853363,   19.2949104,           0.
    993,   58.8522758,   23.3016815,           0.
    994,   56.0703239,   13.3289309,           0.
    995,   69.6061096,   39.7238693,           0.
    996,   57.3914452,   31.2333317,           0.
    997,   60.5377235,   34.1533661,           0.
    998,   111.961487,   46.8707771,           0.
    999,   65.2210999,   39.5198326,           0.
   1000,   85.7097626,   16.6537495,           0.
   1001,   81.8055954,   33.3045731,           0.
   1002,   81.8736877,   16.6640053,           0.
   1003,   95.3002014,   13.3564167,           0.
   1004,   99.0678177,   13.4088039,           0.
   1005,    62.339695,   17.0506516,           0.
   1006,   102.296242,   13.2592239,           0.
   1007,   78.0336151,   16.6798134,           0.
   1008,   66.5377121,   16.6717243,           0.
   1009,   91.4647751,   13.3336039,           0.
   1010,   77.8725662,   33.2798805,           0.
   1011,   85.6435242,   33.3198929,           0.
   1012,    105.03006,   26.9301414,           0.
   1013,   105.126617,   34.8700905,           0.
   1014,   101.675331,   21.0742359,           0.
   1015,   101.298943,   16.8833008,           0.
   1016,   104.991936,   30.8830051,           0.
   1017,   108.617188,   40.1300697,           0.
   1018,   70.3605042,   16.6776123,           0.
   1019,   74.1941147,    16.687048,           0.
   1020,   89.4839859,     33.32827,           0.
   1021,   93.3299637,   33.3353691,           0.
   1022,   99.0724411,   36.5783653,           0.
   1023,   102.328194,   36.7074661,           0.
   1024,   62.3942375,   21.3226376,           0.
   1025,   71.8312988,   36.3756104,           0.
   1026,   58.6437798,   16.0615005,           0.
   1027,   58.4872322,   27.3593807,           0.
   1028,   63.5000229,   36.2782135,           0.
   1029,   64.2283859,   33.0400963,           0.
   1030,   67.4175415,    35.719368,           0.
   1031,   79.5731888,   29.9730587,           0.
   1032,   83.5668335,   29.9022446,           0.
   1033,   83.8781586,   19.8493843,           0.
   1034,   80.1611862,   19.9661446,           0.
   1035,   93.3868256,   16.6600552,           0.
   1036,   97.2005692,   16.6185226,           0.
   1037,   76.3271408,   20.0087624,           0.
   1038,   89.5402603,   16.6593151,           0.
   1039,   87.6355667,   29.8843937,           0.
   1040,   101.508766,   24.8931923,           0.
   1041,   101.306557,   33.0836792,           0.
   1042,   101.508339,   28.8206005,           0.
   1043,    91.562294,   30.1028805,           0.
   1044,   97.1643219,   33.3548698,           0.
   1045,   68.4997025,   19.8392105,           0.
   1046,   72.3946533,   19.9733334,           0.
   1047,   73.9960861,   33.2703743,           0.
   1048,   62.9340363,   25.8372841,           0.
   1049,   65.2021179,   19.5350075,           0.
   1050,   66.1932602,   22.6858845,           0.
   1051,   61.4995117,   30.2015553,           0.
   1052,   81.1448669,   26.5483189,           0.
   1053,   85.6531601,   25.9993019,           0.
   1054,   91.4302444,   20.0306225,           0.
   1055,   82.5308304,   23.0371246,           0.
   1056,   70.3448715,   32.9561615,           0.
   1057,    78.644371,   23.2653084,           0.
   1058,   90.1788559,   26.7321854,           0.
   1059,   87.5451965,   19.8372345,           0.
   1060,    98.068924,   22.6309071,           0.
   1061,    98.533905,   30.4097786,           0.
   1062,   97.4373245,    26.848875,           0.
   1063,   95.2660522,   30.2442989,           0.
   1064,   75.5625687,   30.1365948,           0.
   1065,   74.5537872,   23.3865757,           0.
   1066,   70.3219986,   23.2234116,           0.
   1067,   95.4159317,   19.8589993,           0.
   1068,   98.7319412,   19.4131927,           0.
   1069,   93.5888901,   23.8297806,           0.
   1070,   89.0144348,   23.1611023,           0.
   1071,   85.7243576,   22.3768291,           0.
   1072,   76.9999695,   26.7414494,           0.
   1073,   72.3336716,   30.6435146,           0.
   1074,   93.6066818,   27.5516033,           0.
   1075,   72.3979187,    27.166256,           0.
   1076,   67.7515488,   26.3690529,           0.
   1077,    67.330574,   32.2034225,           0.
   1078,   55.1688614,   28.5482273,           0.
   1079,   69.2628021,    29.820713,           0.
   1080,   65.5011444,   29.5786877,           0.
   1081,   33.8930969,   35.6444588,           0.
   1082,   30.6866341,   39.0238609,           0.
   1083,    41.986042,   13.4920797,           0.
   1084,   42.0124512,   17.3698158,           0.
   1085,   41.9847908,    21.267271,           0.
   1086,   41.9220314,   25.2281723,           0.
   1087,   41.8787994,   29.2226658,           0.
   1088,   42.3713455,   32.4729195,           0.
   1089,   27.8796253,   43.3357887,           0.
   1090,   37.8902283,   32.1850967,           0.
   1091,    5.1416297,   46.5390053,           0.
   1092,    9.2377224,   46.5669289,           0.
   1093,   13.1418552,   46.6812897,           0.
   1094,   16.9334583,   46.7045441,           0.
   1095,   20.8278217,   46.6885796,           0.
   1096,   24.7911034,   46.7507133,           0.
   1097,   3.25780082,   9.66064167,           0.
   1098,   3.29015446,   13.4671221,           0.
   1099,    3.3207953,   17.3071156,           0.
   1100,   3.33238316,   21.1520329,           0.
   1101,   3.33528805,   24.9979343,           0.
   1102,   3.33458567,   28.8442478,           0.
   1103,   3.33363438,   32.6940155,           0.
   1104,    3.3763566,   36.5680885,           0.
   1105,   3.38378978,   40.3894653,           0.
   1106,   40.2138023,   3.48586774,           0.
   1107,   20.7944431,   3.28316212,           0.
   1108,   17.0130653,   3.28375244,           0.
   1109,   13.1439066,   3.34711051,           0.
   1110,   9.15201187,   3.48714972,           0.
   1111,   5.03441238,   3.51114082,           0.
   1112,   15.0186615,    43.384285,           0.
   1113,   11.1798296,    43.296711,           0.
   1114,   19.0201035,   43.3286552,           0.
   1115,   23.2714081,    43.105072,           0.
   1116,   27.9549141,   47.2256012,           0.
   1117,   24.5747261,   3.28524256,           0.
   1118,    36.076046,   3.45912385,           0.
   1119,   32.1486359,   3.33777547,           0.
   1120,   28.3507671,   3.29992151,           0.
   1121,   18.8985863,   6.57735348,           0.
   1122,   15.0170984,   6.62850857,           0.
   1123,   11.1043291,    6.7458415,           0.
   1124,   6.66076279,    19.226965,           0.
   1125,   6.67355537,   26.9221439,           0.
   1126,   6.79053593,   38.5792427,           0.
   1127,   6.68359375,    11.466814,           0.
   1128,   3.01194119,   6.40543032,           0.
   1129,   6.75245476,    15.331583,           0.
   1130,   6.68788385,   30.7820129,           0.
   1131,   6.67175722,   23.0739384,           0.
   1132,   6.81100512,   34.6935768,           0.
   1133,   38.6389618,    19.318861,           0.
   1134,   38.3331795,   27.3644905,           0.
   1135,   41.9674034,   9.65777206,           0.
   1136,   38.5284576,   15.3795948,           0.
   1137,   38.5030785,    23.295311,           0.
   1138,   6.94512177,   42.7631302,           0.
   1139,   6.83268785,   7.28963327,           0.
   1140,   21.1337547,   39.7282944,           0.
   1141,    16.991354,   40.0313454,           0.
   1142,   13.0677357,   40.1312103,           0.
   1143,   26.4589729,   6.58857393,           0.
   1144,   30.2566528,    6.6262536,           0.
   1145,   13.0270891,   9.88313389,           0.
   1146,   16.9098549,   9.87924671,           0.
   1147,   22.6838589,    6.5797472,           0.
   1148,   10.0158806,   24.9994087,           0.
   1149,   10.0031757,    21.149498,           0.
   1150,   10.0349703,   28.8717175,           0.
   1151,   10.0680237,   17.3481903,           0.
   1152,    10.591156,   13.2537241,           0.
   1153,   10.6529016,   36.7989082,           0.
   1154,   10.1188269,   32.6917953,           0.
   1155,   38.4917603,   11.4645271,           0.
   1156,   35.1490784,   21.3029327,           0.
   1157,   35.1630402,   17.3714561,           0.
   1158,   3.09410834,   43.6291962,           0.
   1159,   34.0944862,   6.73136425,           0.
   1160,   38.3724213,   7.27370358,           0.
   1161,   32.2041321,   9.87814045,           0.
   1162,   18.9315205,   36.6463737,           0.
   1163,   14.9234095,   36.8075714,           0.
   1164,   24.5765591,   9.88479614,           0.
   1165,   28.3887043,   9.86285305,           0.
   1166,   14.8592758,   13.1910791,           0.
   1167,   20.7596645,   9.89443874,           0.
   1168,   9.64777088,   9.72782898,           0.
   1169,    9.7272253,    40.313839,           0.
   1170,   13.1596508,   34.0439415,           0.
   1171,   13.3350592,    23.070837,           0.
   1172,   13.1095419,   15.9967899,           0.
   1173,   13.3067007,   19.2729702,           0.
   1174,   13.3368196,   30.7531204,           0.
   1175,   13.3375444,   26.9311142,           0.
   1176,   34.6289864,   13.2439671,           0.
   1177,     31.87953,   19.3194122,           0.
   1178,   34.9489326,   25.2993813,           0.
   1179,   42.2562599,   6.40002775,           0.
   1180,   35.5583572,   9.71834087,           0.
   1181,   25.7787399,   38.6815491,           0.
   1182,   29.4041214,   35.0523605,           0.
   1183,   30.3966827,   13.1485815,           0.
   1184,    16.798727,   33.0526619,           0.
   1185,   22.6602001,   13.2120457,           0.
   1186,   26.5128098,   13.2533932,           0.
   1187,   18.7876034,   13.2822552,           0.
   1188,   16.5408573,   21.1333733,           0.
   1189,   16.6831112,   17.0042267,           0.
   1190,    32.123436,   15.9941254,           0.
   1191,   16.5836105,   25.0158253,           0.
   1192,   16.5643311,   28.9268799,           0.
   1193,   31.7710533,    23.169199,           0.
   1194,   34.9984283,   28.8331242,           0.
   1195,   32.6121216,   31.7039375,           0.
   1196,   31.1568718,   27.3483467,           0.
   1197,    28.576458,   16.9850121,           0.
   1198,   24.5541668,   16.6599522,           0.
   1199,   21.0606117,   33.4794655,           0.
   1200,   28.8221722,   21.0769558,           0.
   1201,   19.6730671,   23.0904484,           0.
   1202,    19.767292,   27.1183891,           0.
   1203,   28.0550976,   30.8580074,           0.
   1204,   20.8030491,   16.6994743,           0.
   1205,   26.7070942,   26.7849274,           0.
   1206,   26.1307087,   19.6441555,           0.
   1207,   22.7676525,   20.5636292,           0.
   1208,   19.5099163,   30.4805279,           0.
   1209,   22.4090557,   36.5452538,           0.
   1210,   23.0324821,   25.0731564,           0.
   1211,   25.0110416,   34.0736465,           0.
   1212,   19.2935467,   19.6982307,           0.
   1213,   23.3062191,    29.695446,           0.
   1214,   26.0455265,   22.9275379,           0.
   1215,   28.9005432,   24.2613926,           0.
*Element, type=S3
  1, 319, 265, 318
  2, 278,  85, 200
  3, 347, 346, 293
  4, 200,  13,  14
  5, 215,  33, 202
  6, 202,   3,  34
  7, 265,  16,  17
  8, 271,  18, 203
  9, 203,  18,  19
 10, 277,  76,  77
 11, 204, 203,  19
 12, 205, 204,  20
 13, 206, 205,  21
 14, 207, 206,  22
 15, 209,  24,  25
 16, 208, 207,  23
 17, 210, 209,  25
 18, 268, 210, 212
 19, 211,  31, 201
 20, 212, 210,  26
 21, 213, 212,  27
 22, 214,   2,  29
 23, 215,  32,  33
 24, 272, 213, 216
 25,  47,   4,  48
 26, 239,  48,  49
 27, 249, 238, 237
 28, 257, 256, 236
 29, 250, 235, 234
 30, 258, 234, 233
 31, 345, 297, 344
 32, 296,  43,  44
 33, 288,  40,  41
 34, 218,  39, 217
 35, 218,  38,  39
 36, 251, 231, 230
 37, 220,  37, 219
 38, 222,  34,  35
 39,  68,  67,   5
 40, 247,  68,  69
 41, 375, 300, 287
 42, 273, 204, 269
 43, 224,  64, 223
 44, 225,  63, 224
 45, 226,  62, 225
 46, 227,  61, 226
 47, 228,  60, 227
 48, 229,  59, 228
 49, 230,  58, 229
 50, 231,  57, 230
 51, 232,  56, 231
 52, 233,  55, 232
 53, 234,  54, 233
 54, 235,  53, 234
 55, 236,  52, 235
 56, 237,  51, 236
 57, 238,  50, 237
 58, 239,  49, 238
 59,  85,   1,  13
 60, 200,  85,  13
 61, 320, 301, 200
 62, 396, 378, 330
 63, 396, 332, 301
 64, 271, 265,  17
 65, 328, 203, 273
 66, 333,  81, 279
 67, 331, 280,  79
 68, 331,  79,  80
 69, 281,  77,  78
 70, 241,  75, 240
 71, 241,  74,  75
 72, 243,  73, 242
 73, 244,  72, 243
 74, 245,  71, 244
 75, 246,  70, 245
 76, 247,  69, 246
 77, 320,  15, 267
 78, 267,  16, 265
 79, 201,  31,  32
 80, 346, 294, 293
 81, 202,  33,   3
 82, 222,  35, 221
 83, 204,  19,  20
 84, 282, 241, 240
 85, 205,  20,  21
 86, 259, 252, 224
 87, 206,  21,  22
 88, 252, 225, 224
 89, 207,  22,  23
 90, 260, 225, 252
 91, 208,  23,  24
 92, 324, 321, 270
 93, 209, 208,  24
 94, 292, 289, 218
 95, 210,  25,  26
 96, 266, 209, 210
 97, 212,  26,  27
 98, 268, 266, 210
 99, 211,  30,  31
100, 436, 346, 393
101, 213,  27,  28
102, 216, 214,  29
103, 214, 213,  28
104, 216,  30, 211
105, 214,  28,   2
106, 216,  29,  30
107, 221,  36, 220
108, 215, 201,  32
109, 326, 325, 274
110, 216, 213, 214
111, 217,  39,  40
112, 263, 255, 232
113, 289, 219, 218
114, 219,  38, 218
115, 293, 219, 289
116, 219,  37,  38
117, 294, 220, 293
118, 220,  36,  37
119, 295, 221, 294
120, 221,  35,  36
121, 222, 215, 202
122, 222, 202,  34
123, 223,  64,  65
124, 248,  65,  66
125, 306, 305, 253
126, 224,  63,  64
127, 307, 306, 260
128, 225,  62,  63
129, 253, 227, 226
130, 226,  61,  62
131, 262, 227, 253
132, 227,  60,  61
133, 254, 229, 228
134, 228,  59,  60
135, 311, 261, 303
136, 229,  58,  59
137, 325, 324, 276
138, 230,  57,  58
139, 263, 231, 251
140, 231,  56,  57
141, 263, 232, 231
142, 232,  55,  56
143, 406, 354, 404
144, 233,  54,  55
145, 297, 296,  44
146, 234,  53,  54
147, 344, 298, 302
148, 235,  52,  53
149, 256, 237, 236
150, 236,  51,  52
151, 298, 297,  45
152, 237,  50,  51
153, 302, 238, 249
154, 238,  49,  50
155, 299,  47, 239
156, 239,  47,  48
157, 240,  75,  76
158, 377, 280, 331
159, 283, 241, 282
160, 242,  74, 241
161, 284, 242, 283
162, 242,  73,  74
163, 338, 337, 284
164, 243,  72,  73
165, 285, 243, 284
166, 244,  71,  72
167, 317, 248, 300
168, 245,  70,  71
169, 300, 247, 246
170, 246,  69,  70
171, 264,  67, 247
172, 247,  67,  68
173, 248, 223,  65
174, 264, 248,  66
175, 257, 235, 250
176, 296, 290,  43
177, 255, 233, 232
178, 363, 309, 313
179, 261, 230, 229
180, 327, 266, 268
181, 259, 224, 223
182, 521, 519, 490
183, 260, 253, 226
184, 304, 303, 254
185, 262, 254, 228
186, 322, 275, 321
187, 343, 291, 290
188, 309, 255, 263
189, 256, 249, 237
190, 257, 236, 235
191, 312, 258, 310
192, 315, 250, 312
193, 258, 250, 234
194, 258, 233, 255
195, 317, 223, 248
196, 286, 244, 285
197, 260, 226, 225
198, 368, 323, 322
199, 261, 251, 230
200, 261, 229, 254
201, 262, 228, 227
202, 305, 304, 262
203, 363, 313, 353
204, 355, 354, 312
205, 264,  66,  67
206, 300, 264, 247
207, 330,  82,  83
208, 271,  17,  18
209, 274, 209, 266
210, 367, 326, 350
211, 373, 267, 319
212, 267,  15,  16
213, 272, 212, 213
214, 272, 268, 212
215, 269, 204, 205
216, 275, 205, 206
217, 270, 206, 207
218, 276, 207, 208
219, 273, 203, 204
220, 318, 265, 271
221, 597, 437, 216
222, 327, 326, 266
223, 469, 425, 468
224, 426, 379, 378
225, 353, 311, 351
226, 274, 208, 209
227, 275, 269, 205
228, 275, 206, 270
229, 276, 270, 207
230, 276, 208, 274
231, 277, 240,  76
232, 281,  78, 280
233, 332,  84, 278
234, 278,  84,  85
235, 279,  81,  82
236, 439, 438, 396
237, 280,  78,  79
238, 383, 380, 338
239, 323, 269, 322
240, 281, 277,  77
241, 357, 306, 307
242, 329, 240, 277
243, 308, 307, 252
244, 283, 242, 241
245, 337, 336, 285
246, 284, 243, 242
247, 424, 413, 382
248, 285, 244, 243
249, 382, 364, 335
250, 286, 245, 244
251, 287, 246, 245
252, 287, 245, 286
253, 288, 217,  40
254, 291,  41,  42
255, 348, 347, 289
256, 292, 218, 217
257, 290,  42,  43
258, 314, 256, 257
259, 291, 288,  41
260, 291,  42, 290
261, 349, 217, 288
262, 310, 255, 309
263, 440, 294, 346
264, 293, 220, 219
265, 295, 222, 221
266, 294, 221, 220
267, 482, 480, 441
268, 295, 215, 222
269, 297,  44,  45
270, 316, 256, 314
271, 298,  45,  46
272, 475, 405, 432
273, 299, 298,  46
274, 302, 298, 299
275, 299,  46,  47
276, 302, 299, 239
277, 300, 248, 264
278, 300, 246, 287
279, 301, 278, 200
280, 369, 319, 318
281, 302, 239, 238
282, 374, 344, 302
283, 303, 261, 254
284, 304, 254, 262
285, 305, 262, 253
286, 371, 321, 365
287, 306, 253, 260
288, 339, 338, 283
289, 307, 260, 252
290, 380, 337, 338
291, 308, 252, 259
292, 413, 364, 382
293, 364, 259, 317
294, 336, 335, 286
295, 313, 263, 251
296, 393, 347, 392
297, 404, 354, 355
298, 310, 258, 255
299, 311, 251, 261
300, 444, 399, 443
301, 390, 345, 344
302, 312, 250, 258
303, 313, 309, 263
304, 313, 251, 311
305, 345, 296, 297
306, 315, 314, 257
307, 315, 257, 250
308, 388, 387, 341
309, 390, 344, 374
310, 316, 249, 256
311, 375, 335, 364
312, 317, 259, 223
313, 328, 318, 271
314, 370, 369, 318
315, 373, 320, 267
316, 319, 267, 265
317, 320, 200,  14
318, 320,  14,  15
319, 321, 275, 270
320, 324, 270, 276
321, 360, 305, 358
322, 322, 269, 275
323, 379, 333, 279
324, 323, 273, 269
325, 325, 276, 274
326, 443, 398, 442
327, 326, 274, 266
328, 399, 366, 398
329, 395, 268, 272
330, 434, 327, 395
331, 395, 327, 268
332, 512, 436, 478
333, 328, 271, 203
334, 372, 273, 323
335, 329, 282, 240
336, 340, 277, 281
337, 330, 279,  82
338, 332, 330,  83
339, 333, 331,  80
340, 379, 279, 378
341, 332,  83,  84
342, 332, 278, 301
343, 333,  80,  81
344, 481, 479, 462
345, 334, 281, 280
346, 421, 334, 377
347, 335, 287, 286
348, 336, 286, 285
349, 337, 285, 284
350, 338, 284, 283
351, 339, 283, 282
352, 381, 337, 380
353, 376, 282, 329
354, 422, 381, 380
355, 386, 329, 340
356, 507, 472, 470
357, 340, 329, 277
358, 340, 281, 334
359, 349, 288, 341
360, 341, 288, 291
361, 342, 290, 296
362, 352, 316, 314
363, 343, 341, 291
364, 343, 290, 342
365, 344, 297, 298
366, 374, 302, 249
367, 475, 390, 352
368, 345, 342, 296
369, 441, 440, 436
370, 347, 293, 289
371, 348, 289, 292
372, 392, 347, 348
373, 394, 292, 349
374, 359, 310, 309
375, 349, 292, 217
376, 387, 349, 341
377, 531, 489, 520
378, 350, 326, 327
379, 351, 311, 303
380, 361, 303, 304
381, 362, 314, 315
382, 354, 315, 312
383, 366, 365, 324
384, 353, 313, 311
385, 355, 312, 310
386, 431, 430, 388
387, 359, 355, 310
388, 524, 473, 474
389, 357, 307, 356
390, 356, 307, 308
391, 424, 356, 413
392, 358, 306, 357
393, 414, 371, 400
394, 358, 305, 306
395, 363, 359, 309
396, 412, 359, 363
397, 492, 453, 467
398, 360, 304, 305
399, 361, 351, 303
400, 361, 304, 360
401, 362, 352, 314
402, 362, 315, 354
403, 408, 353, 401
404, 412, 363, 408
405, 364, 308, 259
406, 375, 364, 317
407, 365, 321, 324
408, 366, 324, 325
409, 367, 366, 325
410, 398, 367, 397
411, 367, 325, 326
412, 397, 367, 350
413, 466, 424, 422
414, 371, 368, 322
415, 370, 318, 328
416, 506, 471, 469
417, 372, 370, 328
418, 417, 415, 372
419, 371, 322, 321
420, 400, 365, 399
421, 372, 328, 273
422, 417, 323, 368
423, 418, 319, 369
424, 373, 301, 320
425, 374, 249, 316
426, 390, 389, 345
427, 375, 317, 300
428, 375, 287, 335
429, 376, 339, 282
430, 506, 469, 505
431, 377, 334, 280
432, 385, 331, 333
433, 378, 279, 330
434, 396, 330, 332
435, 416, 370, 415
436, 469, 428, 425
437, 383, 338, 339
438, 420, 339, 376
439, 424, 403, 356
440, 381, 336, 337
441, 382, 335, 336
442, 382, 336, 381
443, 486, 444, 485
444, 492, 455, 453
445, 384, 340, 334
446, 465, 384, 421
447, 385, 377, 331
448, 385, 333, 379
449, 386, 376, 329
450, 386, 340, 384
451, 419, 394, 387
452, 388, 341, 343
453, 391, 343, 342
454, 406, 405, 362
455, 389, 342, 345
456, 405, 352, 362
457, 390, 374, 316
458, 390, 316, 352
459, 391, 388, 343
460, 391, 342, 389
461, 433, 393, 392
462, 435, 348, 394
463, 445, 395, 437
464, 393, 346, 347
465, 394, 348, 292
466, 394, 349, 387
467, 437, 272, 216
468, 568, 544, 545
469, 439, 301, 373
470, 439, 418, 438
471, 476, 350, 434
472, 450, 401, 447
473, 488, 447, 487
474, 398, 366, 367
475, 402, 401, 351
476, 399, 365, 366
477, 407, 402, 361
478, 400, 371, 365
479, 401, 353, 351
480, 402, 351, 361
481, 407, 361, 360
482, 485, 443, 484
483, 410, 357, 403
484, 403, 357, 356
485, 430, 419, 387
486, 409, 355, 359
487, 475, 432, 389
488, 406, 362, 354
489, 578, 526, 557
490, 474, 473, 431
491, 411, 360, 358
492, 517, 485, 516
493, 412, 409, 359
494, 408, 363, 353
495, 511, 477, 489
496, 409, 404, 355
497, 410, 358, 357
498, 466, 453, 403
499, 411, 407, 360
500, 411, 358, 410
501, 458, 408, 450
502, 458, 412, 408
503, 413, 356, 308
504, 413, 308, 364
505, 414, 368, 371
506, 446, 400, 444
507, 415, 370, 372
508, 460, 459, 417
509, 426, 425, 379
510, 416, 369, 370
511, 417, 372, 323
512, 460, 368, 414
513, 418, 373, 319
514, 462, 369, 416
515, 456, 435, 419
516, 430, 387, 388
517, 420, 383, 339
518, 429, 376, 386
519, 421, 384, 334
520, 428, 377, 385
521, 423, 380, 383
522, 423, 422, 380
523, 467, 466, 422
524, 463, 383, 420
525, 424, 382, 381
526, 424, 381, 422
527, 425, 385, 379
528, 461, 415, 459
529, 438, 426, 378
530, 479, 438, 462
531, 427, 386, 384
532, 504, 427, 465
533, 428, 421, 377
534, 428, 385, 425
535, 429, 420, 376
536, 429, 386, 427
537, 431, 388, 391
538, 524, 474, 449
539, 432, 431, 391
540, 449, 405, 406
541, 432, 391, 389
542, 474, 405, 449
543, 501, 434, 445
544, 477, 392, 435
545, 543, 514, 483
546, 434, 350, 327
547, 435, 392, 348
548, 435, 394, 419
549, 480, 440, 441
550, 478, 393, 433
551, 437, 395, 272
552, 601, 482, 571
553, 438, 378, 396
554, 462, 438, 418
555, 439, 396, 301
556, 439, 373, 418
557, 440, 295, 294
558, 440, 346, 436
559, 601, 215, 480
560, 587, 586, 567
561, 442, 398, 397
562, 510, 397, 476
563, 572, 550, 548
564, 443, 399, 398
565, 448, 447, 402
566, 444, 400, 399
567, 445, 434, 395
568, 515, 441, 512
569, 536, 506, 535
570, 446, 414, 400
571, 447, 401, 402
572, 448, 402, 407
573, 454, 407, 411
574, 551, 548, 519
575, 452, 406, 404
576, 452, 404, 451
577, 457, 451, 409
578, 450, 408, 401
579, 451, 404, 409
580, 457, 409, 412
581, 464, 456, 419
582, 452, 449, 406
583, 455, 410, 453
584, 453, 410, 403
585, 454, 448, 407
586, 455, 454, 411
587, 455, 411, 410
588, 491, 490, 454
589, 489, 477, 456
590, 464, 419, 430
591, 458, 457, 412
592, 528, 498, 503
593, 495, 450, 488
594, 495, 458, 450
595, 459, 415, 417
596, 500, 497, 460
597, 460, 417, 368
598, 500, 414, 446
599, 505, 468, 481
600, 461, 416, 415
601, 462, 418, 369
602, 481, 416, 461
603, 463, 423, 383
604, 472, 420, 429
605, 473, 464, 430
606, 528, 524, 493
607, 465, 427, 384
608, 471, 421, 428
609, 466, 403, 424
610, 467, 422, 423
611, 467, 453, 466
612, 502, 423, 463
613, 468, 425, 426
614, 479, 468, 426
615, 499, 459, 497
616, 539, 508, 536
617, 470, 429, 427
618, 584, 583, 558
619, 471, 465, 421
620, 471, 428, 469
621, 472, 463, 420
622, 472, 429, 470
623, 473, 430, 431
624, 524, 503, 473
625, 474, 431, 432
626, 474, 432, 405
627, 475, 389, 390
628, 475, 352, 405
629, 541, 511, 531
630, 476, 397, 350
631, 477, 433, 392
632, 477, 435, 456
633, 478, 436, 393
634, 513, 433, 511
635, 479, 426, 438
636, 481, 462, 416
637, 480, 215, 295
638, 480, 295, 440
639, 532, 481, 461
640, 481, 468, 479
641, 571, 543, 483
642, 601, 571, 201
643, 483, 445, 437
644, 597, 483, 437
645, 484, 443, 442
646, 534, 442, 510
647, 550, 518, 548
648, 485, 444, 443
649, 490, 487, 448
650, 486, 446, 444
651, 487, 447, 448
652, 490, 448, 454
653, 496, 458, 495
654, 488, 450, 447
655, 498, 456, 464
656, 494, 493, 451
657, 491, 454, 455
658, 562, 542, 492
659, 492, 491, 455
660, 566, 551, 521
661, 502, 467, 423
662, 502, 492, 467
663, 493, 452, 451
664, 494, 451, 457
665, 496, 457, 458
666, 578, 528, 526
667, 523, 488, 518
668, 530, 495, 523
669, 527, 526, 494
670, 496, 494, 457
671, 497, 459, 460
672, 525, 522, 500
673, 498, 489, 456
674, 503, 498, 464
675, 535, 505, 532
676, 499, 461, 459
677, 500, 460, 414
678, 525, 446, 486
679, 501, 476, 434
680, 514, 445, 483
681, 509, 463, 472
682, 509, 472, 507
683, 503, 464, 473
684, 528, 493, 526
685, 504, 470, 427
686, 508, 465, 471
687, 505, 469, 468
688, 532, 505, 481
689, 563, 539, 561
690, 508, 471, 506
691, 533, 470, 504
692, 590, 570, 589
693, 529, 497, 522
694, 508, 504, 465
695, 562, 509, 537
696, 509, 502, 463
697, 510, 442, 397
698, 538, 476, 501
699, 587, 585, 580
700, 511, 433, 477
701, 512, 441, 436
702, 540, 478, 513
703, 565, 540, 513
704, 513, 478, 433
705, 514, 501, 445
706, 568, 515, 544
707, 515, 482, 441
708, 544, 515, 512
709, 516, 485, 484
710, 555, 484, 534
711, 519, 518, 487
712, 517, 486, 485
713, 518, 488, 487
714, 519, 487, 490
715, 521, 490, 491
716, 592, 574, 588
717, 520, 489, 498
718, 530, 496, 495
719, 542, 491, 492
720, 537, 509, 507
721, 522, 497, 500
722, 552, 547, 525
723, 576, 516, 555
724, 523, 495, 488
725, 524, 449, 452
726, 524, 452, 493
727, 525, 500, 446
728, 552, 486, 517
729, 526, 493, 494
730, 527, 494, 496
731, 530, 527, 496
732, 581, 578, 557
733, 528, 520, 498
734, 528, 503, 524
735, 559, 535, 529
736, 529, 499, 497
737, 553, 523, 550
738, 577, 550, 572
739, 604, 599, 582
740, 531, 511, 489
741, 532, 461, 499
742, 535, 532, 499
743, 533, 507, 470
744, 539, 504, 508
745, 534, 484, 442
746, 560, 510, 538
747, 535, 506, 505
748, 535, 499, 529
749, 536, 508, 506
750, 561, 559, 554
751, 558, 507, 533
752, 574, 551, 569
753, 538, 510, 476
754, 545, 501, 514
755, 554, 522, 547
756, 539, 533, 504
757, 540, 512, 478
758, 587, 580, 560
759, 541, 513, 511
760, 564, 531, 549
761, 542, 521, 491
762, 562, 492, 502
763, 597, 571, 483
764, 543, 482, 515
765, 567, 545, 544
766, 544, 512, 540
767, 545, 538, 501
768, 568, 545, 514
769, 546, 517, 516
770, 582, 549, 581
771, 547, 522, 525
772, 592, 588, 589
773, 548, 518, 519
774, 551, 519, 521
775, 549, 531, 520
776, 556, 530, 553
777, 579, 553, 577
778, 550, 523, 518
779, 566, 521, 542
780, 603, 583, 566
781, 552, 525, 486
782, 573, 517, 546
783, 596, 577, 593
784, 553, 530, 523
785, 561, 536, 559
786, 554, 529, 522
787, 555, 516, 484
788, 580, 534, 560
789, 581, 557, 556
790, 556, 527, 530
791, 557, 526, 527
792, 557, 527, 556
793, 558, 537, 507
794, 563, 533, 539
795, 559, 536, 535
796, 559, 529, 554
797, 560, 534, 510
798, 586, 545, 567
799, 561, 539, 536
800, 598, 554, 575
801, 562, 502, 509
802, 603, 566, 542
803, 575, 547, 570
804, 563, 558, 533
805, 564, 541, 531
806, 604, 581, 579
807, 565, 513, 541
808, 585, 541, 564
809, 603, 542, 562
810, 583, 569, 566
811, 567, 544, 540
812, 567, 540, 565
813, 568, 514, 543
814, 568, 543, 515
815, 600, 588, 569
816, 569, 551, 566
817, 570, 547, 552
818, 573, 570, 552
819, 571, 211, 201
820, 571, 482, 543
821, 574, 572, 548
822, 594, 591, 546
823, 573, 552, 517
824, 591, 589, 573
825, 574, 548, 551
826, 588, 574, 569
827, 598, 561, 554
828, 575, 554, 547
829, 576, 546, 516
830, 595, 555, 580
831, 577, 553, 550
832, 593, 572, 592
833, 578, 549, 520
834, 578, 520, 528
835, 602, 594, 576
836, 579, 556, 553
837, 580, 555, 534
838, 587, 560, 586
839, 581, 549, 578
840, 581, 556, 579
841, 599, 585, 564
842, 582, 564, 549
843, 583, 537, 558
844, 584, 558, 563
845, 598, 584, 563
846, 600, 590, 588
847, 585, 565, 541
848, 599, 595, 585
849, 586, 560, 538
850, 586, 538, 545
851, 587, 567, 565
852, 587, 565, 585
853, 600, 569, 583
854, 590, 589, 588
855, 589, 570, 573
856, 591, 573, 546
857, 598, 590, 584
858, 590, 575, 570
859, 594, 593, 591
860, 593, 592, 591
861, 592, 572, 574
862, 592, 589, 591
863, 596, 593, 594
864, 593, 577, 572
865, 594, 546, 576
866, 602, 596, 594
867, 595, 576, 555
868, 595, 580, 585
869, 604, 579, 596
870, 596, 579, 577
871, 597, 216, 211
872, 597, 211, 571
873, 598, 563, 561
874, 598, 575, 590
875, 599, 564, 582
876, 604, 602, 599
877, 600, 583, 584
878, 600, 584, 590
879, 601, 201, 215
880, 601, 480, 482
881, 602, 576, 595
882, 602, 595, 599
883, 603, 562, 537
884, 603, 537, 583
885, 604, 582, 581
886, 604, 596, 602
 887, 651, 646,  28
 888, 691, 640, 687
 889, 846, 796, 649
 890, 652, 117, 118
 891, 653, 606, 607
 892, 718, 679, 680
 893,  13,   1,  86
 894, 616,  86,  87
 895, 704, 664, 703
 896, 732, 685, 723
 897, 705, 611, 657
 898, 685, 682,  16
 899, 692, 642, 686
 900, 667, 666, 626
 901, 668, 667, 625
 902, 727, 724, 683
 903, 640, 638,  23
 904, 669, 665, 621
 905, 644, 639,  25
 906, 639,  26,  25
 907, 645,  26, 639
 908, 713, 710, 669
 909,  97,  96,   6
 910, 632,  97,  98
 911, 671, 670, 630
 912, 716, 671, 714
 913, 659, 657,  93
 914, 657,  92,  93
 915, 612,  91, 611
 916, 613,  90, 612
 917, 614,  89, 613
 918, 615,  88, 614
 919, 616,  87, 615
 920, 116,   7, 117
 921, 652, 633, 116
 922, 607, 120, 121
 923, 672, 652, 605
 924, 650, 126, 648
 925, 618, 112, 617
 926, 619, 111, 618
 927, 620, 110, 619
 928, 621, 109, 620
 929, 622, 108, 621
 930, 623, 107, 622
 931, 624, 106, 623
 932, 625, 105, 624
 933, 626, 104, 625
 934, 627, 103, 626
 935, 628, 102, 627
 936, 629, 101, 628
 937, 630, 100, 629
 938, 631,  99, 630
 939, 632,  98, 631
 940, 605, 118, 119
 941, 606, 119, 120
 942, 606, 605, 119
 943, 681, 634, 672
 944, 607, 606, 120
 945, 609, 608, 122
 946, 610,   8, 124
 947, 646,   2,  28
 948, 698, 653, 654
 949, 634, 115, 633
 950, 818, 758, 721
 951, 608, 121, 122
 952, 681, 673, 635
 953, 608, 607, 121
 954, 734, 698, 733
 955, 609, 122, 123
 956, 647, 609, 610
 957, 610, 609, 123
 958, 647, 610, 124
 959, 610, 123,   8
 960, 647, 124, 125
 961, 682,  17,  16
 962, 611,  91,  92
 963, 723, 689, 696
 964, 612,  90,  91
 965, 663, 612, 662
 966, 613,  89,  90
 967, 689, 685,  15
 968, 614,  88,  89
 969, 696, 615, 658
 970, 615,  87,  88
 971, 690,  13, 616
 972, 616,  13,  86
 973, 617, 112, 113
 974, 635, 113, 114
 975, 648, 126, 127
 976, 618, 111, 112
 977, 644,  24, 638
 978, 619, 110, 111
 979, 674, 669, 620
 980, 620, 109, 110
 981, 643,  22,  21
 982, 621, 108, 109
 983, 643,  21, 637
 984, 622, 107, 108
 985, 637,  20, 636
 986, 623, 106, 107
 987, 675, 668, 624
 988, 624, 105, 106
 989, 642,  18, 641
 990, 625, 104, 105
 991, 821, 810, 783
 992, 626, 103, 104
 993, 676, 627, 666
 994, 627, 102, 103
 995, 677, 628, 676
 996, 628, 101, 102
 997, 701, 660, 695
 998, 629, 100, 101
 999, 660, 659,  94
1000, 630,  99, 100
1001, 670, 631, 630
1002, 631,  98,  99
1003, 661,  96, 632
1004, 632,  96,  97
1005, 633, 115, 116
1006, 652, 116, 117
1007, 635, 114, 634
1008, 634, 114, 115
1009, 655, 606, 653
1010, 635, 617, 113
1011, 636,  20,  19
1012, 642,  19,  18
1013, 678, 622, 665
1014, 637,  21,  20
1015, 638,  24,  23
1016, 640,  23,  22
1017, 649, 128, 646
1018, 644,  25,  24
1019, 643, 640,  22
1020, 708, 707, 675
1021, 641,  18,  17
1022, 702, 663, 662
1023, 728, 727, 692
1024, 642, 636,  19
1025, 693, 637, 683
1026, 707, 706, 668
1027, 729, 691, 726
1028, 688, 684, 639
1029, 649, 648, 127
1030, 645,  27,  26
1031, 646, 128,   2
1032, 651,  28,  27
1033, 656, 609, 647
1034, 650, 125, 126
1035, 680, 618, 617
1036, 649, 127, 128
1037, 651, 649, 646
1038, 766, 684, 731
1039, 680, 617, 673
1040, 650, 647, 125
1041, 651,  27, 645
1042, 697, 645, 684
1043, 652, 118, 605
1044, 672, 605, 655
1045, 654, 607, 608
1046, 654, 653, 607
1047, 656, 608, 609
1048, 656, 654, 608
1049, 699, 653, 698
1050, 655, 605, 606
1051, 836, 767, 647
1052, 795, 731, 742
1053, 657, 611,  92
1054, 659,  93,  94
1055, 658, 615, 614
1056, 664, 614, 613
1057, 660,  94,  95
1058, 701, 700, 659
1059, 661, 660,  95
1060, 695, 632, 631
1061, 661,  95,  96
1062, 695, 661, 632
1063, 662, 612, 611
1064, 711, 677, 676
1065, 703, 663, 702
1066, 663, 613, 612
1067, 664, 658, 614
1068, 664, 613, 663
1069, 665, 622, 621
1070, 669, 621, 620
1071, 666, 627, 626
1072, 667, 626, 625
1073, 668, 625, 624
1074, 712, 667, 706
1075, 675, 624, 623
1076, 725, 693, 724
1077, 674, 620, 619
1078, 731, 688, 730
1079, 701, 659, 660
1080, 671, 630, 629
1081, 677, 629, 628
1082, 750, 711, 745
1083, 672, 634, 633
1084, 672, 633, 652
1085, 679, 674, 619
1086, 673, 617, 635
1087, 679, 619, 618
1088, 742, 731, 730
1089, 678, 675, 623
1090, 709, 708, 678
1091, 676, 628, 627
1092, 712, 666, 667
1093, 714, 677, 711
1094, 677, 671, 629
1095, 678, 623, 622
1096, 730, 694, 729
1097, 680, 679, 618
1098, 718, 680, 717
1099, 721, 681, 720
1100, 721, 673, 681
1101, 681, 635, 634
1102, 720, 672, 655
1103, 682, 641,  17
1104, 685,  16,  15
1105, 683, 637, 636
1106, 692, 636, 642
1107, 684, 645, 639
1108, 688, 639, 644
1109, 689,  15,  14
1110, 770, 737, 738
1111, 686, 642, 641
1112, 722, 641, 682
1113, 687, 640, 643
1114, 693, 687, 643
1115, 694, 644, 638
1116, 710, 709, 665
1117, 690, 689,  14
1118, 696, 689, 690
1119, 690,  14,  13
1120, 696, 690, 616
1121, 691, 638, 640
1122, 726, 687, 725
1123, 715, 666, 712
1124, 692, 683, 636
1125, 693, 643, 637
1126, 749, 707, 748
1127, 694, 688, 644
1128, 694, 638, 691
1129, 695, 660, 661
1130, 695, 631, 670
1131, 696, 616, 615
1132, 740, 723, 696
1133, 697, 649, 651
1134, 697, 651, 645
1135, 733, 654, 656
1136, 733, 698, 654
1137, 721, 720, 699
1138, 699, 655, 653
1139, 736, 735, 700
1140, 700, 657, 659
1141, 741, 695, 670
1142, 769, 768, 735
1143, 739, 662, 705
1144, 755, 716, 714
1145, 737, 704, 703
1146, 703, 664, 663
1147, 790, 788, 770
1148, 704, 658, 664
1149, 705, 662, 611
1150, 705, 657, 700
1151, 706, 667, 668
1152, 707, 668, 675
1153, 708, 675, 678
1154, 806, 775, 803
1155, 709, 678, 665
1156, 778, 747, 775
1157, 710, 665, 669
1158, 775, 746, 774
1159, 713, 669, 674
1160, 757, 756, 729
1161, 715, 676, 666
1162, 840, 827, 810
1163, 754, 706, 749
1164, 751, 745, 715
1165, 719, 674, 679
1166, 843, 829, 824
1167, 741, 736, 701
1168, 714, 671, 677
1169, 782, 780, 745
1170, 715, 711, 676
1171, 741, 716, 736
1172, 716, 670, 671
1173, 793, 758, 734
1174, 717, 680, 673
1175, 752, 743, 719
1176, 719, 679, 718
1177, 836, 797, 798
1178, 719, 713, 674
1179, 720, 681, 672
1180, 720, 655, 699
1181, 818, 734, 758
1182, 721, 717, 673
1183, 722, 686, 641
1184, 763, 723, 740
1185, 723, 685, 689
1186, 740, 696, 658
1187, 724, 693, 683
1188, 727, 683, 692
1189, 748, 708, 747
1190, 725, 687, 693
1191, 747, 709, 746
1192, 726, 691, 687
1193, 728, 692, 686
1194, 754, 751, 712
1195, 753, 686, 722
1196, 738, 737, 703
1197, 746, 710, 744
1198, 729, 694, 691
1199, 744, 713, 743
1200, 730, 688, 694
1201, 807, 802, 773
1202, 731, 684, 688
1203, 732, 722, 682
1204, 732, 682, 685
1205, 767, 656, 647
1206, 794, 733, 767
1207, 845, 820, 844
1208, 765, 717, 758
1209, 841, 834, 799
1210, 735, 705, 700
1211, 736, 700, 701
1212, 755, 736, 716
1213, 764, 732, 763
1214, 738, 703, 702
1215, 771, 702, 739
1216, 799, 768, 786
1217, 739, 702, 662
1218, 739, 705, 735
1219, 740, 658, 704
1220, 763, 740, 704
1221, 741, 701, 695
1222, 741, 670, 716
1223, 756, 730, 729
1224, 777, 773, 743
1225, 743, 713, 719
1226, 752, 719, 718
1227, 822, 803, 802
1228, 744, 710, 713
1229, 745, 711, 715
1230, 751, 715, 712
1231, 776, 756, 757
1232, 746, 709, 710
1233, 825, 808, 806
1234, 747, 708, 709
1235, 781, 748, 778
1236, 748, 707, 708
1237, 761, 759, 724
1238, 749, 706, 707
1239, 786, 755, 750
1240, 750, 714, 711
1241, 754, 712, 706
1242, 762, 761, 727
1243, 765, 718, 717
1244, 844, 833, 839
1245, 753, 728, 686
1246, 788, 763, 737
1247, 784, 749, 781
1248, 787, 754, 784
1249, 769, 736, 755
1250, 755, 714, 750
1251, 756, 742, 730
1252, 757, 729, 726
1253, 760, 726, 725
1254, 804, 801, 776
1255, 758, 717, 721
1256, 818, 721, 699
1257, 759, 725, 724
1258, 761, 724, 727
1259, 760, 757, 726
1260, 760, 725, 759
1261, 762, 727, 728
1262, 811, 781, 808
1263, 783, 728, 753
1264, 812, 809, 782
1265, 763, 732, 723
1266, 763, 704, 737
1267, 764, 753, 722
1268, 764, 722, 732
1269, 792, 777, 752
1270, 765, 752, 718
1271, 846, 649, 697
1272, 766, 697, 684
1273, 767, 733, 656
1274, 797, 650, 648
1275, 841, 786, 780
1276, 768, 739, 735
1277, 769, 735, 736
1278, 786, 769, 755
1279, 790, 764, 788
1280, 800, 738, 771
1281, 771, 738, 702
1282, 771, 739, 768
1283, 774, 744, 773
1284, 772, 742, 756
1285, 773, 744, 743
1286, 777, 743, 752
1287, 802, 774, 773
1288, 774, 746, 744
1289, 804, 776, 779
1290, 775, 747, 746
1291, 776, 772, 756
1292, 779, 757, 760
1293, 792, 752, 765
1294, 815, 807, 777
1295, 805, 804, 779
1296, 778, 748, 747
1297, 779, 776, 757
1298, 785, 760, 759
1299, 780, 750, 745
1300, 782, 745, 751
1301, 789, 785, 759
1302, 781, 749, 748
1303, 787, 751, 754
1304, 832, 828, 812
1305, 783, 762, 728
1306, 790, 753, 764
1307, 814, 784, 811
1308, 784, 754, 749
1309, 785, 779, 760
1310, 789, 759, 761
1311, 786, 768, 769
1312, 786, 750, 780
1313, 791, 789, 761
1314, 787, 782, 751
1315, 788, 764, 763
1316, 788, 737, 770
1317, 791, 761, 762
1318, 831, 826, 813
1319, 821, 790, 770
1320, 790, 783, 753
1321, 810, 762, 783
1322, 832, 814, 831
1323, 793, 792, 765
1324, 817, 815, 792
1325, 793, 765, 758
1326, 835, 817, 793
1327, 838, 830, 833
1328, 794, 734, 733
1329, 795, 766, 731
1330, 819, 742, 772
1331, 796, 648, 649
1332, 820, 766, 795
1333, 833, 830, 815
1334, 845, 648, 796
1335, 798, 794, 767
1336, 836, 798, 767
1337, 841, 809, 834
1338, 799, 771, 768
1339, 800, 770, 738
1340, 800, 771, 799
1341, 823, 801, 804
1342, 801, 772, 776
1343, 807, 773, 777
1344, 824, 822, 802
1345, 803, 775, 774
1346, 803, 774, 802
1347, 805, 779, 785
1348, 825, 804, 805
1349, 813, 785, 789
1350, 826, 811, 808
1351, 806, 778, 775
1352, 823, 806, 803
1353, 815, 777, 792
1354, 830, 824, 807
1355, 808, 781, 778
1356, 808, 778, 806
1357, 809, 780, 782
1358, 812, 782, 787
1359, 810, 791, 762
1360, 821, 783, 790
1361, 816, 813, 789
1362, 811, 784, 781
1363, 814, 787, 784
1364, 832, 827, 828
1365, 813, 805, 785
1366, 832, 831, 816
1367, 814, 812, 787
1368, 831, 811, 826
1369, 817, 792, 793
1370, 839, 833, 837
1371, 816, 789, 791
1372, 827, 816, 791
1373, 835, 793, 734
1374, 837, 833, 817
1375, 818, 699, 698
1376, 818, 698, 734
1377, 819, 795, 742
1378, 829, 772, 801
1379, 846, 820, 796
1380, 838, 795, 819
1381, 842, 770, 800
1382, 840, 834, 828
1383, 829, 801, 822
1384, 823, 822, 801
1385, 823, 803, 822
1386, 825, 823, 804
1387, 824, 802, 807
1388, 830, 807, 815
1389, 825, 806, 823
1390, 826, 825, 805
1391, 826, 808, 825
1392, 826, 805, 813
1393, 827, 791, 810
1394, 840, 810, 821
1395, 842, 834, 840
1396, 828, 809, 812
1397, 829, 819, 772
1398, 829, 822, 824
1399, 843, 830, 838
1400, 833, 815, 817
1401, 831, 814, 811
1402, 831, 813, 816
1403, 832, 812, 814
1404, 832, 816, 827
1405, 837, 817, 835
1406, 839, 837, 798
1407, 834, 800, 799
1408, 834, 809, 828
1409, 835, 734, 794
1410, 837, 835, 794
1411, 836, 647, 650
1412, 836, 650, 797
1413, 837, 794, 798
1414, 839, 798, 797
1415, 838, 820, 795
1416, 843, 838, 819
1417, 845, 844, 839
1418, 845, 839, 797
1419, 840, 828, 827
1420, 842, 840, 821
1421, 841, 799, 786
1422, 841, 780, 809
1423, 842, 821, 770
1424, 842, 800, 834
1425, 843, 819, 829
1426, 843, 824, 830
1427, 844, 820, 838
1428, 844, 838, 833
1429, 845, 797, 648
1430, 845, 796, 820
1431, 846, 697, 766
1432, 846, 766, 820
1433,  927,    9,  129
1434,  847,  131,  132
1435,  922,  853,  852
1436,  952,  916,  951
1437,  998,   47,   46
1438,  849,  169,  848
1439,  136,   10,  137
1440,  865,  137,  138
1441,  929,  921,  924
1442,  921,  134,  135
1443, 1026,  994,  965
1444,  927,  886,  171
1445,  852,  131,  847
1446,  853,  130,  852
1447,  154,   11,  155
1448,  874,  155,  156
1449,  931,  930,  897
1450,  982,  945,  979
1451,  901,  153,  893
1452,  932,  901,  928
1453,  888,  149,  150
1454,  855,  148,  854
1455,  856,  147,  855
1456,  916,  915,  857
1457,  971,  941,  964
1458, 1026, 1005,  992
1459,  859,  144,  858
1460,  860,  143,  859
1461,  898,  860,  891
1462,  863,  140,  862
1463,  864,  139,  863
1464,  865,  138,  864
1465,   47,  166,    4
1466,  866,  166,   47
1467,  911,   46,   45
1468,  903,  164,  165
1469,  949,  867,  903
1470,  904,  163,  867
1471,  869,  161,  868
1472,  870,  160,  869
1473,  871,  159,  870
1474,  872,  158,  871
1475,  873,  157,  872
1476,  874,  156,  873
1477,  912,   44,  875
1478,  989,  958,  950
1479,  875,   44,   43
1480,  876,   42,  857
1481,  877,  146,  856
1482,  879,  878,   40
1483,  880,  879,   39
1484,  877,  858,  145
1485,  881,  880,   38
1486,  882,  881,   37
1487,  899,  858,  894
1488,  913,  884,  887
1489,  884,  883,   35
1490,  885,    3,  167
1491,  926,  852,  847
1492,  887,  885,  167
1493,  851,  132,  133
1494,  994,  959,  990
1495,  861,  142,  860
1496,  848,  169,  170
1497,  883,  882,   36
1498,  849,  168,  169
1499,  850,  133,  134
1500,  862,  141,  861
1501,  851,  847,  132
1502,  851,  133,  850
1503,  922,  886,  853
1504,  852,  130,  131
1505,  927,  853,  886
1506,  853,  129,  130
1507,  854,  148,  149
1508,  904,  162,  163
1509,  900,  890,  855
1510,  855,  147,  148
1511,  878,  857,   41
1512,  856,  146,  147
1513,  857,   42,   41
1514,  878,   41,   40
1515,  858,  144,  145
1516,  877,  145,  146
1517,  891,  860,  859
1518,  859,  143,  144
1519,  898,  861,  860
1520,  860,  142,  143
1521,  925,  923,  851
1522,  861,  141,  142
1523,  896,  863,  862
1524,  862,  140,  141
1525,  892,  864,  863
1526,  863,  139,  140
1527,  929,  865,  864
1528,  864,  138,  139
1529,  924,  136,  865
1530,  865,  136,  137
1531,  903,  867,  164
1532,  866,  165,  166
1533,  867,  163,  164
1534,  949,  943,  867
1535,  948,  868,  904
1536,  868,  161,  162
1537,  944,  908,  907
1538,  869,  160,  161
1539,  931,  897,  889
1540,  870,  159,  160
1541,  906,  871,  870
1542,  871,  158,  159
1543,  901,  152,  153
1544,  872,  157,  158
1545,  928,  874,  873
1546,  873,  156,  157
1547,  893,  154,  874
1548,  874,  154,  155
1549,  876,  875,   43
1550,  914,  875,  876
1551,  876,   43,   42
1552, 1013,  978,  989
1553,  902,  856,  890
1554,  941,  902,  939
1555,  879,   40,   39
1556,  917,  916,  878
1557,  880,   39,   38
1558,  918,  880,  910
1559,  881,   38,   37
1560,  939,  890,  933
1561,  882,   37,   36
1562,  973,  940,  971
1563,  883,   36,   35
1564,  973,  936,  940
1565,  884,   35,   34
1566,  913,  883,  884
1567,  885,  884,   34
1568,  887,  168,  849
1569,  885,   34,    3
1570,  887,  167,  168
1571,  886,  848,  170
1572,  886,  170,  171
1573,  999,  887,  849
1574,  887,  884,  885
1575,  888,  854,  149
1576,  897,  150,  151
1577,  889,  151,  152
1578,  905,  873,  872
1579,  890,  856,  855
1580,  900,  855,  854
1581,  899,  859,  858
1582,  898,  895,  861
1583,  895,  862,  861
1584,  959,  921,  929
1585,  893,  153,  154
1586,  928,  873,  905
1587,  894,  858,  877
1588,  902,  894,  877
1589,  961,  926,  923
1590,  925,  851,  850
1591,  896,  892,  863
1592,  896,  862,  895
1593,  897,  888,  150
1594,  897,  151,  889
1595,  934,  898,  891
1596,  938,  898,  934
1597,  936,  934,  891
1598,  899,  891,  859
1599,  942,  854,  888
1600, 1036, 1035, 1003
1601,  932,  931,  889
1602,  901,  889,  152
1603,  902,  877,  856
1604,  954,  951,  917
1605,  903,  165,  866
1606,  998,  984,  866
1607,  904,  868,  162
1608, 1017,  978,  949
1609,  909,  872,  871
1610,  909,  871,  906
1611,  908,  870,  869
1612,  908,  869,  907
1613,  907,  869,  868
1614, 1004, 1003,  967
1615,  945,  908,  944
1616,  908,  906,  870
1617,  946,  906,  945
1618,  909,  905,  872
1619,  910,  880,  881
1620,  919,  881,  882
1621,  998,  911,  984
1622,  912,  911,   45
1623,  912,   45,   44
1624,  950,  875,  914
1625,  920,  919,  882
1626, 1051,  996, 1027
1627,  915,  876,  857
1628,  915,  914,  876
1629,  916,  857,  878
1630,  987,  951,  986
1631,  917,  878,  879
1632, 1020,  986, 1011
1633,  918,  917,  879
1634,  955,  954,  918
1635,  918,  879,  880
1636,  986,  954,  976
1637,  919,  910,  881
1638,  920,  882,  883
1639,  920,  883,  913
1640, 1029, 1028,  997
1641,  921,  850,  134
1642,  924,  921,  135
1643, 1078,  996,  886
1644,  937,  935,  896
1645,  923,  847,  851
1646,  994,  925,  959
1647,  924,  135,  136
1648,  929,  924,  865
1649,  959,  850,  921
1650,  935,  892,  896
1651,  926,  922,  852
1652,  926,  847,  923
1653,  927,  171,    9
1654,  927,  129,  853
1655,  928,  901,  893
1656,  928,  893,  874
1657,  929,  864,  892
1658,  990,  929,  892
1659,  967,  942,  930
1660,  930,  888,  897
1661,  932,  889,  901
1662,  947,  909,  946
1663,  975,  928,  905
1664,  982,  980,  946
1665,  933,  890,  900
1666,  970,  900,  942
1667,  936,  891,  899
1668, 1026,  992,  960
1669,  937,  896,  895
1670,  938,  895,  898
1671,  940,  899,  894
1672,  974,  936,  973
1673,  938,  937,  895
1674,  965,  935,  937
1675,  972,  966,  938
1676, 1024,  992, 1005
1677, 1002,  964, 1000
1678,  939,  902,  890
1679,  940,  936,  899
1680,  941,  940,  894
1681,  941,  894,  902
1682,  964,  939,  963
1683,  942,  900,  854
1684,  942,  888,  930
1685,  981,  943,  978
1686,  943,  904,  867
1687,  977,  907,  948
1688,  953,  915,  952
1689,  968,  967,  930
1690,  945,  906,  908
1691,  975,  969,  932
1692,  946,  909,  906
1693,  975,  947,  969
1694,  947,  905,  909
1695,  948,  907,  868
1696,  948,  904,  943
1697,  984,  949,  903
1698,  958,  911,  912
1699,  950,  912,  875
1700,  985,  914,  953
1701,  951,  916,  917
1702,  954,  917,  918
1703,  988,  952,  987
1704,  952,  915,  916
1705, 1016,  981, 1013
1706,  953,  914,  915
1707,  955,  918,  910
1708, 1011,  976, 1001
1709,  957,  910,  919
1710, 1032, 1001, 1031
1711,  956,  919,  920
1712,  995,  920,  913
1713,  957,  955,  910
1714,  957,  919,  956
1715, 1017,  984,  958
1716,  958,  912,  950
1717,  990,  959,  929
1718,  959,  925,  850
1719,  961,  923,  960
1720,  960,  923,  925
1721, 1005,  965,  966
1722,  962,  926,  961
1723, 1078,  886,  922
1724,  962,  922,  926
1725,  963,  939,  933
1726, 1009,  933,  970
1727,  983,  976,  955
1728,  964,  941,  939
1729,  966,  937,  938
1730,  966,  965,  937
1731,  972,  938,  934
1732,  993,  962,  961
1733, 1004,  967,  968
1734,  968,  930,  931
1735,  969,  968,  931
1736,  980,  947,  946
1737,  969,  931,  932
1738,  980,  969,  947
1739,  970,  933,  900
1740,  970,  942,  967
1741,  991,  983,  957
1742,  971,  940,  941
1743,  974,  934,  936
1744, 1049, 1005, 1008
1745, 1007,  971, 1002
1746, 1019,  973, 1007
1747, 1019,  974,  973
1748,  974,  972,  934
1749,  975,  932,  928
1750,  975,  905,  947
1751,  976,  954,  955
1752,  983,  955,  957
1753,  977,  944,  907
1754,  981,  948,  943
1755,  978,  943,  949
1756, 1023,  989,  985
1757,  979,  945,  944
1758, 1012,  944,  977
1759, 1006,  969,  980
1760,  982,  946,  945
1761, 1041, 1013, 1023
1762,  981,  977,  948
1763, 1068, 1060, 1067
1764, 1069, 1067, 1060
1765,  991,  957,  956
1766, 1055, 1053, 1052
1767,  984,  903,  866
1768,  984,  911,  958
1769,  985,  950,  914
1770, 1022,  953,  988
1771, 1042, 1016, 1041
1772,  986,  951,  954
1773, 1021,  987, 1020
1774,  987,  952,  951
1775, 1069, 1054, 1067
1776,  988,  953,  952
1777, 1017,  989,  978
1778,  989,  950,  985
1779,  990,  892,  935
1780,  994,  990,  935
1781, 1025,  956,  995
1782, 1046, 1018, 1019
1783,  993,  961,  992
1784,  992,  961,  960
1785,  997,  848,  996
1786, 1050, 1048, 1024
1787,  994,  935,  965
1788,  994,  960,  925
1789,  995,  956,  920
1790,  999,  995,  913
1791,  996,  848,  886
1792, 1027,  962,  993
1793, 1030,  999, 1028
1794,  997,  849,  848
1795,  998,  866,   47
1796,  998,   46,  911
1797,  999,  913,  887
1798, 1028,  849,  997
1799, 1000,  964,  963
1800, 1038,  963, 1009
1801, 1001,  976,  983
1802, 1010,  983,  991
1803, 1002,  971,  964
1804, 1057, 1055, 1052
1805, 1036, 1003, 1004
1806, 1003,  970,  967
1807, 1006, 1004,  968
1808, 1015,  980,  982
1809, 1008,  966,  972
1810, 1008, 1005,  966
1811, 1006,  968,  969
1812, 1015, 1006,  980
1813, 1046, 1045, 1018
1814, 1007,  973,  971
1815, 1018,  972,  974
1816, 1047,  991, 1025
1817, 1009,  963,  933
1818, 1009,  970, 1003
1819, 1010, 1001,  983
1820, 1076, 1066, 1075
1821, 1039, 1011, 1032
1822, 1011,  986,  976
1823, 1012,  979,  944
1824, 1016,  977,  981
1825, 1013,  981,  978
1826, 1041, 1023, 1022
1827, 1014,  982,  979
1828, 1040,  979, 1012
1829, 1015, 1004, 1006
1830, 1015,  982, 1014
1831, 1044, 1041, 1022
1832, 1016, 1012,  977
1833, 1017,  949,  984
1834, 1017,  958,  989
1835, 1018, 1008,  972
1836, 1019, 1018,  974
1837, 1037, 1007, 1034
1838, 1046, 1019, 1037
1839, 1043, 1020, 1039
1840, 1020,  987,  986
1841, 1062, 1042, 1061
1842, 1021,  988,  987
1843, 1022,  985,  953
1844, 1044,  988, 1021
1845, 1023, 1013,  989
1846, 1023,  985, 1022
1847, 1024,  993,  992
1848, 1050, 1049, 1045
1849, 1025,  991,  956
1850, 1030,  995,  999
1851, 1026,  960,  994
1852, 1026,  965, 1005
1853, 1078, 1027,  996
1854, 1048,  993, 1024
1855, 1028,  999,  849
1856, 1051, 1029,  997
1857, 1080, 1051, 1048
1858, 1056, 1047, 1025
1859, 1030, 1025,  995
1860, 1030, 1028, 1029
1861, 1034, 1002, 1033
1862, 1031, 1001, 1010
1863, 1071, 1059, 1070
1864, 1032, 1011, 1001
1865, 1033, 1002, 1000
1866, 1059, 1000, 1038
1867, 1057, 1034, 1055
1868, 1034, 1007, 1002
1869, 1058, 1039, 1053
1870, 1035, 1009, 1003
1871, 1036, 1004, 1015
1872, 1068, 1015, 1014
1873, 1075, 1064, 1073
1874, 1037, 1019, 1007
1875, 1038, 1000,  963
1876, 1038, 1009, 1035
1877, 1039, 1020, 1011
1878, 1053, 1032, 1052
1879, 1040, 1014,  979
1880, 1042, 1012, 1016
1881, 1061, 1041, 1044
1882, 1041, 1016, 1013
1883, 1063, 1044, 1021
1884, 1042, 1040, 1012
1885, 1074, 1062, 1063
1886, 1043, 1021, 1020
1887, 1044, 1022,  988
1888, 1063, 1021, 1043
1889, 1045, 1008, 1018
1890, 1066, 1046, 1065
1891, 1065, 1037, 1057
1892, 1064, 1010, 1047
1893, 1047, 1010,  991
1894, 1056, 1025, 1030
1895, 1048, 1027,  993
1896, 1050, 1024, 1049
1897, 1049, 1024, 1005
1898, 1049, 1008, 1045
1899, 1066, 1045, 1046
1900, 1076, 1048, 1050
1901, 1051,  997,  996
1902, 1051, 1027, 1048
1903, 1052, 1032, 1031
1904, 1072, 1052, 1031
1905, 1070, 1059, 1054
1906, 1053, 1039, 1032
1907, 1054, 1038, 1035
1908, 1067, 1035, 1036
1909, 1055, 1034, 1033
1910, 1071, 1055, 1033
1911, 1077, 1030, 1029
1912, 1080, 1076, 1079
1913, 1075, 1072, 1064
1914, 1057, 1037, 1034
1915, 1058, 1043, 1039
1916, 1071, 1070, 1053
1917, 1059, 1033, 1000
1918, 1059, 1038, 1054
1919, 1060, 1014, 1040
1920, 1062, 1040, 1042
1921, 1063, 1062, 1061
1922, 1061, 1042, 1041
1923, 1074, 1069, 1062
1924, 1062, 1060, 1040
1925, 1063, 1061, 1044
1926, 1074, 1058, 1069
1927, 1064, 1031, 1010
1928, 1079, 1075, 1073
1929, 1065, 1046, 1037
1930, 1072, 1065, 1057
1931, 1073, 1064, 1047
1932, 1066, 1050, 1045
1933, 1067, 1054, 1035
1934, 1068, 1067, 1036
1935, 1068, 1036, 1015
1936, 1068, 1014, 1060
1937, 1069, 1060, 1062
1938, 1070, 1069, 1058
1939, 1070, 1054, 1069
1940, 1070, 1058, 1053
1941, 1071, 1053, 1055
1942, 1071, 1033, 1059
1943, 1072, 1057, 1052
1944, 1072, 1031, 1064
1945, 1073, 1047, 1056
1946, 1079, 1076, 1075
1947, 1074, 1063, 1043
1948, 1074, 1043, 1058
1949, 1075, 1066, 1065
1950, 1075, 1065, 1072
1951, 1080, 1079, 1077
1952, 1076, 1050, 1066
1953, 1077, 1056, 1030
1954, 1080, 1077, 1029
1955, 1078,  922,  962
1956, 1078,  962, 1027
1957, 1079, 1073, 1056
1958, 1079, 1056, 1077
1959, 1080, 1029, 1051
1960, 1080, 1048, 1076
1961, 1135,  134, 1083
1962, 1179,  136,  135
1963, 1172, 1152, 1166
1964, 1130, 1102, 1125
1965, 1116,    8,  123
1966, 1082, 1081,  174
1967, 1083,  134,  133
1968, 1117, 1107,  194
1969, 1084, 1083,  133
1970, 1085, 1084,  132
1971, 1086, 1085,  131
1972, 1134, 1087, 1090
1973, 1087, 1086,  130
1974, 1088,    9,  172
1975, 1089, 1082,  175
1976, 1090, 1088,  172
1977,  117,    7,  177
1978, 1091,  117,  177
1979, 1105,  179, 1104
1980, 1092,  119,  118
1981, 1141, 1140, 1114
1982, 1094,  120, 1093
1983, 1096,  123,  122
1984,  189,  188,   12
1985, 1111,  188,  189
1986, 1128,  188, 1111
1987, 1098,  186, 1097
1988, 1099,  185, 1098
1989, 1100,  184, 1099
1990, 1101,  183, 1100
1991, 1131, 1100, 1124
1992, 1103,  181, 1102
1993, 1113, 1093, 1092
1994, 1150, 1125, 1148
1995, 1158,  177,  178
1996,  199,   10,  136
1997, 1106,  199,  136
1998, 1160, 1135, 1155
1999, 1118,  198, 1106
2000, 1119,  197, 1118
2001, 1176, 1136, 1157
2002, 1117,  194,  195
2003, 1108,  193, 1107
2004, 1109,  192, 1108
2005, 1110,  191, 1109
2006, 1139, 1128, 1111
2007, 1081,  173,  174
2008, 1082,  174,  175
2009, 1089,  175,  176
2010, 1102,  182, 1101
2011, 1084,  133,  132
2012, 1168, 1145, 1152
2013, 1085,  132,  131
2014, 1129, 1098, 1127
2015, 1086,  131,  130
2016, 1149, 1131, 1124
2017, 1087,  130,  129
2018, 1134, 1086, 1087
2019, 1088, 1087,  129
2020, 1090,  173, 1081
2021, 1088,  129,    9
2022, 1090,  172,  173
2023, 1116, 1096, 1089
2024, 1095,  121, 1094
2025, 1213, 1211, 1199
2026, 1090, 1087, 1088
2027, 1092,  118, 1091
2028, 1091,  118,  117
2029, 1104,  180, 1103
2030, 1093,  119, 1092
2031, 1113, 1112, 1093
2032, 1093,  120,  119
2033, 1114, 1094, 1112
2034, 1094,  121,  120
2035, 1115, 1095, 1114
2036, 1095,  122,  121
2037, 1116, 1089,  176
2038, 1096,  122, 1095
2039, 1097,  186,  187
2040, 1121, 1108, 1107
2041, 1157, 1133, 1156
2042, 1098,  185,  186
2043, 1124, 1100, 1099
2044, 1099,  184,  185
2045, 1131, 1125, 1101
2046, 1100,  183,  184
2047, 1125, 1102, 1101
2048, 1101,  182,  183
2049, 1181, 1115, 1140
2050, 1102,  181,  182
2051, 1158, 1138, 1091
2052, 1103,  180,  181
2053, 1169, 1138, 1126
2054, 1104,  179,  180
2055, 1158, 1105, 1138
2056, 1105,  178,  179
2057, 1106,  198,  199
2058, 1179, 1135, 1160
2059, 1107,  193,  194
2060, 1147, 1107, 1117
2061, 1122, 1108, 1121
2062, 1108,  192,  193
2063, 1123, 1109, 1122
2064, 1109,  191,  192
2065, 1139, 1111, 1110
2066, 1110,  190,  191
2067, 1111,  189,  190
2068, 1111,  190, 1110
2069, 1142, 1141, 1112
2070, 1112, 1094, 1093
2071, 1138, 1113, 1092
2072, 1126, 1105, 1104
2073, 1140, 1115, 1114
2074, 1114, 1095, 1094
2075, 1115, 1089, 1096
2076, 1115, 1096, 1095
2077, 1116,  176,    8
2078, 1116,  123, 1096
2079, 1120,  195,  196
2080, 1144, 1120, 1119
2081, 1144, 1143, 1120
2082, 1118,  197,  198
2083, 1165, 1144, 1161
2084, 1119,  196,  197
2085, 1120, 1117,  195
2086, 1120,  196, 1119
2087, 1136, 1084, 1133
2088, 1151, 1149, 1124
2089, 1139, 1127, 1097
2090, 1122, 1109, 1108
2091, 1168, 1139, 1123
2092, 1123, 1110, 1109
2093, 1129, 1099, 1098
2094, 1196, 1193, 1178
2095, 1131, 1101, 1100
2096, 1175, 1148, 1171
2097, 1132, 1104, 1103
2098, 1130, 1103, 1102
2099, 1127, 1098, 1097
2100, 1145, 1123, 1122
2101, 1128, 1097,  187
2102, 1128,  187,  188
2103, 1168, 1152, 1127
2104, 1129, 1124, 1099
2105, 1163, 1141, 1142
2106, 1154, 1130, 1150
2107, 1149, 1148, 1131
2108, 1148, 1125, 1131
2109, 1132, 1126, 1104
2110, 1132, 1103, 1130
2111, 1133, 1084, 1085
2112, 1137, 1085, 1086
2113, 1195, 1090, 1081
2114, 1213, 1202, 1210
2115, 1135,  135,  134
2116, 1155, 1083, 1136
2117, 1180, 1176, 1161
2118, 1136, 1083, 1084
2119, 1137, 1133, 1085
2120, 1137, 1086, 1134
2121, 1138, 1092, 1091
2122, 1138, 1105, 1126
2123, 1139, 1097, 1128
2124, 1139, 1110, 1123
2125, 1181, 1089, 1115
2126, 1141, 1114, 1112
2127, 1142, 1112, 1113
2128, 1154, 1153, 1132
2129, 1169, 1142, 1113
2130, 1153, 1126, 1132
2131, 1165, 1164, 1143
2132, 1143, 1117, 1120
2133, 1159, 1119, 1118
2134, 1215, 1205, 1214
2135, 1146, 1122, 1121
2136, 1146, 1145, 1122
2137, 1167, 1121, 1147
2138, 1200, 1197, 1177
2139, 1147, 1121, 1107
2140, 1147, 1117, 1143
2141, 1182, 1082, 1181
2142, 1175, 1174, 1150
2143, 1151, 1124, 1129
2144, 1197, 1186, 1183
2145, 1163, 1162, 1141
2146, 1150, 1130, 1125
2147, 1152, 1151, 1129
2148, 1166, 1152, 1145
2149, 1152, 1129, 1127
2150, 1166, 1145, 1146
2151, 1169, 1153, 1142
2152, 1154, 1132, 1130
2153, 1184, 1163, 1170
2154, 1170, 1163, 1153
2155, 1180, 1160, 1155
2156, 1155, 1135, 1083
2157, 1156, 1133, 1137
2158, 1178, 1137, 1134
2159, 1180, 1161, 1159
2160, 1157, 1136, 1133
2161, 1158, 1091,  177
2162, 1158,  178, 1105
2163, 1159, 1144, 1119
2164, 1160, 1159, 1118
2165, 1160, 1118, 1106
2166, 1179, 1160, 1106
2167, 1177, 1157, 1156
2168, 1161, 1144, 1159
2169, 1199, 1162, 1184
2170, 1162, 1140, 1141
2171, 1163, 1142, 1153
2172, 1170, 1153, 1154
2173, 1186, 1185, 1164
2174, 1164, 1147, 1143
2175, 1165, 1143, 1144
2176, 1190, 1176, 1157
2177, 1173, 1151, 1172
2178, 1187, 1146, 1167
2179, 1167, 1146, 1121
2180, 1167, 1147, 1164
2181, 1168, 1127, 1139
2182, 1168, 1123, 1145
2183, 1169, 1113, 1138
2184, 1169, 1126, 1153
2185, 1174, 1154, 1150
2186, 1175, 1150, 1148
2187, 1171, 1148, 1149
2188, 1173, 1149, 1151
2189, 1172, 1151, 1152
2190, 1189, 1166, 1187
2191, 1189, 1172, 1166
2192, 1173, 1171, 1149
2193, 1184, 1170, 1174
2194, 1174, 1170, 1154
2195, 1191, 1171, 1188
2196, 1206, 1197, 1200
2197, 1176, 1155, 1136
2198, 1190, 1183, 1176
2199, 1186, 1165, 1183
2200, 1193, 1156, 1178
2201, 1178, 1156, 1137
2202, 1194, 1134, 1090
2203, 1179, 1106,  136
2204, 1179,  135, 1135
2205, 1180, 1159, 1160
2206, 1180, 1155, 1176
2207, 1181, 1082, 1089
2208, 1209, 1140, 1162
2209, 1196, 1194, 1195
2210, 1182, 1081, 1082
2211, 1183, 1165, 1161
2212, 1183, 1161, 1176
2213, 1184, 1162, 1163
2214, 1192, 1175, 1191
2215, 1207, 1204, 1198
2216, 1185, 1167, 1164
2217, 1186, 1164, 1165
2218, 1197, 1183, 1190
2219, 1187, 1166, 1146
2220, 1187, 1167, 1185
2221, 1188, 1171, 1173
2222, 1189, 1188, 1173
2223, 1189, 1173, 1172
2224, 1204, 1185, 1198
2225, 1190, 1157, 1177
2226, 1197, 1190, 1177
2227, 1210, 1202, 1201
2228, 1191, 1175, 1171
2229, 1192, 1184, 1174
2230, 1192, 1174, 1175
2231, 1193, 1177, 1156
2232, 1196, 1178, 1194
2233, 1194, 1178, 1134
2234, 1195, 1194, 1090
2235, 1195, 1081, 1182
2236, 1203, 1195, 1182
2237, 1213, 1208, 1202
2238, 1202, 1191, 1201
2239, 1200, 1177, 1193
2240, 1198, 1186, 1197
2241, 1212, 1189, 1204
2242, 1198, 1185, 1186
2243, 1211, 1181, 1209
2244, 1208, 1184, 1192
2245, 1215, 1196, 1205
2246, 1214, 1210, 1207
2247, 1201, 1191, 1188
2248, 1212, 1207, 1201
2249, 1213, 1203, 1211
2250, 1202, 1192, 1191
2251, 1203, 1196, 1195
2252, 1211, 1209, 1199
2253, 1204, 1189, 1187
2254, 1204, 1187, 1185
2255, 1214, 1207, 1206
2256, 1205, 1196, 1203
2257, 1206, 1198, 1197
2258, 1214, 1205, 1210
2259, 1212, 1201, 1188
2260, 1207, 1198, 1206
2261, 1208, 1199, 1184
2262, 1208, 1192, 1202
2263, 1209, 1181, 1140
2264, 1209, 1162, 1199
2265, 1213, 1210, 1205
2266, 1210, 1201, 1207
2267, 1211, 1203, 1182
2268, 1211, 1182, 1181
2269, 1212, 1188, 1189
2270, 1212, 1204, 1207
2271, 1213, 1205, 1203
2272, 1213, 1199, 1208
2273, 1214, 1206, 1200
2274, 1215, 1214, 1200
2275, 1215, 1200, 1193
2276, 1215, 1193, 1196
*Orientation, name=Ori-1
1., 0., 0., 0., 1., 0.
3, 0.
** Region: (CompositeLayup-1-1: Generated From Layup)
*Elset, elset=CompositeLayup-1-1, generate
    1,  2276,     1
** Section: CompositeLayup-1-1
*Shell Section, elset=CompositeLayup-1-1, composite, orientation=Ori-1, layup=CompositeLayup-1, symmetric
0.25, 3, CFRP, 0., Ply-1
0.25, 3, CFRP, 45., Ply-2
0.25, 3, CFRP, 90., Ply-3
0.25, 3, CFRP, -45., Ply-4
*End Part
**  
**
** ASSEMBLY
**
*Assembly, name=Assembly
**  
*Instance, name=Plate-1, part=PLATE
*End Instance
**  
*Nset, nset=Set-1, instance=Plate-1
   6,   7,  12,  97,  98,  99, 100, 101, 102, 103, 104, 105, 106, 107, 108, 109
 110, 111, 112, 113, 114, 115, 116, 177, 178, 179, 180, 181, 182, 183, 184, 185
 186, 187, 188
*Elset, elset=Set-1, instance=Plate-1
  909,  910,  920,  973,  974,  976,  978,  980,  982,  984,  986,  988,  990,  992,  994,  996
  998, 1000, 1002, 1005, 1008, 1977, 1984, 1995, 2039, 2042, 2044, 2046, 2048, 2050, 2052, 2054
 2056, 2102
*Nset, nset=Set-2, instance=Plate-1
   4,   5,  11,  48,  49,  50,  51,  52,  53,  54,  55,  56,  57,  58,  59,  60
  61,  62,  63,  64,  65,  66,  67, 155, 156, 157, 158, 159, 160, 161, 162, 163
 164, 165, 166
*Elset, elset=Set-2, instance=Plate-1
   25,   26,   39,  123,  124,  126,  128,  130,  132,  134,  136,  138,  140,  142,  144,  146
  148,  150,  152,  154,  205, 1447, 1448, 1465, 1468, 1508, 1532, 1533, 1536, 1538, 1540, 1542
 1544, 1546
*End Assembly
** 
** MATERIALS
** 
*Material, name=CFRP
*Elastic, type=ENGINEERING CONSTANTS
150000.,9000.,9000., 0.34, 0.34,  0.4,5000.,5000.
5000.,
** ----------------------------------------------------------------
** 
** STEP: Step-1
** 
*Step, name=Step-1, nlgeom=NO
*Static
1., 1., 1e-05, 1.
** 
** BOUNDARY CONDITIONS
** 
** Name: BC-1 Type: Symmetry/Antisymmetry/Encastre
*Boundary
Set-1, ENCASTRE
** Name: DISPLACEMENT Type: Displacement/Rotation
*Boundary
Set-2, 1, 1, 1.15789
** 
** OUTPUT REQUESTS
** 
*Restart, write, frequency=0
** 
** FIELD OUTPUT: F-Output-1
** 
*Output, field
*Element Output, position=NODES, directions=YES
E, 
** 
** HISTORY OUTPUT: H-Output-1
** 
*Output, history, variable=PRESELECT
*End Step
