*Heading
 Elastic fabric composite plate with hole
** Job name: Plate_261 Model name: Model-1
** Generated by: Abaqus/CAE 2024.HF3
*Preprint, echo=NO, model=NO, history=NO, contact=NO
**
** PARTS
**
*Part, name=PLATE
*Node
      1,   74.4078751,   112.203827,           0.
      2,   74.4078751,   72.9237442,           0.
      3,   89.3596497,   57.9719772,           0.
      4,   144.015244,   57.9719772,           0.
      5,   144.015244,   112.203827,           0.
      6,           0.,   112.203827,           0.
      7,           0.,   57.9719772,           0.
      8,   59.4561081,   57.9719772,           0.
      9,   74.4078751,   43.0202065,           0.
     10,   74.4078751,           0.,           0.
     11,   144.015244,           0.,           0.
     12,           0.,           0.,           0.
     13,   74.4078751,   108.275818,           0.
     14,   74.4078751,   104.347809,           0.
     15,   74.4078751,     100.4198,           0.
     16,   74.4078751,   96.4917908,           0.
     17,   74.4078751,   92.5637817,           0.
     18,   74.4078751,   88.6357727,           0.
     19,   74.4078751,   84.7077713,           0.
     20,   74.4078751,   80.7797623,           0.
     21,   74.4078751,   76.8517532,           0.
     22,   78.2776794,   72.4142761,           0.
     23,   81.8837662,   70.9205856,           0.
     24,   84.9803772,   68.5444717,           0.
     25,   87.3564911,   65.4478607,           0.
     26,   88.8501816,   61.8417778,           0.
     27,   93.2636185,   57.9719772,           0.
     28,   97.1675873,   57.9719772,           0.
     29,   101.071564,   57.9719772,           0.
     30,   104.975533,   57.9719772,           0.
     31,   108.879509,   57.9719772,           0.
     32,   112.783478,   57.9719772,           0.
     33,   116.687447,   57.9719772,           0.
     34,   120.591423,   57.9719772,           0.
     35,   124.495392,   57.9719772,           0.
     36,   128.399368,   57.9719772,           0.
     37,   132.303329,   57.9719772,           0.
     38,   136.207306,   57.9719772,           0.
     39,   140.111282,   57.9719772,           0.
     40,   144.015244,   61.8456802,           0.
     41,   144.015244,   65.7193832,           0.
     42,   144.015244,   69.5930862,           0.
     43,   144.015244,   73.4667892,           0.
     44,   144.015244,   77.3404922,           0.
     45,   144.015244,   81.2141953,           0.
     46,   144.015244,   85.0878983,           0.
     47,   144.015244,   88.9616013,           0.
     48,   144.015244,   92.8353043,           0.
     49,   144.015244,   96.7090073,           0.
     50,   144.015244,    100.58271,           0.
     51,   144.015244,   104.456413,           0.
     52,   144.015244,   108.330116,           0.
     53,   140.148178,   112.203827,           0.
     54,   136.281097,   112.203827,           0.
     55,   132.414017,   112.203827,           0.
     56,   128.546951,   112.203827,           0.
     57,   124.679871,   112.203827,           0.
     58,    120.81279,   112.203827,           0.
     59,   116.945717,   112.203827,           0.
     60,   113.078644,   112.203827,           0.
     61,   109.211563,   112.203827,           0.
     62,    105.34449,   112.203827,           0.
     63,   101.477409,   112.203827,           0.
     64,   97.6103363,   112.203827,           0.
     65,   93.7432632,   112.203827,           0.
     66,   89.8761826,   112.203827,           0.
     67,   86.0091095,   112.203827,           0.
     68,   82.1420288,   112.203827,           0.
     69,   78.2749557,   112.203827,           0.
     70,   70.4916763,   112.203827,           0.
     71,     66.57547,   112.203827,           0.
     72,   62.6592674,   112.203827,           0.
     73,   58.7430611,   112.203827,           0.
     74,   54.8268585,   112.203827,           0.
     75,   50.9106522,   112.203827,           0.
     76,   46.9944496,   112.203827,           0.
     77,   43.0782471,   112.203827,           0.
     78,   39.1620407,   112.203827,           0.
     79,   35.2458382,   112.203827,           0.
     80,   31.3296337,   112.203827,           0.
     81,   27.4134293,   112.203827,           0.
     82,   23.4972248,   112.203827,           0.
     83,   19.5810204,   112.203827,           0.
     84,   15.6648169,   112.203827,           0.
     85,   11.7486124,   112.203827,           0.
     86,   7.83240843,   112.203827,           0.
     87,   3.91620421,   112.203827,           0.
     88,           0.,   108.330116,           0.
     89,           0.,   104.456413,           0.
     90,           0.,    100.58271,           0.
     91,           0.,   96.7090073,           0.
     92,           0.,   92.8353043,           0.
     93,           0.,   88.9616013,           0.
     94,           0.,   85.0878983,           0.
     95,           0.,   81.2141953,           0.
     96,           0.,   77.3404922,           0.
     97,           0.,   73.4667892,           0.
     98,           0.,   69.5930862,           0.
     99,           0.,   65.7193832,           0.
    100,           0.,   61.8456802,           0.
    101,   3.96374059,   57.9719772,           0.
    102,   7.92748117,   57.9719772,           0.
    103,    11.891222,   57.9719772,           0.
    104,   15.8549623,   57.9719772,           0.
    105,   19.8187027,   57.9719772,           0.
    106,    23.782444,   57.9719772,           0.
    107,   27.7461853,   57.9719772,           0.
    108,   31.7099247,   57.9719772,           0.
    109,   35.6736641,   57.9719772,           0.
    110,   39.6374054,   57.9719772,           0.
    111,   43.6011467,   57.9719772,           0.
    112,    47.564888,   57.9719772,           0.
    113,   51.5286293,   57.9719772,           0.
    114,   55.4923706,   57.9719772,           0.
    115,     59.96558,   61.8417778,           0.
    116,   61.4592667,   65.4478607,           0.
    117,   63.8353806,   68.5444717,           0.
    118,   66.9319916,   70.9205856,           0.
    119,   70.5380783,   72.4142761,           0.
    120,   74.4078751,   39.1092796,           0.
    121,   74.4078751,    35.198349,           0.
    122,   74.4078751,   31.2874222,           0.
    123,   74.4078751,   27.3764954,           0.
    124,   74.4078751,   23.4655666,           0.
    125,   74.4078751,   19.5546398,           0.
    126,   74.4078751,   15.6437111,           0.
    127,   74.4078751,   11.7327833,           0.
    128,   74.4078751,   7.82185555,           0.
    129,   74.4078751,   3.91092777,           0.
    130,   78.2749557,           0.,           0.
    131,   82.1420288,           0.,           0.
    132,   86.0091095,           0.,           0.
    133,   89.8761826,           0.,           0.
    134,   93.7432632,           0.,           0.
    135,   97.6103363,           0.,           0.
    136,   101.477409,           0.,           0.
    137,    105.34449,           0.,           0.
    138,   109.211563,           0.,           0.
    139,   113.078644,           0.,           0.
    140,   116.945717,           0.,           0.
    141,    120.81279,           0.,           0.
    142,   124.679871,           0.,           0.
    143,   128.546951,           0.,           0.
    144,   132.414017,           0.,           0.
    145,   136.281097,           0.,           0.
    146,   140.148178,           0.,           0.
    147,   144.015244,   3.86479831,           0.
    148,   144.015244,   7.72959661,           0.
    149,   144.015244,   11.5943947,           0.
    150,   144.015244,   15.4591932,           0.
    151,   144.015244,   19.3239918,           0.
    152,   144.015244,   23.1887894,           0.
    153,   144.015244,   27.0535889,           0.
    154,   144.015244,   30.9183865,           0.
    155,   144.015244,   34.7831841,           0.
    156,   144.015244,   38.6479836,           0.
    157,   144.015244,   42.5127831,           0.
    158,   144.015244,   46.3775787,           0.
    159,   144.015244,   50.2423782,           0.
    160,   144.015244,   54.1071777,           0.
    161,   88.8501816,   54.1021729,           0.
    162,   87.3564911,   50.4960899,           0.
    163,   84.9803772,   47.3994789,           0.
    164,   81.8837662,    45.023365,           0.
    165,   78.2776794,   43.5296745,           0.
    166,   70.5380783,   43.5296745,           0.
    167,   66.9319916,    45.023365,           0.
    168,   63.8353806,   47.3994789,           0.
    169,   61.4592667,   50.4960899,           0.
    170,     59.96558,   54.1021729,           0.
    171,           0.,   54.1071777,           0.
    172,           0.,   50.2423782,           0.
    173,           0.,   46.3775787,           0.
    174,           0.,   42.5127831,           0.
    175,           0.,   38.6479836,           0.
    176,           0.,   34.7831841,           0.
    177,           0.,   30.9183865,           0.
    178,           0.,   27.0535889,           0.
    179,           0.,   23.1887894,           0.
    180,           0.,   19.3239918,           0.
    181,           0.,   15.4591932,           0.
    182,           0.,   11.5943947,           0.
    183,           0.,   7.72959661,           0.
    184,           0.,   3.86479831,           0.
    185,   3.91620421,           0.,           0.
    186,   7.83240843,           0.,           0.
    187,   11.7486124,           0.,           0.
    188,   15.6648169,           0.,           0.
    189,   19.5810204,           0.,           0.
    190,   23.4972248,           0.,           0.
    191,   27.4134293,           0.,           0.
    192,   31.3296337,           0.,           0.
    193,   35.2458382,           0.,           0.
    194,   39.1620407,           0.,           0.
    195,   43.0782471,           0.,           0.
    196,   46.9944496,           0.,           0.
    197,   50.9106522,           0.,           0.
    198,   54.8268585,           0.,           0.
    199,   58.7430611,           0.,           0.
    200,   62.6592674,           0.,           0.
    201,     66.57547,           0.,           0.
    202,   70.4916763,           0.,           0.
    203,   89.3070068,   69.0035172,           0.
    204,   91.5966034,   60.7504539,           0.
    205,   77.8040848,   90.5981827,           0.
    206,   77.8296814,   86.6322021,           0.
    207,   85.8374023,   72.1716461,           0.
    208,   77.8755417,   82.5977631,           0.
    209,   77.8862534,   78.5369949,           0.
    210,   77.3704071,   75.2391129,           0.
    211,    91.774826,   64.4917603,           0.
    212,   81.8901901,   75.6580963,           0.
    213,   110.831177,   61.3515549,           0.
    214,   106.927376,   61.3517189,           0.
    215,   102.972961,   61.3798943,           0.
    216,   98.9035339,     61.38311,           0.
    217,   94.8623581,   61.2309303,           0.
    218,   140.661804,   94.7718201,           0.
    219,   140.660294,   90.8985214,           0.
    220,   140.659576,   87.0248795,           0.
    221,    140.65892,   83.1511993,           0.
    222,   140.658279,   79.2774963,           0.
    223,   140.652939,   75.3970642,           0.
    224,   140.589005,   71.4296494,           0.
    225,   140.461655,   67.3478851,           0.
    226,   140.448227,   63.1307983,           0.
    227,   79.6872253,   108.673927,           0.
    228,   83.8970947,   108.702042,           0.
    229,   87.9098511,   108.821541,           0.
    230,   91.8039703,   108.846596,           0.
    231,    95.675827,   108.851562,           0.
    232,   99.5437393,   108.852791,           0.
    233,    103.41095,   108.853157,           0.
    234,   107.278046,   108.853378,           0.
    235,   111.145134,   108.853485,           0.
    236,   115.012215,   108.853676,           0.
    237,    118.87928,   108.853851,           0.
    238,   122.746353,   108.853943,           0.
    239,   126.620323,   108.849518,           0.
    240,   130.583237,   108.787796,           0.
    241,   134.663208,   108.661636,           0.
    242,   138.873825,   108.652748,           0.
    243,   105.344627,   105.501572,           0.
    244,   109.211731,   105.501862,           0.
    245,   132.682404,   105.350426,           0.
    246,   89.8272629,   105.476654,           0.
    247,   97.6104355,   105.499817,           0.
    248,   116.945915,   105.502769,           0.
    249,   113.078857,   105.502113,           0.
    250,   85.8624496,   105.358757,           0.
    251,   93.7345428,   105.493561,           0.
    252,   101.477585,    105.50058,           0.
    253,   120.813141,    105.50293,           0.
    254,   124.689362,   105.497223,           0.
    255,   128.663757,   105.454712,           0.
    256,   140.685226,   98.6314545,           0.
    257,   137.154037,   69.4449921,           0.
    258,   137.292709,   77.3321457,           0.
    259,   137.299423,   81.2133179,           0.
    260,   137.302124,   85.0883636,           0.
    261,   140.700775,    102.45903,           0.
    262,   137.303802,   88.9622803,           0.
    263,   137.254105,   73.4137268,           0.
    264,   137.298309,   92.8200302,           0.
    265,   140.941269,   105.738075,           0.
    266,   114.735207,   61.3510704,           0.
    267,   104.934921,    64.753624,           0.
    268,   134.220901,   61.3598633,           0.
    269,   122.542702,    61.350769,           0.
    270,   118.639145,   61.3506355,           0.
    271,   100.793915,   64.7671204,           0.
    272,   96.4721375,   64.7106323,           0.
    273,   126.460846,   61.3944778,           0.
    274,   137.515335,   61.0719566,           0.
    275,   108.871452,    64.734375,           0.
    276,   77.8035507,   94.5278702,           0.
    277,   81.2205582,   88.6100464,           0.
    278,   77.8419724,   98.4749527,           0.
    279,   81.4126358,   80.5562515,           0.
    280,   81.3036423,   84.6327896,           0.
    281,   77.8589325,   102.375328,           0.
    282,   137.083817,   104.816742,           0.
    283,    136.60994,   65.0540848,           0.
    284,   126.758911,   102.145088,           0.
    285,    122.78318,   102.150688,           0.
    286,   107.278572,   102.148354,           0.
    287,   103.411636,   102.147125,           0.
    288,   118.885895,   102.150505,           0.
    289,   111.145706,   102.148949,           0.
    290,   130.794327,   102.144028,           0.
    291,   99.5449677,   102.145477,           0.
    292,   115.013802,   102.149658,           0.
    293,   95.6772003,   102.142029,           0.
    294,    91.714798,   102.115387,           0.
    295,   87.7391281,   102.081696,           0.
    296,   81.4865341,   104.794754,           0.
    297,   133.946014,   87.0268326,           0.
    298,   133.939194,   90.8671265,           0.
    299,   133.942627,   83.1527939,           0.
    300,   133.921982,   75.3838959,           0.
    301,   133.935562,   79.2737198,           0.
    302,    133.90741,   71.4502563,           0.
    303,   137.253845,   100.610786,           0.
    304,   137.194687,   96.7128448,           0.
    305,   112.784348,   64.7335052,           0.
    306,   130.367813,   61.4418221,           0.
    307,   124.652901,   64.8591003,           0.
    308,   120.728729,   64.9000931,           0.
    309,   102.822517,   68.1229324,           0.
    310,   106.884888,    68.115181,           0.
    311,   116.728935,    64.782608,           0.
    312,    81.216568,   92.5322037,           0.
    313,   81.3026428,   100.494492,           0.
    314,   84.6755219,   86.6771622,           0.
    315,   81.3426056,   96.4934464,           0.
    316,   93.6099319,   98.6459427,           0.
    317,     97.57827,    98.743042,           0.
    318,    128.92662,   98.8147202,           0.
    319,   89.5815964,   98.6617966,           0.
    320,   101.471771,   98.7788315,           0.
    321,   116.948112,   98.7963638,           0.
    322,   120.847389,   98.7867584,           0.
    323,   124.878754,   98.7113037,           0.
    324,    105.34449,   98.7893372,           0.
    325,    113.08033,   98.7947769,           0.
    326,   109.212761,   98.7926407,           0.
    327,   134.236435,   102.336823,           0.
    328,   130.506119,   73.3082962,           0.
    329,    130.55455,   85.0859146,           0.
    330,     130.5746,   81.2163467,           0.
    331,   133.298126,   98.7612762,           0.
    332,   130.519745,   88.9214096,           0.
    333,   130.560806,   77.3121719,           0.
    334,   133.850922,   94.6561813,           0.
    335,   84.3197861,   102.259087,           0.
    336,   128.503189,   64.9018478,           0.
    337,   110.826584,   68.1137924,           0.
    338,   123.068306,   68.8213577,           0.
    339,   104.886963,     71.48526,           0.
    340,   118.698906,   68.2535858,           0.
    341,   114.755928,   68.1459579,           0.
    342,   132.374802,   64.9597855,           0.
    343,   84.6854782,   82.7862854,           0.
    344,   84.6291885,     90.54039,           0.
    345,   85.2503433,   98.5892334,           0.
    346,   84.7028885,   94.3877716,           0.
    347,   77.5696945,   105.693527,           0.
    348,   91.4888687,   94.7923737,           0.
    349,   95.7087173,   95.3061142,           0.
    350,   99.5611954,   95.3890762,           0.
    351,   118.890709,   95.4348297,           0.
    352,   127.030739,    94.985939,           0.
    353,   103.417358,   95.4208984,           0.
    354,   115.016388,   95.4383621,           0.
    355,   122.757111,   95.4112625,           0.
    356,   107.281479,   95.4319534,           0.
    357,   111.148239,   95.4361496,           0.
    358,   130.740326,   95.9930115,           0.
    359,   127.264763,   83.0650864,           0.
    360,   127.041176,    75.284462,           0.
    361,    127.15358,   79.2127686,           0.
    362,   127.148193,   86.8255463,           0.
    363,   130.520309,   92.7054749,           0.
    364,    134.09642,   67.9699173,           0.
    365,   130.445343,   68.8186035,           0.
    366,   126.731194,   67.7456512,           0.
    367,   108.861145,   71.4876022,           0.
    368,   100.738647,   71.6211319,           0.
    369,    116.79911,   71.5533142,           0.
    370,   120.290329,   71.3995972,           0.
    371,   112.829704,   71.5118408,           0.
    372,   88.0730438,   88.6098785,           0.
    373,   88.0287628,    92.436615,           0.
    374,   88.1190109,   84.7624664,           0.
    375,   84.7222977,   79.2391586,           0.
    376,   94.0611191,   68.2845535,           0.
    377,   89.4927139,   72.7550278,           0.
    378,   91.5845642,   86.7372894,           0.
    379,    94.344162,   92.2418213,           0.
    380,   97.6660233,   92.0362549,           0.
    381,    101.49614,   92.0441132,           0.
    382,   116.942245,   92.0089111,           0.
    383,   124.161217,   92.3501968,           0.
    384,   120.814194,   91.9892273,           0.
    385,   105.353325,   92.0643158,           0.
    386,   113.082649,    92.053772,           0.
    387,   109.217346,   92.0676651,           0.
    388,   124.483902,   84.7206497,           0.
    389,   123.957169,   81.3335571,           0.
    390,   123.579384,   77.3027496,           0.
    391,   127.102379,   90.7006302,           0.
    392,   87.8104935,   95.7735596,           0.
    393,   126.869186,   71.2014313,           0.
    394,   102.982628,   74.9319077,           0.
    395,   98.5057831,   68.2600021,           0.
    396,   106.908226,   74.8716278,           0.
    397,   119.450569,   75.2217636,           0.
    398,   114.917488,   74.9975281,           0.
    399,   110.871239,   74.8976517,           0.
    400,    88.154068,   80.8783112,           0.
    401,   91.4745712,   90.5653229,           0.
    402,   92.2919388,   71.4080582,           0.
    403,   87.7812195,   76.4007492,           0.
    404,   92.6282425,   75.0678864,           0.
    405,   96.1938553,   72.2050552,           0.
    406,   95.3293228,   88.6170883,           0.
    407,   99.5696716,   88.6215973,           0.
    408,   103.411644,    88.645401,           0.
    409,   123.350967,   88.4348679,           0.
    410,   118.961189,   88.3677521,           0.
    411,   114.981956,   88.5433731,           0.
    412,   107.240341,   88.6408615,           0.
    413,   111.092064,   88.6020889,           0.
    414,   120.841774,   84.1785507,           0.
    415,   120.413551,    79.730423,           0.
    416,   123.383156,   73.2052307,           0.
    417,   91.6672592,   83.0092773,           0.
    418,   105.051682,   78.2944107,           0.
    419,   99.1626434,   75.2151871,           0.
    420,   116.705566,   78.6272049,           0.
    421,   108.929321,   78.2875977,           0.
    422,     112.8423,   78.3729019,           0.
    423,   91.7493057,   79.1422729,           0.
    424,   101.495293,   85.1688843,           0.
    425,   105.246735,   85.1692352,           0.
    426,   116.728889,    84.960228,           0.
    427,   112.916946,   85.1155777,           0.
    428,   109.069344,   85.1502228,           0.
    429,   101.289116,    78.391716,           0.
    430,     107.0774,   81.7223587,           0.
    431,   97.6897736,   85.1062927,           0.
    432,   114.668884,   81.7633209,           0.
    433,   110.917366,   81.7353287,           0.
    434,   94.3595657,   85.0001526,           0.
    435,   96.0973892,   75.7843933,           0.
    436,   95.3551254,   81.4862595,           0.
    437,    97.693367,   78.4260178,           0.
    438,   99.4631042,   81.7181168,           0.
    439,   117.871735,    81.851944,           0.
    440,   103.270554,   81.7441177,           0.
    441,    94.704689,    77.981369,           0.
    442,     63.53302,   72.0363922,           0.
    443,   58.3231354,   65.3272705,           0.
    444,   37.2038765,   108.812981,           0.
    445,   71.0080109,   90.5990982,           0.
    446,    71.020668,   86.6733551,           0.
    447,    71.064415,   82.8523788,           0.
    448,   67.1708527,   74.1830673,           0.
    449,   29.3717251,   108.813927,           0.
    450,   33.2877541,   108.813408,           0.
    451,   41.1200943,   108.812805,           0.
    452,    45.036293,   108.812675,           0.
    453,   48.9524803,   108.812439,           0.
    454,    52.868679,   108.812088,           0.
    455,    56.784874,   108.811668,           0.
    456,   60.7964592,   108.749168,           0.
    457,   64.9344254,    108.61557,           0.
    458,   69.1997604,   108.604385,           0.
    459,   3.57978296,   63.2489624,           0.
    460,   3.35914636,   79.2778168,           0.
    461,   3.35761547,   83.1507263,           0.
    462,   3.35767221,   87.0244904,           0.
    463,   3.35804987,   90.8982239,           0.
    464,   3.36354876,   94.7785645,           0.
    465,   3.42847228,   98.7448196,           0.
    466,   3.56322336,   102.827721,           0.
    467,   3.58151269,   107.045792,           0.
    468,   9.91675663,   61.4508095,           0.
    469,   33.6940689,   61.3962135,           0.
    470,   37.6569023,   61.3949852,           0.
    471,   41.6197662,   61.3934326,           0.
    472,   45.5817947,   61.3921623,           0.
    473,   49.4412308,   61.4237328,           0.
    474,   53.2012749,   61.5312843,           0.
    475,   56.8716621,   61.6405869,           0.
    476,   70.8754272,   75.5330124,           0.
    477,   60.5141602,   68.9287643,           0.
    478,   71.0282745,   79.1474762,           0.
    479,   3.37877607,   75.4055176,           0.
    480,   6.89396572,    100.83857,           0.
    481,   6.72602367,   92.8432999,           0.
    482,   6.71992445,   88.9622726,           0.
    483,   3.41336536,   71.5225067,           0.
    484,   6.72383833,   81.2115631,           0.
    485,    3.5520978,   67.4891357,           0.
    486,   6.71956491,   85.0865402,           0.
    487,   6.77693653,   96.8199768,           0.
    488,   25.4554672,   108.814789,           0.
    489,   58.8503342,   105.371841,           0.
    490,    35.245594,   105.422562,           0.
    491,   43.0780563,   105.421654,           0.
    492,   50.9102631,   105.420761,           0.
    493,   21.5391827,   108.815483,           0.
    494,   17.6228848,   108.817932,           0.
    495,   13.7167473,   108.845154,           0.
    496,   9.84244347,   108.867905,           0.
    497,   6.52824497,   109.116158,           0.
    498,   31.3293419,   105.423996,           0.
    499,    62.936882,   105.258759,           0.
    500,    39.161808,   105.421921,           0.
    501,   46.9941101,   105.421333,           0.
    502,   54.8443031,   105.411987,           0.
    503,    71.009285,   94.5268326,           0.
    504,   71.0329285,   98.4415283,           0.
    505,   67.6179581,    88.630043,           0.
    506,   67.6761398,    84.815834,           0.
    507,    71.049202,   102.323708,           0.
    508,   71.2935867,   105.648712,           0.
    509,   13.8530083,   61.4268723,           0.
    510,    39.640667,   64.8119049,           0.
    511,   17.8296509,   61.4050484,           0.
    512,   21.7995358,   61.3981895,           0.
    513,   25.7653484,   61.3965683,           0.
    514,   29.7300854,   61.3956985,           0.
    515,   35.6789093,   64.8143311,           0.
    516,     43.60009,   64.8081055,           0.
    517,   47.4440842,   64.8763123,           0.
    518,   7.45012283,   105.243851,           0.
    519,   67.3867416,   104.716042,           0.
    520,   67.7777863,   81.2111969,           0.
    521,   6.80742216,   73.4212646,           0.
    522,   10.0908909,     83.14505,           0.
    523,   10.0847864,   87.0219421,           0.
    524,   10.1193628,   94.8970642,           0.
    525,    10.093318,   90.9274826,           0.
    526,   10.1609898,   98.9187393,           0.
    527,    6.7630024,   77.3132401,           0.
    528,   27.4138966,   105.426163,           0.
    529,   11.7235508,   105.392204,           0.
    530,   19.6182518,   105.432152,           0.
    531,   15.6950245,   105.329376,           0.
    532,    41.119709,   102.030411,           0.
    533,   52.8825989,   102.029137,           0.
    534,     45.03582,   102.030159,           0.
    535,    56.929863,   102.019897,           0.
    536,   37.2031784,   102.031044,           0.
    537,   48.9558678,   102.029961,           0.
    538,   61.0142479,   102.012894,           0.
    539,   33.2863121,   102.033134,           0.
    540,   23.5093861,   105.428894,           0.
    541,   67.6045609,   92.5455322,           0.
    542,   67.5565338,   100.450836,           0.
    543,   64.2515106,   86.7178497,           0.
    544,    67.496994,   96.4964218,           0.
    545,   51.1819763,    65.015976,           0.
    546,   11.8134804,   64.9672394,           0.
    547,   31.7145863,   64.8150024,           0.
    548,   23.7831802,    64.816452,           0.
    549,   19.8322468,   64.8385925,           0.
    550,   45.4881554,   68.2704697,           0.
    551,   41.6079521,   68.2310715,           0.
    552,   37.6617851,   68.2284393,           0.
    553,   27.7490063,   64.8147202,           0.
    554,   15.8418493,   64.9752121,           0.
    555,   6.92454052,   69.4946213,           0.
    556,    7.4821496,   65.1204071,           0.
    557,   63.3178978,   76.3922577,           0.
    558,   56.7740211,   68.9536667,           0.
    559,   59.2441864,   73.1771698,           0.
    560,   10.2185106,   71.4040146,           0.
    561,   10.1663799,   75.3436356,           0.
    562,   13.4551563,   88.9716949,           0.
    563,   13.5451126,    97.028923,           0.
    564,   13.4589348,   85.0891418,           0.
    565,   13.5756598,   92.9831161,           0.
    566,   10.1249247,   79.2574005,           0.
    567,    9.9803896,   102.367111,           0.
    568,   29.3707829,   102.036842,           0.
    569,     43.07761,    98.638382,           0.
    570,   59.1223297,   98.6387253,           0.
    571,   46.9960518,    98.638504,           0.
    572,   55.0169144,   98.5437698,           0.
    573,   17.7951984,    101.95874,           0.
    574,   13.6197672,   101.408058,           0.
    575,   50.9608154,   98.6092834,           0.
    576,   35.2431946,   98.6400452,           0.
    577,   39.1607666,   98.6386261,           0.
    578,   21.6096058,     102.0271,           0.
    579,   25.4688931,    102.03833,           0.
    580,   64.5024567,   102.203644,           0.
    581,   64.2123184,   90.5672073,           0.
    582,   63.5503807,   98.5775909,           0.
    583,   64.1132584,   94.4092407,           0.
    584,   49.2333527,   68.4098053,           0.
    585,   54.8810081,   65.1885605,           0.
    586,   33.6994591,   68.2291946,           0.
    587,   13.7053738,   68.9323883,           0.
    588,   43.5226784,   71.6664047,           0.
    589,   39.6324806,   71.6425247,           0.
    590,   21.8250732,    68.267807,           0.
    591,   25.7708263,   68.2353897,           0.
    592,   17.9266109,   68.3767624,           0.
    593,   29.7338753,   68.2297668,           0.
    594,   64.4412842,   82.9641266,           0.
    595,   6.57398224,   61.1528244,           0.
    596,   10.0288105,   67.9837341,           0.
    597,    52.967495,   68.6518707,           0.
    598,    13.600318,   73.2924881,           0.
    599,   13.6129246,   77.2958832,           0.
    600,   16.8877506,   90.8730927,           0.
    601,   17.3907375,   95.1108322,           0.
    602,   16.8381691,   86.9953766,           0.
    603,   13.4963741,   81.2317657,           0.
    604,   45.0341072,   95.2468262,           0.
    605,   23.5571232,   98.5979614,           0.
    606,   41.1186981,   95.2456284,           0.
    607,   57.2145615,   94.7561798,           0.
    608,   48.9612083,    95.235672,           0.
    609,   52.8787308,   95.1997833,           0.
    610,   31.3263741,   98.6394806,           0.
    611,   19.7324295,   98.6169815,           0.
    612,   27.4272232,   98.6036911,           0.
    613,   37.2001381,   95.2461853,           0.
    614,   60.7758865,   88.5969162,           0.
    615,   60.9633064,   95.7687912,           0.
    616,     60.76334,   92.4351654,           0.
    617,   47.2424736,   71.7929001,           0.
    618,   35.6824608,   71.6398087,           0.
    619,   60.8710327,   84.6652374,           0.
    620,   27.7508907,   71.6398544,           0.
    621,   41.5273666,    75.078476,           0.
    622,   23.7771454,   71.6698303,           0.
    623,   19.8696899,   71.6929474,           0.
    624,   31.7175999,   71.6392746,           0.
    625,   54.8133888,   72.4276352,           0.
    626,   16.9437637,   79.3476105,           0.
    627,   19.9038773,   92.2524719,           0.
    628,   20.1358814,   88.9084244,           0.
    629,   16.4166489,    98.824707,           0.
    630,   16.8735199,   83.1430054,           0.
    631,   43.0741959,   91.8534393,           0.
    632,   54.3189888,   92.1660461,           0.
    633,   50.9071808,   91.8996506,           0.
    634,   46.9907913,   91.8605423,           0.
    635,   21.5909882,   95.1562805,           0.
    636,   25.4946518,   95.1004257,           0.
    637,   29.4010315,   95.1938934,           0.
    638,   33.2908821,   95.2351074,           0.
    639,   39.1570549,   91.8527298,           0.
    640,   61.1723251,   80.4250946,           0.
    641,   50.9576797,   72.0306778,           0.
    642,   45.2416916,   75.1582336,           0.
    643,   37.6428337,   75.0536499,           0.
    644,   57.2951469,   86.4523849,           0.
    645,   25.7647667,   75.1089859,           0.
    646,    29.760849,   75.0381699,           0.
    647,   21.7670517,   75.0873718,           0.
    648,   33.7060356,   75.0431824,           0.
    649,   17.4735222,   75.1690063,           0.
    650,   20.2292728,   81.2316895,           0.
    651,   20.1850376,   85.0661163,           0.
    652,   48.9888306,   88.4466782,           0.
    653,   53.3647995,   88.3287582,           0.
    654,   45.0479965,   88.4585495,           0.
    655,   52.6188698,   75.7529221,           0.
    656,   27.5652962,   91.7772675,           0.
    657,   57.5699654,   82.4135132,           0.
    658,   41.1464844,   88.4689713,           0.
    659,   35.2446747,   91.8498154,           0.
    660,   31.3728027,   91.8413162,           0.
    661,   57.2887878,   90.4559097,           0.
    662,    48.912075,   75.3341675,           0.
    663,   43.2794228,   78.4860382,           0.
    664,   39.4848137,   78.4345245,           0.
    665,   27.8553925,   78.4228516,           0.
    666,   23.6601467,   78.9002609,           0.
    667,   31.7147026,   78.4018707,           0.
    668,   35.5899277,   78.4099579,           0.
    669,   16.5151024,   71.4927139,           0.
    670,   56.3657799,   76.2826004,           0.
    671,   20.0147514,   77.9471893,           0.
    672,   50.5073357,     78.84655,           0.
    673,   23.5230179,   83.1227493,           0.
    674,   23.4809361,   91.2809906,           0.
    675,   23.4565258,   87.0329971,           0.
    676,   50.6078949,    84.891304,           0.
    677,   46.9002724,   85.1024704,           0.
    678,   43.1143494,   85.1302872,           0.
    679,   29.5045528,    88.502594,           0.
    680,   37.2385674,   88.4755478,           0.
    681,   54.1372032,   83.9426041,           0.
    682,   33.3497238,   88.4812469,           0.
    683,    41.260746,   81.7984009,           0.
    684,   29.6879654,   81.6992035,           0.
    685,    33.526989,   81.7486572,           0.
    686,   37.4096146,   81.7672577,           0.
    687,   59.5652466,   77.1122818,           0.
    688,   54.3738632,   79.7595596,           0.
    689,    51.642437,   81.8588181,           0.
    690,   57.8094368,   79.1986084,           0.
    691,   48.6015892,   81.8571854,           0.
    692,   45.0163574,   81.8238068,           0.
    693,   39.2534218,   85.1251984,           0.
    694,    31.435154,   85.1048813,           0.
    695,   46.9264107,   78.5843277,           0.
    696,   35.3689117,   85.1171341,           0.
    697,   27.1786842,   85.0867996,           0.
    698,   26.3810406,    81.446373,           0.
    699,   26.2371998,   88.7361298,           0.
    700,    64.864296,   79.7421036,           0.
    701,   67.5057526,   77.7015152,           0.
    702,   77.7923126,   29.3320217,           0.
    703,    88.617897,   46.7750473,           0.
    704,   77.7917786,   21.5108376,           0.
    705,   77.7918015,   25.4214497,           0.
    706,   85.7613983,   43.8253365,           0.
    707,   77.7502747,   33.1618958,           0.
    708,   77.6896362,   36.8025589,           0.
    709,   118.879448,   3.34937096,           0.
    710,   115.012337,    3.3496685,           0.
    711,    111.14521,   3.35003543,           0.
    712,    107.27813,   3.35044312,           0.
    713,   103.411057,   3.35085034,           0.
    714,   99.5439682,   3.35132885,           0.
    715,   95.6758194,   3.35276747,           0.
    716,   91.8020248,   3.35830593,           0.
    717,   87.8438797,   3.42233658,           0.
    718,   83.7683792,   3.55730247,           0.
    719,   79.5574646,   3.57618761,           0.
    720,    140.47438,   52.7131195,           0.
    721,   140.649323,   40.5809975,           0.
    722,   140.663773,   36.7158051,           0.
    723,   140.666504,   32.8507805,           0.
    724,   140.667236,    28.985939,           0.
    725,   140.667557,    25.121151,           0.
    726,   140.667755,   21.2563725,           0.
    727,   140.663437,   17.3846569,           0.
    728,   140.602036,   13.4236431,           0.
    729,   140.476929,   9.34557056,           0.
    730,   140.469193,   5.13744926,           0.
    731,   134.233032,   54.5212936,           0.
    732,   114.734833,   54.5935364,           0.
    733,   110.831192,    54.593338,           0.
    734,   106.927513,   54.5929794,           0.
    735,   102.985863,   54.5662956,           0.
    736,   98.9759293,   54.5181923,           0.
    737,   94.9388657,   54.5037575,           0.
    738,   91.6599274,   55.0149117,           0.
    739,   82.2309265,   41.0686455,           0.
    740,   91.9630203,    50.594799,           0.
    741,   140.617142,   44.4578094,           0.
    742,   137.169388,   11.3246021,           0.
    743,   137.314041,   19.3144894,           0.
    744,   137.288376,   38.6643867,           0.
    745,    137.31189,   34.7858315,           0.
    746,   137.317062,   30.9185143,           0.
    747,   137.318665,   27.0533485,           0.
    748,   137.318298,   23.1868038,           0.
    749,   137.272308,   15.3418236,           0.
    750,   140.489975,    48.484848,           0.
    751,   122.746498,   3.34916496,           0.
    752,   85.7542572,   6.88237906,           0.
    753,    89.765419,    6.7645545,           0.
    754,   101.477943,   6.70386028,           0.
    755,   130.465561,   3.32519889,           0.
    756,   126.610489,   3.34380221,           0.
    757,   116.946457,   6.69962406,           0.
    758,   105.345055,   6.70279503,           0.
    759,   113.079247,   6.70053864,           0.
    760,   109.212112,   6.70170546,           0.
    761,   97.6094742,   6.70652962,           0.
    762,   93.7223129,   6.71906662,           0.
    763,    134.28598,   3.31054711,           0.
    764,   137.559525,   3.07113075,           0.
    765,   130.362122,   54.5562935,           0.
    766,   112.782539,    51.216526,           0.
    767,   104.952377,   51.1901131,           0.
    768,   122.543343,   54.5935364,           0.
    769,   118.638947,   54.5941277,           0.
    770,   96.7937546,   50.9468079,           0.
    771,   100.916557,   51.0735016,           0.
    772,   126.451485,     54.58395,           0.
    773,   108.874969,   51.2108192,           0.
    774,   77.7890396,   17.5997028,           0.
    775,   77.7616882,   13.6983089,           0.
    776,   81.1489868,   31.2310238,           0.
    777,   81.1733856,    23.466774,           0.
    778,   77.7387924,   9.82875252,           0.
    779,   77.4906998,   6.51896572,           0.
    780,   81.1695023,   27.3676548,           0.
    781,   80.9306488,   34.9240875,           0.
    782,   77.9271545,   40.2672729,           0.
    783,    136.63858,   6.92526579,           0.
    784,   81.3566818,   7.43903971,           0.
    785,   133.983063,    17.263092,           0.
    786,   133.971619,   21.2323608,           0.
    787,   134.007492,   13.2284727,           0.
    788,   133.969772,   25.1161404,           0.
    789,    133.96817,    28.984333,           0.
    790,   133.965668,   32.8506355,           0.
    791,   133.930908,   36.7455864,           0.
    792,   124.679214,   6.69597197,           0.
    793,    132.45874,    6.7610507,           0.
    794,    128.58876,    6.8087678,           0.
    795,   111.146736,   10.0531988,           0.
    796,   95.6623154,   10.0654268,           0.
    797,   107.279617,   10.0553741,           0.
    798,   115.014175,    10.051548,           0.
    799,    99.541153,   10.0608721,           0.
    800,   103.411995,   10.0579796,           0.
    801,   91.6711807,   10.0851688,           0.
    802,   87.6528091,   10.1082754,           0.
    803,   137.238098,   42.5779915,           0.
    804,   120.813324,    6.6985836,           0.
    805,   132.347855,   51.0336571,           0.
    806,   116.686569,   51.2178726,           0.
    807,   124.475754,   51.1895752,           0.
    808,   102.884651,   47.6838379,           0.
    809,   106.901169,   47.8064575,           0.
    810,   110.825661,   47.8346825,           0.
    811,    120.58783,   51.2139893,           0.
    812,   128.388901,     51.03759,           0.
    813,   81.1771088,   19.5691681,           0.
    814,    81.201149,   11.6881351,           0.
    815,   84.5461731,   29.3131962,           0.
    816,   84.3536682,   33.1850319,           0.
    817,   84.5506668,   25.4180279,           0.
    818,   81.2716293,   15.6294088,           0.
    819,   137.142548,   46.4992104,           0.
    820,   136.615311,   50.8610649,           0.
    821,   133.873886,   44.6051064,           0.
    822,   130.589188,   34.7923927,           0.
    823,   130.611465,   30.9183044,           0.
    824,   130.620468,   23.1822834,           0.
    825,   130.617218,   27.0501442,           0.
    826,   130.598557,   19.1659737,           0.
    827,   130.699417,   15.0866776,           0.
    828,   134.195816,   9.78401852,           0.
    829,   89.5315628,   13.4584255,           0.
    830,   93.5720062,   13.5328894,           0.
    831,     122.7565,   10.0530796,           0.
    832,   105.347885,    13.411849,           0.
    833,   109.215294,    13.408514,           0.
    834,   126.570915,   10.1519651,           0.
    835,   130.640137,    10.723567,           0.
    836,   101.476273,   13.4183731,           0.
    837,   97.5641098,   13.4559269,           0.
    838,   113.081657,   13.4107904,           0.
    839,   118.882591,   10.0507002,           0.
    840,   133.903519,   40.6587868,           0.
    841,   84.2141037,   9.93150425,           0.
    842,   98.8321609,   47.5261726,           0.
    843,   114.733879,   47.8422127,           0.
    844,   130.458923,   47.0900955,           0.
    845,   84.5561523,   21.5399494,           0.
    846,   108.878143,   44.4571495,           0.
    847,   104.919777,   44.3454475,           0.
    848,   122.506142,   47.7926407,           0.
    849,   83.8365402,   37.0347977,           0.
    850,    126.32135,   47.6665344,           0.
    851,   118.632339,    47.835537,           0.
    852,   87.8440247,   31.2902088,           0.
    853,   87.9425583,   27.3756046,           0.
    854,   85.1674805,   13.5418015,           0.
    855,   84.6313705,   17.7014275,           0.
    856,   137.528259,   54.8078842,           0.
    857,   134.087708,   48.0178261,           0.
    858,   89.5245819,    42.955452,           0.
    859,   130.520889,   42.7551613,           0.
    860,   127.248802,   32.8782196,           0.
    861,   127.283241,   21.2590027,           0.
    862,   126.895271,   17.0045662,           0.
    863,   127.262924,   28.9900303,           0.
    864,   127.280998,     25.13657,           0.
    865,   91.4312363,   17.3129673,           0.
    866,   120.811203,   13.4752045,           0.
    867,   107.285095,   16.7664318,           0.
    868,   95.6867523,   16.8458405,           0.
    869,   124.615509,    13.483532,           0.
    870,   103.416405,   16.7742939,           0.
    871,   111.138809,    16.758009,           0.
    872,   99.5571136,    16.789669,           0.
    873,   130.471756,   38.7658463,           0.
    874,   116.940834,   13.4534559,           0.
    875,   100.982841,   44.1110153,           0.
    876,   112.782898,   44.4670563,           0.
    877,   87.9697266,   23.4887486,           0.
    878,   87.6752625,   35.3654861,           0.
    879,   106.990059,   41.0173111,           0.
    880,   120.572128,   44.4449654,           0.
    881,   124.379364,   44.4221687,           0.
    882,   116.683495,   44.4659767,           0.
    883,    87.734314,   16.3294888,           0.
    884,   91.3391571,   29.3707867,           0.
    885,   87.9509659,   19.6509399,           0.
    886,   95.2904205,    47.661911,           0.
    887,   87.2552261,   39.7867165,           0.
    888,   92.4626694,   45.5558739,           0.
    889,   96.5072174,   43.7246475,           0.
    890,   124.215889,    19.857275,           0.
    891,   123.930656,   30.9702187,           0.
    892,    123.85585,   23.2114029,           0.
    893,   94.2997665,   19.8582897,           0.
    894,   123.849472,   27.0777683,           0.
    895,   118.699142,    16.862793,           0.
    896,   105.358635,   20.1277637,           0.
    897,   122.576591,   16.9097004,           0.
    898,   109.234818,   20.1069202,           0.
    899,   97.6532898,   20.0929928,           0.
    900,     101.4991,   20.1201553,           0.
    901,   127.884247,    13.290062,           0.
    902,    127.17894,   36.7550125,           0.
    903,   114.897362,   16.7084732,           0.
    904,   103.277412,    40.898037,           0.
    905,   110.848824,    41.078331,           0.
    906,   91.4570312,   25.4713287,           0.
    907,   91.3409882,   33.3729134,           0.
    908,   118.617226,    41.027523,           0.
    909,   122.504082,   41.0563316,           0.
    910,   114.714478,   41.0795898,           0.
    911,   92.6395874,   41.6263657,           0.
    912,   126.701187,   40.9316597,           0.
    913,   95.7226334,   39.1050262,           0.
    914,   120.457878,   29.0266666,           0.
    915,    120.25856,   25.0823097,           0.
    916,    116.55336,   19.5426388,           0.
    917,   95.3058167,    23.449131,           0.
    918,   107.493134,    23.554369,           0.
    919,    103.48835,   23.4834213,           0.
    920,   99.5449448,   23.3318501,           0.
    921,   123.971222,   34.8451385,           0.
    922,   113.178558,   19.9804668,           0.
    923,    99.607193,   40.2854652,           0.
    924,   105.148918,   37.7289314,           0.
    925,   108.884964,    37.680378,           0.
    926,   94.9174423,   27.5750275,           0.
    927,     91.40242,   21.5385666,           0.
    928,   94.8441086,   31.3299351,           0.
    929,   91.4242783,   37.8385468,           0.
    930,   120.631203,    37.208519,           0.
    931,   116.550568,   37.6807251,           0.
    932,   112.749825,   37.7073135,           0.
    933,   127.676346,   44.5731239,           0.
    934,   99.0639648,   36.0996056,           0.
    935,   120.298874,   20.6828098,           0.
    936,   117.488129,   27.0818462,           0.
    937,   116.149261,   23.2747879,           0.
    938,   105.699799,   27.0556145,           0.
    939,   101.507683,    26.740406,           0.
    940,   124.197327,   38.1593323,           0.
    941,    120.61776,   32.9313698,           0.
    942,   111.665459,   23.5306664,           0.
    943,   106.612907,   34.3068542,           0.
    944,   95.0137482,   35.0998039,           0.
    945,   98.7073746,   29.7377815,           0.
    946,   110.603157,   34.2651138,           0.
    947,   114.507011,   34.3265915,           0.
    948,   90.2109222,   40.5517693,           0.
    949,   97.9966507,   26.1668396,           0.
    950,   114.091339,   27.1182899,           0.
    951,    103.45414,   30.8562775,           0.
    952,   116.780327,   30.8435249,           0.
    953,   109.939125,   27.1268597,           0.
    954,   102.786156,   34.9450417,           0.
    955,   108.122009,   30.7299061,           0.
    956,    101.97673,   37.9914169,           0.
    957,   97.6116562,    33.008152,           0.
    958,   112.340492,   30.7350483,           0.
    959,   117.817375,   34.5981483,           0.
    960,   100.324661,   32.9293709,           0.
    961,   80.5229797,   38.0194702,           0.
    962,   37.6557045,   54.5423317,           0.
    963,   70.8258667,   5.21582603,           0.
    964,    59.641861,   46.5390205,           0.
    965,   71.0210876,   25.4211845,           0.
    966,   70.9834213,   29.3835087,           0.
    967,   63.5309906,   43.6151505,           0.
    968,   70.8634109,   33.4828682,           0.
    969,   70.9848022,   37.5934944,           0.
    970,   71.6198578,    40.827755,           0.
    971,   57.9251099,   50.6707764,           0.
    972,    67.702034,    40.896637,           0.
    973,   25.7649746,    54.543663,           0.
    974,    29.728384,   54.5427132,           0.
    975,   33.6918488,   54.5424385,           0.
    976,   41.6196632,   54.5437317,           0.
    977,    45.583477,   54.5456047,           0.
    978,   49.4381676,   54.5488091,           0.
    979,   53.1403275,   54.5062218,           0.
    980,   3.35175824,    25.119585,           0.
    981,   3.35229635,   28.9850063,           0.
    982,    3.3533268,   32.8503227,           0.
    983,   3.35447216,   36.7151718,           0.
    984,   3.35858035,   40.5793076,           0.
    985,   3.39556193,   44.4606857,           0.
    986,   3.53181791,   48.4934769,           0.
    987,   3.58833361,   52.7447014,           0.
    988,   56.7828674,    3.3883667,           0.
    989,   52.8683586,   3.39069796,           0.
    990,    48.952507,   3.39128041,           0.
    991,   45.0364265,   3.39171314,           0.
    992,   41.1202583,   3.39214611,           0.
    993,   37.2039642,   3.39238977,           0.
    994,   33.2876053,   3.39213943,           0.
    995,   29.3713017,   3.39137888,           0.
    996,   25.4550457,   3.39017987,           0.
    997,   21.5388241,     3.388798,           0.
    998,   17.6223869,   3.38919663,           0.
    999,   13.6821651,   3.41861391,           0.
   1000,    9.5792675,   3.52251315,           0.
   1001,   5.27168608,   3.53573132,           0.
   1002,    67.878006,   3.11614728,           0.
   1003,   55.3641548,   47.5475731,           0.
   1004,    56.741642,   54.3859901,           0.
   1005,   71.0059052,   17.5969658,           0.
   1006,   71.0183411,    21.509861,           0.
   1007,   67.5932541,    27.418211,           0.
   1008,   66.7038727,   36.1198883,           0.
   1009,   6.86702299,   46.4045448,           0.
   1010,   6.71977854,   38.6450958,           0.
   1011,   17.8328266,   54.5238495,           0.
   1012,   21.8009605,   54.5419998,           0.
   1013,   43.5964127,   51.1233635,           0.
   1014,   11.6729975,   6.87188816,           0.
   1015,   19.5791187,   6.77667904,           0.
   1016,   3.38883781,   17.3898468,           0.
   1017,   3.35834169,   21.2540264,           0.
   1018,   64.5681763,   3.38517737,           0.
   1019,   60.6931305,    3.3855474,           0.
   1020,   54.8260727,   6.78114653,           0.
   1021,   43.0787239,   6.78444481,           0.
   1022,   27.7465382,   51.1170044,           0.
   1023,   70.8390198,    9.5109396,           0.
   1024,   70.9561768,   13.6241102,           0.
   1025,   67.3493118,   31.5004902,           0.
   1026,    50.910614,   6.78239059,           0.
   1027,   63.3335991,   39.6032333,           0.
   1028,   31.3286896,   6.78395796,           0.
   1029,   35.2455063,   6.78522539,           0.
   1030,   35.6741714,    51.114975,           0.
   1031,   47.4431572,   51.1393929,           0.
   1032,   51.0387306,   51.2397804,           0.
   1033,   6.73271132,   27.0363731,           0.
   1034,   6.71480417,   30.9135418,           0.
   1035,   6.71532106,   34.7807388,           0.
   1036,   6.75425434,   42.4958992,           0.
   1037,   9.91781902,   54.5112877,           0.
   1038,   7.45750809,   50.8091965,           0.
   1039,   6.57097626,   54.8018265,           0.
   1040,   59.6667061,   41.9820328,           0.
   1041,   46.9948235,   6.78345537,           0.
   1042,   39.1623001,   6.78530264,           0.
   1043,   39.6369438,   51.1184578,           0.
   1044,   31.7102642,   51.1155815,           0.
   1045,   27.4120235,   6.78136349,           0.
   1046,   23.4954453,   6.77820063,           0.
   1047,   15.6550007,   6.80025005,           0.
   1048,   3.44209456,   9.71027279,           0.
   1049,   7.19679785,   7.36717224,           0.
   1050,   3.18211555,   6.44151449,           0.
   1051,   66.9307022,   7.05309486,           0.
   1052,   6.84838772,   19.2160416,           0.
   1053,   9.98538208,   47.8868103,           0.
   1054,   3.45343852,   13.5333061,           0.
   1055,    10.077589,   32.8443871,           0.
   1056,   10.1061125,   28.9728889,           0.
   1057,   10.0844297,   36.7095413,           0.
   1058,   10.1050787,   40.5582733,           0.
   1059,   10.1575689,   44.4779549,           0.
   1060,   6.90496349,   23.0714703,           0.
   1061,   67.5951767,   19.5565052,           0.
   1062,   67.4261246,   15.5690393,           0.
   1063,    64.061203,   29.3670616,           0.
   1064,   67.6145782,   23.4735966,           0.
   1065,   58.7559586,   6.76468945,           0.
   1066,   48.9535141,   10.1749773,           0.
   1067,   52.8877258,   10.1938257,           0.
   1068,   37.2039223,   10.1793032,           0.
   1069,   45.0376778,   10.1768579,           0.
   1070,   41.1212196,   10.1786451,           0.
   1071,   33.2859268,   10.1781597,           0.
   1072,   25.4503784,   10.1693974,           0.
   1073,   21.5307121,   10.1638069,           0.
   1074,   29.3678551,   10.1747332,           0.
   1075,   17.6057243,   10.1706123,           0.
   1076,   13.6212835,   10.1464262,           0.
   1077,   62.6652298,   6.74713898,           0.
   1078,   23.7953587,    51.131134,           0.
   1079,   13.8527298,   54.4860497,           0.
   1080,   37.6569557,   47.6933861,           0.
   1081,   29.7276936,   47.6923904,           0.
   1082,   33.6928596,   47.6914215,           0.
   1083,    49.308609,   47.9331207,           0.
   1084,   45.5166931,   47.7478943,           0.
   1085,   41.6096344,   47.7072029,           0.
   1086,   19.8534431,   51.1058922,           0.
   1087,   10.0924435,   9.90807343,           0.
   1088,   67.3053131,   11.5019703,           0.
   1089,   13.6713743,   47.0023842,           0.
   1090,   10.9201326,   13.5668821,           0.
   1091,   63.3982391,   13.4938078,           0.
   1092,   10.8502102,   20.8473988,           0.
   1093,   13.4532881,   34.7704048,           0.
   1094,   7.00231647,   11.5908709,           0.
   1095,   13.5784531,   38.7091217,           0.
   1096,   13.5706367,   42.7011604,           0.
   1097,   13.4631071,   30.8986931,           0.
   1098,   6.90242767,   15.4226313,           0.
   1099,   10.2452736,   25.1135445,           0.
   1100,   63.5760841,   33.2484169,           0.
   1101,   64.1958771,   25.4357777,           0.
   1102,   64.0651779,   17.6980591,           0.
   1103,   64.1923294,   21.5566788,           0.
   1104,   27.4040451,   13.5637798,           0.
   1105,   46.9973488,   13.5690737,           0.
   1106,   56.8657875,   10.1768446,           0.
   1107,   43.0810814,   13.5721903,           0.
   1108,   50.9348373,   13.6007452,           0.
   1109,   15.4570465,    13.576992,           0.
   1110,   60.8241158,    10.085146,           0.
   1111,   19.5252056,   13.5600338,           0.
   1112,   23.4762497,   13.5581093,           0.
   1113,   39.1632576,   13.5741014,           0.
   1114,   31.3237858,   13.5702715,           0.
   1115,    35.243782,   13.5735559,           0.
   1116,    15.830698,   50.9545403,           0.
   1117,   11.7859182,   50.9417114,           0.
   1118,     25.78619,   47.7293396,           0.
   1119,   43.5871201,   44.2968445,           0.
   1120,   47.5808372,   44.4434929,           0.
   1121,    31.710495,   44.2704735,           0.
   1122,   35.6781769,   44.2716217,           0.
   1123,   39.6388016,   44.2811928,           0.
   1124,   21.8541183,    47.738678,           0.
   1125,   64.2247162,   9.77623177,           0.
   1126,   16.5153255,   44.5481339,           0.
   1127,   13.3137407,   17.1379719,           0.
   1128,   60.8923645,   16.3665333,           0.
   1129,   13.3793087,   23.6406193,           0.
   1130,   16.9085636,   36.6605721,           0.
   1131,   17.4486313,   40.8479042,           0.
   1132,   16.8542118,   32.7766609,           0.
   1133,   9.76697922,   17.2381859,           0.
   1134,   13.5175047,   26.9984055,           0.
   1135,    60.759613,   27.3764362,           0.
   1136,   60.7694054,   19.6885185,           0.
   1137,   60.8046341,   23.5141869,           0.
   1138,   48.9320221,   17.0564308,           0.
   1139,   45.0125618,   16.9646721,           0.
   1140,   25.3964825,   16.9598637,           0.
   1141,   54.9539909,   13.6572514,           0.
   1142,    17.391674,   17.0635319,           0.
   1143,   21.3862972,   17.0063572,           0.
   1144,   41.1148186,   16.9662113,           0.
   1145,   29.3452339,   16.9638653,           0.
   1146,   37.2008781,   16.9691715,           0.
   1147,   33.2770805,   16.9678307,           0.
   1148,   51.8611565,   44.9457169,           0.
   1149,   17.9327526,   47.6246567,           0.
   1150,   27.7484798,   44.2883835,           0.
   1151,   60.4419708,   31.1602325,           0.
   1152,   45.6015015,   40.9217567,           0.
   1153,   41.6296043,    40.876091,           0.
   1154,    33.696991,   40.8528938,           0.
   1155,    37.665699,   40.8600349,           0.
   1156,   23.7856064,   44.3037148,           0.
   1157,   62.6644783,   36.4108734,           0.
   1158,   59.6354065,   38.1898079,           0.
   1159,   19.8798904,   44.3234825,           0.
   1160,   57.2075348,   17.4198208,           0.
   1161,    15.206768,   20.6170826,           0.
   1162,    57.313942,   29.1453438,           0.
   1163,   17.1144047,    24.392992,           0.
   1164,   19.9727688,   37.9869385,           0.
   1165,   20.2332268,   34.6138191,           0.
   1166,   16.9743271,   28.7759991,           0.
   1167,   57.4820213,    21.580965,           0.
   1168,   57.4297104,   25.3890991,           0.
   1169,   46.8128777,   20.3967075,           0.
   1170,   59.0236702,   13.5332336,           0.
   1171,   19.2222004,   20.4632072,           0.
   1172,   43.0166931,   20.3489876,           0.
   1173,   52.9002876,   17.1187649,           0.
   1174,   23.1530819,   20.4259281,           0.
   1175,   39.1448784,   20.3600044,           0.
   1176,     27.16679,   20.5051517,           0.
   1177,   31.2458725,    20.409811,           0.
   1178,   35.2188759,   20.3754387,           0.
   1179,   49.6066017,   41.1974907,           0.
   1180,   29.7279167,   40.8205948,           0.
   1181,   43.6126366,   37.4757614,           0.
   1182,   39.6724968,    37.465126,           0.
   1183,   35.7668877,   37.4711151,           0.
   1184,   25.7319412,   40.7461395,           0.
   1185,   21.7358971,   40.8512993,           0.
   1186,    54.145401,   27.2849636,           0.
   1187,   20.6739693,     26.74786,           0.
   1188,   23.7147751,   36.8949623,           0.
   1189,   56.9275398,   32.6175156,           0.
   1190,    20.442337,   30.7006664,           0.
   1191,   54.2103195,    23.408083,           0.
   1192,   44.7480888,   23.7266808,           0.
   1193,    50.898632,   20.9575233,           0.
   1194,   40.8962555,   23.7701645,           0.
   1195,   24.6833515,    24.364975,           0.
   1196,    37.030735,   23.8023682,           0.
   1197,   29.1558361,   23.8591404,           0.
   1198,   33.1221161,   23.8112545,           0.
   1199,    53.071167,   41.5544968,           0.
   1200,   47.6305885,   37.5975037,           0.
   1201,   31.8823395,   37.4119949,           0.
   1202,   41.7866898,   34.0863113,           0.
   1203,   37.9592781,   34.0892906,           0.
   1204,   28.0070076,   37.3394318,           0.
   1205,   56.0886116,   39.9515343,           0.
   1206,   54.5397606,   20.0970306,           0.
   1207,    24.201231,   28.6484509,           0.
   1208,   50.8394966,   25.3829594,           0.
   1209,   20.9694004,   23.2789917,           0.
   1210,   54.4930763,   30.5244484,           0.
   1211,   23.9075432,    32.612587,           0.
   1212,   59.9084511,   34.6664314,           0.
   1213,   42.5501137,   27.2345791,           0.
   1214,   38.6549034,    27.246809,           0.
   1215,   55.9489441,   43.7533951,           0.
   1216,   52.1695786,   37.7697601,           0.
   1217,   34.7847519,   27.2319012,           0.
   1218,   27.4469471,   26.9224205,           0.
   1219,    30.846983,    27.183403,           0.
   1220,   45.6091232,   34.1878662,           0.
   1221,   34.1104431,   34.0473022,           0.
   1222,   40.2164154,    30.670393,           0.
   1223,    30.219595,   34.0507851,           0.
   1224,   56.3326721,   36.1378555,           0.
   1225,   26.7914162,   34.2970238,           0.
   1226,   27.9825439,   30.6290054,           0.
   1227,   50.8918533,   29.9115009,           0.
   1228,   48.0339661,   23.5454445,           0.
   1229,   46.9099846,   27.3836193,           0.
   1230,    49.479496,   34.0513268,           0.
   1231,    32.382473,   30.6388054,           0.
   1232,   44.0636215,    30.795332,           0.
   1233,   36.3513794,   30.6540833,           0.
   1234,   47.3908157,   31.2659283,           0.
   1235,     53.38237,   33.5020676,           0.
   1236,   52.4085999,   48.5517998,           0.
   1237,   54.4364281,   51.1503563,           0.
*Element, type=S3
  1, 319, 316, 294
  2, 227,  68,  69
  3, 236,  60, 235
  4, 204,   3,  27
  5, 324, 287, 320
  6, 347,  13,  14
  7, 276,  17, 205
  8, 205,  17,  18
  9, 243, 234, 233
 10, 206, 205,  18
 11, 295, 294, 246
 12, 207,  24, 203
 13, 208, 206,  19
 14, 209, 208,  20
 15, 210,   2,  22
 16, 211,  25,  26
 17, 279, 209, 212
 18,  39,   4,  40
 19, 226,  40,  41
 20, 257, 225, 224
 21, 362, 359, 329
 22, 259, 222, 221
 23, 260, 259, 221
 24, 328, 302, 300
 25, 273,  35,  36
 26, 266,  32,  33
 27, 214,  31, 213
 28, 244, 234, 243
 29, 215,  30, 214
 30, 217,  27,  28
 31,  53,  52,   5
 32, 242,  53,  54
 33, 245, 241, 240
 34, 261, 256,  50
 35, 256,  49,  50
 36, 219,  48, 218
 37, 220,  47, 219
 38, 221,  46, 220
 39, 222,  45, 221
 40, 223,  44, 222
 41, 224,  43, 223
 42, 225,  42, 224
 43, 226,  41, 225
 44,  69,   1,  13
 45, 227,  69,  13
 46, 228,  68, 227
 47, 345, 313, 315
 48, 229,  67, 228
 49, 246, 230, 229
 50, 231,  65, 230
 51, 232,  64, 231
 52, 233,  63, 232
 53, 234,  62, 233
 54, 235,  61, 234
 55, 237,  59, 236
 56, 238,  58, 237
 57, 239,  57, 238
 58, 240,  56, 239
 59, 241,  55, 240
 60, 242,  54, 241
 61, 203,  24,  25
 62, 211,  26, 204
 63, 204,  26,   3
 64, 217,  28, 216
 65, 230,  66, 229
 66, 206,  18,  19
 67, 208,  19,  20
 68, 279, 208, 209
 69, 207,  23,  24
 70, 247, 232, 231
 71, 209,  20,  21
 72, 212, 210,  22
 73, 210, 209,  21
 74, 212,  23, 207
 75, 210,  21,   2
 76, 212,  22,  23
 77, 216,  29, 215
 78, 211, 203,  25
 79, 343, 314, 280
 80, 212, 209, 210
 81, 213,  31,  32
 82, 248, 237, 236
 83, 267, 215, 214
 84, 214,  30,  31
 85, 271, 215, 267
 86, 215,  29,  30
 87, 272, 216, 271
 88, 216,  28,  29
 89, 217, 211, 204
 90, 217, 204,  27
 91, 218,  48,  49
 92, 264, 262, 219
 93, 249, 235, 244
 94, 219,  47,  48
 95, 270,  34, 269
 96, 220,  46,  47
 97, 306,  37, 268
 98, 221,  45,  46
 99, 273, 269,  35
100, 222,  44,  45
101, 263, 224, 223
102, 223,  43,  44
103, 274, 268,  38
104, 224,  42,  43
105, 283, 225, 257
106, 225,  41,  42
107, 274,  39, 226
108, 226,  39,  40
109, 281,  15, 278
110, 315, 313, 278
111, 250, 246, 229
112, 228,  67,  68
113, 277, 205, 206
114, 229,  66,  67
115, 251, 230, 246
116, 230,  65,  66
117, 320, 291, 317
118, 231,  64,  65
119, 291, 287, 252
120, 232,  63,  64
121, 287, 286, 243
122, 233,  62,  63
123, 310, 309, 267
124, 234,  61,  62
125, 249, 248, 236
126, 235,  60,  61
127, 284, 255, 254
128, 236,  59,  60
129, 253, 237, 248
130, 237,  58,  59
131, 366, 336, 365
132, 238,  57,  58
133, 255, 240, 239
134, 239,  56,  57
135, 303, 261, 282
136, 240,  55,  56
137, 282, 241, 245
138, 241,  54,  55
139, 265,  52, 242
140, 242,  52,  53
141, 252, 233, 232
142, 275, 267, 214
143, 299, 260, 297
144, 244, 235, 234
145, 254, 238, 253
146, 331, 303, 327
147, 250, 229, 228
148, 293, 291, 247
149, 251, 247, 231
150, 401, 373, 372
151, 262, 260, 220
152, 249, 236, 235
153, 289, 244, 286
154, 289, 249, 244
155, 296, 228, 227
156, 278,  16, 276
157, 251, 231, 230
158, 294, 293, 251
159, 252, 243, 233
160, 252, 232, 247
161, 285, 284, 254
162, 253, 238, 237
163, 298, 297, 262
164, 254, 239, 238
165, 255, 245, 240
166, 255, 239, 254
167, 256, 218,  49
168, 261,  50,  51
169, 258, 223, 222
170, 306, 273,  36
171, 259, 258, 222
172, 332, 329, 297
173, 260, 221, 220
174, 298, 262, 264
175, 262, 220, 219
176, 352, 318, 323
177, 265, 261,  51
178, 282, 261, 265
179, 264, 219, 218
180, 334, 304, 331
181, 263, 257, 224
182, 263, 223, 258
183, 304, 218, 256
184, 290, 255, 284
185, 265,  51,  52
186, 282, 265, 242
187, 266, 213,  32
188, 270,  33,  34
189, 395, 271, 309
190, 275, 214, 213
191, 268,  37,  38
192, 283, 268, 274
193, 269,  34,  35
194, 300, 263, 258
195, 301, 259, 299
196, 270, 266,  33
197, 272, 217, 216
198, 271, 216, 215
199, 376, 211, 272
200, 272, 211, 217
201, 342, 336, 306
202, 302, 263, 300
203, 274,  38,  39
204, 283, 274, 226
205, 305, 213, 266
206, 326, 289, 286
207, 276,  16,  17
208, 312, 205, 277
209, 280, 206, 208
210, 319, 294, 295
211, 313, 296, 281
212, 278,  15,  16
213, 403, 212, 207
214, 374, 372, 314
215, 280, 277, 206
216, 280, 208, 279
217, 347, 281, 296
218, 281,  14,  15
219, 282, 242, 241
220, 327, 303, 282
221, 283, 226, 225
222, 364, 342, 283
223, 285, 254, 253
224, 288, 253, 248
225, 288, 285, 253
226, 322, 288, 321
227, 286, 244, 243
228, 287, 243, 252
229, 291, 252, 247
230, 405, 395, 368
231, 292, 248, 249
232, 414, 409, 410
233, 326, 286, 324
234, 354, 351, 321
235, 304, 256, 303
236, 290, 245, 255
237, 293, 247, 251
238, 368, 309, 339
239, 292, 288, 248
240, 292, 249, 289
241, 294, 251, 246
242, 314, 277, 280
243, 295, 246, 250
244, 392, 373, 348
245, 335, 296, 313
246, 315, 276, 312
247, 296, 250, 228
248, 347, 296, 227
249, 361, 330, 359
250, 297, 260, 262
251, 334, 264, 304
252, 318, 290, 284
253, 393, 365, 328
254, 299, 259, 260
255, 336, 307, 273
256, 301, 300, 258
257, 301, 258, 259
258, 332, 297, 298
259, 342, 306, 268
260, 302, 257, 263
261, 303, 256, 261
262, 327, 282, 245
263, 358, 331, 318
264, 304, 264, 218
265, 305, 275, 213
266, 311, 266, 270
267, 306,  36,  37
268, 342, 268, 283
269, 308, 269, 307
270, 307, 269, 273
271, 360, 328, 333
272, 308, 270, 269
273, 309, 271, 267
274, 310, 267, 275
275, 337, 275, 305
276, 353, 320, 350
277, 311, 305, 266
278, 311, 270, 308
279, 312, 276, 205
280, 344, 277, 314
281, 313, 281, 278
282, 315, 278, 276
283, 343, 280, 279
284, 441, 437, 436
285, 392, 345, 346
286, 345, 335, 313
287, 317, 293, 316
288, 316, 293, 294
289, 349, 316, 348
290, 317, 291, 293
291, 323, 284, 285
292, 351, 322, 321
293, 345, 319, 295
294, 346, 345, 315
295, 350, 317, 349
296, 320, 287, 291
297, 321, 288, 292
298, 325, 292, 289
299, 391, 362, 332
300, 322, 285, 288
301, 323, 318, 284
302, 323, 285, 322
303, 326, 325, 289
304, 324, 286, 287
305, 398, 369, 397
306, 325, 321, 292
307, 356, 324, 353
308, 357, 326, 356
309, 327, 245, 290
310, 331, 327, 290
311, 333, 300, 301
312, 330, 299, 329
313, 329, 299, 297
314, 386, 382, 354
315, 409, 362, 391
316, 330, 301, 299
317, 331, 304, 303
318, 331, 290, 318
319, 363, 334, 358
320, 355, 322, 351
321, 333, 328, 300
322, 333, 301, 330
323, 363, 358, 352
324, 334, 298, 264
325, 335, 295, 250
326, 335, 250, 296
327, 336, 273, 306
328, 365, 336, 342
329, 337, 310, 275
330, 341, 305, 311
331, 340, 308, 338
332, 338, 308, 307
333, 339, 309, 310
334, 367, 310, 337
335, 426, 410, 411
336, 340, 311, 308
337, 341, 337, 305
338, 341, 311, 340
339, 364, 283, 257
340, 365, 342, 364
341, 375, 279, 212
342, 404, 377, 402
343, 344, 312, 277
344, 372, 344, 314
345, 345, 295, 335
346, 346, 315, 312
347, 346, 312, 344
348, 373, 346, 344
349, 347, 227,  13
350, 347,  14, 281
351, 348, 316, 319
352, 378, 372, 374
353, 380, 349, 379
354, 349, 317, 316
355, 381, 350, 380
356, 350, 320, 317
357, 362, 329, 332
358, 354, 321, 325
359, 363, 298, 334
360, 355, 352, 323
361, 422, 421, 399
362, 353, 324, 320
363, 357, 325, 326
364, 399, 371, 398
365, 355, 323, 322
366, 409, 388, 362
367, 356, 326, 324
368, 385, 353, 381
369, 387, 356, 385
370, 357, 354, 325
371, 358, 334, 331
372, 358, 318, 352
373, 370, 369, 340
374, 359, 330, 329
375, 393, 338, 366
376, 361, 360, 333
377, 361, 333, 330
378, 389, 359, 388
379, 409, 391, 383
380, 384, 351, 382
381, 391, 352, 383
382, 363, 332, 298
383, 364, 257, 302
384, 365, 364, 302
385, 365, 302, 328
386, 393, 366, 365
387, 366, 338, 307
388, 366, 307, 336
389, 367, 339, 310
390, 371, 337, 341
391, 402, 203, 376
392, 438, 431, 436
393, 369, 341, 340
394, 370, 340, 338
395, 416, 338, 393
396, 390, 361, 389
397, 371, 367, 337
398, 371, 341, 369
399, 401, 379, 348
400, 374, 314, 343
401, 392, 348, 319
402, 373, 344, 372
403, 400, 343, 375
404, 417, 374, 400
405, 375, 343, 279
406, 402, 377, 203
407, 376, 203, 211
408, 395, 376, 272
409, 404, 403, 377
410, 377, 207, 203
411, 441, 436, 423
412, 406, 379, 401
413, 379, 349, 348
414, 401, 348, 373
415, 407, 380, 406
416, 380, 350, 349
417, 408, 381, 407
418, 381, 353, 350
419, 382, 351, 354
420, 386, 354, 357
421, 383, 352, 355
422, 384, 383, 355
423, 384, 355, 351
424, 410, 409, 384
425, 396, 394, 339
426, 385, 356, 353
427, 387, 386, 357
428, 420, 397, 415
429, 387, 357, 356
430, 425, 408, 424
431, 416, 397, 370
432, 388, 359, 362
433, 415, 390, 389
434, 389, 361, 359
435, 416, 390, 397
436, 390, 360, 361
437, 391, 332, 363
438, 391, 363, 352
439, 392, 319, 345
440, 392, 346, 373
441, 393, 328, 360
442, 416, 393, 360
443, 394, 368, 339
444, 396, 339, 367
445, 395, 272, 271
446, 395, 309, 368
447, 399, 367, 371
448, 412, 385, 408
449, 411, 410, 382
450, 397, 369, 370
451, 422, 398, 420
452, 398, 371, 369
453, 428, 412, 425
454, 399, 396, 367
455, 400, 374, 343
456, 403, 400, 375
457, 401, 372, 378
458, 406, 401, 378
459, 405, 402, 376
460, 405, 404, 402
461, 403, 375, 212
462, 403, 207, 377
463, 419, 405, 368
464, 423, 403, 404
465, 405, 376, 395
466, 419, 368, 394
467, 406, 380, 379
468, 434, 431, 406
469, 431, 424, 407
470, 407, 381, 380
471, 440, 424, 438
472, 408, 385, 381
473, 409, 383, 384
474, 410, 384, 382
475, 414, 388, 409
476, 411, 382, 386
477, 413, 386, 387
478, 439, 426, 432
479, 421, 418, 396
480, 412, 387, 385
481, 413, 411, 386
482, 413, 387, 412
483, 439, 432, 420
484, 414, 389, 388
485, 415, 397, 390
486, 415, 389, 414
487, 416, 370, 338
488, 416, 360, 390
489, 417, 378, 374
490, 423, 417, 400
491, 418, 394, 396
492, 421, 396, 399
493, 429, 394, 418
494, 435, 405, 419
495, 427, 426, 411
496, 420, 398, 397
497, 422, 399, 398
498, 433, 428, 430
499, 432, 426, 427
500, 433, 432, 427
501, 423, 400, 403
502, 441, 404, 435
503, 424, 408, 407
504, 431, 407, 406
505, 440, 425, 424
506, 425, 412, 408
507, 426, 414, 410
508, 427, 411, 413
509, 428, 427, 413
510, 433, 427, 428
511, 428, 413, 412
512, 430, 428, 425
513, 429, 419, 394
514, 440, 438, 429
515, 430, 418, 421
516, 433, 430, 421
517, 434, 406, 378
518, 436, 431, 434
519, 432, 422, 420
520, 439, 420, 415
521, 433, 421, 422
522, 433, 422, 432
523, 434, 378, 417
524, 436, 417, 423
525, 435, 404, 405
526, 437, 419, 429
527, 438, 436, 437
528, 436, 434, 417
529, 437, 435, 419
530, 438, 437, 429
531, 440, 429, 418
532, 438, 424, 431
533, 439, 415, 414
534, 439, 414, 426
535, 440, 418, 430
536, 440, 430, 425
537, 441, 423, 404
538, 441, 435, 437
 539, 478,  20, 447
 540, 448, 118, 119
 541, 453,  76, 452
 542, 477, 116, 117
 543, 595, 101, 102
 544, 606, 604, 569
 545,  13,   1,  70
 546, 458,  70,  71
 547, 499, 456, 489
 548, 489, 456, 455
 549, 544, 504, 542
 550, 503,  17,  16
 551, 446,  18, 445
 552, 447,  19, 446
 553, 478, 476,  21
 554,  87,   6,  88
 555, 467,  88,  89
 556, 480, 466, 465
 557, 481, 464, 463
 558, 482, 463, 462
 559, 495, 494,  84
 560, 493, 488,  82
 561, 488,  81,  82
 562, 515, 470, 510
 563, 498, 490, 450
 564, 500, 444, 490
 565, 451,  78, 444
 566, 452,  77, 451
 567, 454,  75, 453
 568, 455,  74, 454
 569, 456,  73, 455
 570, 457,  72, 456
 571, 458,  71, 457
 572, 101, 100,   7
 573, 459, 100, 101
 574, 468, 102, 103
 575, 483, 479,  97
 576, 596, 560, 555
 577, 512, 511, 105
 578, 461,  95, 460
 579, 462,  94, 461
 580, 463,  93, 462
 581, 464,  92, 463
 582, 465,  91, 464
 583, 466,  90, 465
 584, 467,  89, 466
 585, 509, 103, 104
 586, 595, 468, 556
 587, 513, 106, 107
 588, 561, 521, 560
 589, 513, 512, 106
 590, 514, 108, 469
 591, 469, 108, 109
 592, 471, 110, 111
 593, 470, 469, 109
 594, 472, 471, 111
 595, 473, 472, 112
 596, 475, 474, 114
 597, 585, 475, 443
 598, 475,   8, 115
 599, 476,   2,  21
 600, 477, 117, 442
 601, 442, 117, 118
 602, 541, 445, 503
 603, 600, 565, 562
 604, 443, 115, 116
 605, 444,  78,  79
 606, 450,  79,  80
 607, 445,  18,  17
 608, 501, 452, 491
 609, 506, 446, 505
 610, 446,  19,  18
 611, 633, 632, 609
 612, 447,  20,  19
 613, 448, 442, 118
 614, 476, 448, 119
 615, 449,  80,  81
 616, 527, 460, 479
 617, 450, 444,  79
 618, 450,  80, 449
 619, 654, 652, 634
 620, 451,  77,  78
 621, 535, 502, 533
 622, 452,  76,  77
 623, 533, 502, 492
 624, 453,  75,  76
 625, 502, 455, 454
 626, 454,  74,  75
 627, 504, 503,  16
 628, 455,  73,  74
 629, 507, 504,  15
 630, 456,  72,  73
 631, 519, 457, 499
 632, 457,  71,  72
 633, 508,  13, 458
 634, 458,  13,  70
 635, 485,  99, 459
 636, 459,  99, 100
 637, 460,  95,  96
 638, 479,  96,  97
 639, 482, 481, 463
 640, 461,  94,  95
 641, 524, 487, 481
 642, 462,  93,  94
 643, 529, 496, 518
 644, 463,  92,  93
 645, 487, 465, 464
 646, 464,  91,  92
 647, 496, 495,  85
 648, 465,  90,  91
 649, 518, 466, 480
 650, 466,  89,  90
 651, 497,  87, 467
 652, 467,  87,  88
 653, 511, 509, 104
 654, 555, 483, 485
 655, 470, 109, 110
 656, 552, 510, 551
 657, 471, 470, 110
 658, 500, 491, 451
 659, 472, 111, 112
 660, 516, 510, 471
 661, 473, 112, 113
 662, 517, 516, 472
 663, 474, 473, 113
 664, 559, 442, 557
 665, 474, 113, 114
 666, 545, 517, 473
 667, 475, 114,   8
 668, 475, 115, 443
 669, 476, 119,   2
 670, 478,  21,  20
 671, 477, 443, 116
 672, 571, 534, 569
 673, 520, 447, 506
 674, 701, 476, 478
 675, 479, 460,  96
 676, 483,  97,  98
 677, 525, 482, 523
 678, 494, 493,  83
 679, 486, 462, 461
 680, 562, 525, 523
 681, 593, 547, 586
 682, 566, 484, 527
 683, 485,  98,  99
 684, 485, 483,  98
 685, 484, 461, 460
 686, 645, 622, 620
 687, 556, 468, 546
 688, 596, 556, 546
 689, 486, 482, 462
 690, 486, 461, 484
 691, 487, 480, 465
 692, 487, 464, 481
 693, 488, 449,  81
 694, 493,  82,  83
 695, 492, 454, 453
 696, 538, 489, 535
 697, 490, 444, 450
 698, 498, 450, 449
 699, 491, 452, 451
 700, 500, 451, 444
 701, 501, 492, 453
 702, 581, 505, 541
 703, 494,  83,  84
 704, 531, 495, 529
 705, 495,  84,  85
 706, 526, 487, 524
 707, 496,  85,  86
 708, 565, 525, 562
 709, 497, 496,  86
 710, 518, 496, 497
 711, 497,  86,  87
 712, 518, 497, 467
 713, 528, 449, 488
 714, 523, 486, 522
 715, 542, 507, 519
 716, 499, 457, 456
 717, 536, 532, 500
 718, 551, 516, 550
 719, 501, 453, 452
 720, 534, 491, 532
 721, 502, 489, 455
 722, 502, 454, 492
 723, 503, 445,  17
 724, 504,  16,  15
 725, 507,  15,  14
 726, 583, 544, 582
 727, 701, 700, 557
 728, 505, 446, 445
 729, 594, 506, 543
 730, 506, 447, 446
 731, 508, 507,  14
 732, 519, 507, 508
 733, 508,  14,  13
 734, 519, 508, 458
 735, 509, 468, 103
 736, 511, 104, 105
 737, 510, 470, 471
 738, 516, 471, 472
 739, 512, 105, 106
 740, 647, 623, 622
 741, 548, 512, 513
 742, 549, 512, 548
 743, 514, 513, 107
 744, 553, 514, 547
 745, 514, 107, 108
 746, 547, 469, 515
 747, 539, 536, 490
 748, 515, 469, 470
 749, 517, 472, 473
 750, 559, 558, 477
 751, 545, 473, 474
 752, 597, 584, 545
 753, 518, 467, 466
 754, 567, 529, 518
 755, 519, 458, 457
 756, 580, 542, 519
 757, 701, 520, 700
 758, 520, 478, 447
 759, 521, 479, 483
 760, 546, 468, 509
 761, 612, 610, 568
 762, 522, 486, 484
 763, 601, 565, 600
 764, 523, 482, 486
 765, 531, 494, 495
 766, 525, 524, 481
 767, 525, 481, 482
 768, 627, 601, 600
 769, 531, 530, 494
 770, 526, 480, 487
 771, 527, 484, 460
 772, 527, 479, 521
 773, 528, 498, 449
 774, 540, 488, 493
 775, 529, 495, 496
 776, 567, 518, 480
 777, 530, 493, 494
 778, 563, 526, 524
 779, 574, 529, 567
 780, 629, 574, 563
 781, 532, 491, 500
 782, 536, 500, 490
 783, 537, 492, 501
 784, 575, 537, 571
 785, 534, 501, 491
 786, 641, 584, 597
 787, 607, 570, 572
 788, 535, 489, 502
 789, 539, 490, 498
 790, 589, 551, 588
 791, 537, 533, 492
 792, 537, 501, 534
 793, 582, 542, 580
 794, 538, 499, 489
 795, 568, 498, 528
 796, 611, 605, 578
 797, 540, 528, 488
 798, 540, 493, 530
 799, 541, 505, 445
 800, 544, 503, 504
 801, 542, 504, 507
 802, 580, 519, 499
 803, 616, 583, 615
 804, 543, 506, 505
 805, 615, 582, 570
 806, 544, 541, 503
 807, 585, 474, 475
 808, 558, 443, 477
 809, 554, 509, 511
 810, 549, 511, 512
 811, 547, 514, 469
 812, 586, 515, 552
 813, 596, 587, 560
 814, 553, 548, 513
 815, 671, 650, 626
 816, 554, 511, 549
 817, 550, 516, 517
 818, 584, 517, 545
 819, 577, 536, 576
 820, 551, 510, 516
 821, 637, 610, 612
 822, 552, 515, 510
 823, 553, 513, 514
 824, 622, 591, 620
 825, 587, 546, 554
 826, 554, 546, 509
 827, 555, 521, 483
 828, 556, 555, 485
 829, 556, 485, 459
 830, 595, 556, 459
 831, 557, 442, 448
 832, 700, 594, 640
 833, 597, 585, 558
 834, 559, 477, 442
 835, 640, 594, 619
 836, 661, 644, 614
 837, 598, 560, 587
 838, 560, 521, 555
 839, 623, 590, 622
 840, 561, 527, 521
 841, 564, 523, 522
 842, 564, 562, 523
 843, 574, 531, 529
 844, 565, 563, 524
 845, 603, 522, 566
 846, 591, 590, 548
 847, 565, 524, 525
 848, 602, 600, 562
 849, 566, 522, 484
 850, 566, 527, 561
 851, 567, 480, 526
 852, 574, 573, 531
 853, 568, 539, 498
 854, 579, 528, 540
 855, 569, 534, 532
 856, 577, 532, 536
 857, 570, 538, 535
 858, 572, 535, 533
 859, 661, 632, 653
 860, 571, 537, 534
 861, 572, 570, 535
 862, 575, 572, 533
 863, 578, 530, 573
 864, 573, 530, 531
 865, 574, 567, 526
 866, 574, 526, 563
 867, 575, 533, 537
 868, 608, 571, 604
 869, 576, 536, 539
 870, 610, 539, 568
 871, 672, 662, 655
 872, 577, 569, 532
 873, 629, 611, 573
 874, 578, 540, 530
 875, 579, 568, 528
 876, 579, 540, 578
 877, 580, 499, 538
 878, 582, 580, 538
 879, 581, 543, 505
 880, 583, 541, 544
 881, 582, 544, 542
 882, 582, 538, 570
 883, 616, 615, 607
 884, 583, 581, 541
 885, 584, 550, 517
 886, 597, 545, 585
 887, 585, 545, 474
 888, 585, 443, 558
 889, 586, 547, 515
 890, 618, 552, 589
 891, 592, 554, 549
 892, 592, 549, 590
 893, 588, 551, 550
 894, 617, 550, 584
 895, 613, 606, 577
 896, 589, 552, 551
 897, 590, 549, 548
 898, 591, 548, 553
 899, 593, 591, 553
 900, 660, 637, 656
 901, 669, 587, 592
 902, 592, 587, 554
 903, 593, 553, 547
 904, 624, 586, 618
 905, 594, 520, 506
 906, 632, 607, 609
 907, 595, 459, 101
 908, 595, 102, 468
 909, 596, 555, 556
 910, 596, 546, 587
 911, 625, 558, 559
 912, 625, 597, 558
 913, 599, 561, 598
 914, 598, 561, 560
 915, 649, 626, 599
 916, 599, 566, 561
 917, 636, 605, 635
 918, 602, 562, 564
 919, 629, 601, 611
 920, 601, 563, 565
 921, 630, 564, 603
 922, 674, 636, 635
 923, 603, 564, 522
 924, 603, 566, 599
 925, 604, 571, 569
 926, 606, 569, 577
 927, 612, 579, 605
 928, 605, 579, 578
 929, 613, 577, 576
 930, 639, 631, 606
 931, 616, 581, 583
 932, 609, 572, 575
 933, 608, 575, 571
 934, 634, 604, 631
 935, 609, 607, 572
 936, 609, 575, 608
 937, 674, 656, 636
 938, 610, 576, 539
 939, 611, 578, 573
 940, 635, 601, 627
 941, 612, 568, 579
 942, 674, 635, 627
 943, 638, 576, 610
 944, 682, 660, 679
 945, 619, 543, 614
 946, 614, 543, 581
 947, 615, 583, 582
 948, 615, 570, 607
 949, 661, 607, 632
 950, 616, 614, 581
 951, 657, 619, 644
 952, 617, 588, 550
 953, 618, 586, 552
 954, 643, 589, 621
 955, 644, 619, 614
 956, 619, 594, 543
 957, 620, 591, 593
 958, 624, 620, 593
 959, 621, 589, 588
 960, 642, 588, 617
 961, 669, 649, 598
 962, 622, 590, 591
 963, 669, 623, 649
 964, 623, 592, 590
 965, 624, 593, 586
 966, 648, 618, 643
 967, 689, 681, 676
 968, 687, 559, 557
 969, 666, 647, 645
 970, 626, 603, 599
 971, 628, 600, 602
 972, 628, 627, 600
 973, 651, 602, 630
 974, 646, 645, 620
 975, 629, 573, 574
 976, 629, 563, 601
 977, 630, 602, 564
 978, 630, 603, 626
 979, 631, 604, 606
 980, 639, 606, 613
 981, 633, 609, 608
 982, 689, 688, 681
 983, 634, 633, 608
 984, 695, 642, 662
 985, 634, 608, 604
 986, 678, 677, 654
 987, 635, 605, 611
 988, 635, 611, 601
 989, 637, 612, 636
 990, 636, 612, 605
 991, 675, 674, 628
 992, 638, 610, 637
 993, 648, 646, 624
 994, 638, 613, 576
 995, 659, 613, 638
 996, 658, 654, 631
 997, 687, 670, 559
 998, 700, 640, 557
 999, 641, 617, 584
1000, 641, 597, 625
1001, 642, 621, 588
1002, 662, 641, 655
1003, 643, 618, 589
1004, 664, 621, 663
1005, 653, 632, 633
1006, 690, 688, 670
1007, 646, 620, 624
1008, 673, 650, 666
1009, 648, 624, 618
1010, 660, 659, 638
1011, 671, 649, 647
1012, 647, 622, 645
1013, 668, 643, 664
1014, 668, 667, 648
1015, 649, 599, 598
1016, 649, 623, 647
1017, 698, 666, 665
1018, 650, 630, 626
1019, 651, 628, 602
1020, 651, 630, 650
1021, 652, 633, 634
1022, 654, 634, 631
1023, 661, 653, 644
1024, 653, 633, 652
1025, 658, 631, 639
1026, 695, 691, 692
1027, 655, 641, 625
1028, 670, 655, 625
1029, 698, 684, 697
1030, 656, 637, 636
1031, 657, 640, 619
1032, 681, 653, 676
1033, 680, 639, 659
1034, 693, 678, 658
1035, 659, 639, 613
1036, 660, 638, 637
1037, 697, 684, 694
1038, 667, 665, 646
1039, 661, 614, 616
1040, 661, 616, 607
1041, 662, 642, 617
1042, 662, 617, 641
1043, 663, 621, 642
1044, 695, 662, 672
1045, 696, 685, 686
1046, 664, 643, 621
1047, 665, 645, 646
1048, 667, 646, 648
1049, 671, 666, 650
1050, 666, 645, 665
1051, 668, 648, 643
1052, 682, 680, 659
1053, 686, 664, 683
1054, 686, 685, 668
1055, 669, 598, 587
1056, 669, 592, 623
1057, 670, 625, 559
1058, 690, 687, 640
1059, 671, 626, 649
1060, 671, 647, 666
1061, 688, 672, 655
1062, 691, 689, 676
1063, 699, 674, 675
1064, 673, 651, 650
1065, 674, 627, 628
1066, 675, 628, 651
1067, 675, 651, 673
1068, 697, 675, 673
1069, 676, 653, 652
1070, 677, 676, 652
1071, 677, 652, 654
1072, 678, 654, 658
1073, 693, 686, 683
1074, 692, 678, 683
1075, 679, 660, 656
1076, 699, 679, 656
1077, 680, 658, 639
1078, 682, 659, 660
1079, 681, 657, 644
1080, 681, 644, 653
1081, 694, 684, 685
1082, 685, 684, 667
1083, 683, 664, 663
1084, 692, 683, 663
1085, 684, 665, 667
1086, 685, 667, 668
1087, 686, 668, 664
1088, 696, 694, 685
1089, 693, 683, 678
1090, 696, 686, 693
1091, 687, 557, 640
1092, 690, 640, 657
1093, 688, 655, 670
1094, 688, 657, 681
1095, 691, 676, 677
1096, 689, 672, 688
1097, 690, 657, 688
1098, 690, 670, 687
1099, 692, 691, 677
1100, 691, 672, 689
1101, 695, 692, 663
1102, 692, 677, 678
1103, 693, 658, 680
1104, 696, 693, 680
1105, 694, 682, 679
1106, 697, 694, 679
1107, 695, 663, 642
1108, 695, 672, 691
1109, 696, 680, 682
1110, 696, 682, 694
1111, 699, 697, 679
1112, 698, 697, 673
1113, 698, 673, 666
1114, 698, 665, 684
1115, 699, 656, 674
1116, 699, 675, 697
1117, 701, 557, 448
1118, 700, 520, 594
1119, 701, 448, 476
1120, 701, 478, 520
1121, 782,   9, 120
1122, 702, 122, 123
1123, 758, 713, 712
1124, 723, 155, 722
1125, 856,  39,  38
1126, 710, 140, 709
1127, 129,  10, 130
1128, 719, 130, 131
1129, 752, 718, 717
1130, 762, 716, 715
1131, 814, 778, 784
1132, 774, 125, 126
1133, 754, 714, 713
1134, 782, 739, 165
1135, 707, 122, 702
1136, 708, 121, 707
1137, 146,  11, 147
1138, 730, 147, 148
1139, 742, 729, 728
1140, 743, 727, 726
1141, 793, 763, 783
1142, 763, 144, 145
1143, 751, 141, 142
1144, 827, 785, 826
1145, 711, 139, 710
1146, 712, 138, 711
1147, 713, 137, 712
1148, 758, 754, 713
1149, 715, 135, 714
1150, 716, 134, 715
1151, 717, 133, 716
1152, 718, 132, 717
1153, 719, 131, 718
1154,  39, 160,   4
1155, 720, 160,  39
1156, 731,  38,  37
1157, 741, 721, 157
1158, 741, 157, 158
1159, 803, 721, 741
1160, 722, 156, 721
1161, 724, 154, 723
1162, 725, 153, 724
1163, 726, 152, 725
1164, 727, 151, 726
1165, 728, 150, 727
1166, 729, 149, 728
1167, 730, 148, 729
1168, 765,  37,  36
1169, 803, 744, 721
1170, 772,  35, 768
1171, 768,  35,  34
1172, 769,  33, 732
1173, 732,  33,  32
1174, 734,  31,  30
1175, 733, 732,  32
1176, 735, 734,  30
1177, 736, 735,  29
1178, 770, 737, 740
1179, 737, 736,  28
1180, 738,   3, 161
1181, 776, 707, 702
1182, 740, 738, 161
1183, 706, 703, 163
1184, 705, 123, 124
1185, 703, 162, 163
1186, 706, 163, 164
1187, 704, 124, 125
1188, 714, 136, 713
1189, 705, 702, 123
1190, 705, 124, 704
1191, 781, 707, 776
1192, 813, 704, 774
1193, 816, 776, 815
1194, 707, 121, 122
1195, 961, 782, 708
1196, 708, 120, 121
1197, 709, 140, 141
1198, 745, 722, 744
1199, 759, 710, 757
1200, 710, 139, 140
1201, 759, 711, 710
1202, 711, 138, 139
1203, 853, 815, 817
1204, 712, 137, 138
1205, 801, 762, 796
1206, 713, 136, 137
1207, 800, 799, 754
1208, 714, 135, 136
1209, 753, 752, 717
1210, 715, 134, 135
1211, 775, 774, 126
1212, 716, 133, 134
1213, 778, 775, 127
1214, 717, 132, 133
1215, 784, 718, 752
1216, 718, 131, 132
1217, 779, 129, 719
1218, 719, 129, 130
1219, 750, 159, 720
1220, 720, 159, 160
1221, 721, 156, 157
1222, 807, 772, 768
1223, 791, 790, 745
1224, 722, 155, 156
1225, 746, 723, 745
1226, 723, 154, 155
1227, 790, 789, 746
1228, 724, 153, 154
1229, 748, 726, 725
1230, 725, 152, 153
1231, 749, 728, 727
1232, 726, 151, 152
1233, 835, 793, 828
1234, 727, 150, 151
1235, 763, 755, 144
1236, 728, 149, 150
1237, 783, 729, 742
1238, 729, 148, 149
1239, 764, 146, 730
1240, 730, 146, 147
1241, 856, 731, 820
1242, 844, 805, 812
1243, 733,  32,  31
1244, 766, 732, 733
1245, 734, 733,  31
1246, 848, 807, 811
1247, 735,  30,  29
1248, 767, 734, 735
1249, 736,  29,  28
1250, 773, 734, 767
1251, 737,  28,  27
1252, 770, 736, 737
1253, 738, 737,  27
1254, 740, 162, 703
1255, 738,  27,   3
1256, 740, 161, 162
1257, 739, 706, 164
1258, 739, 164, 165
1259, 842, 808, 771
1260, 740, 737, 738
1261, 750, 158, 159
1262, 750, 741, 158
1263, 794, 755, 793
1264, 835, 794, 793
1265, 747, 724, 746
1266, 785, 749, 743
1267, 825, 789, 823
1268, 744, 722, 721
1269, 804, 709, 751
1270, 745, 723, 722
1271, 788, 786, 748
1272, 746, 724, 723
1273, 786, 785, 743
1274, 747, 725, 724
1275, 748, 743, 726
1276, 748, 725, 747
1277, 749, 742, 728
1278, 749, 727, 743
1279, 820, 731, 805
1280, 857, 820, 805
1281, 751, 709, 141
1282, 756, 142, 143
1283, 753, 717, 716
1284, 802, 753, 801
1285, 761, 714, 754
1286, 818, 775, 814
1287, 817, 780, 777
1288, 780, 705, 777
1289, 755, 143, 144
1290, 787, 749, 785
1291, 756, 751, 142
1292, 756, 143, 755
1293, 795, 760, 759
1294, 757, 710, 709
1295, 760, 712, 711
1296, 800, 758, 797
1297, 798, 759, 757
1298, 797, 760, 795
1299, 760, 758, 712
1300, 760, 711, 759
1301, 893, 865, 868
1302, 761, 715, 714
1303, 762, 753, 716
1304, 762, 715, 761
1305, 764, 763, 145
1306, 783, 763, 764
1307, 764, 145, 146
1308, 783, 764, 730
1309, 765, 731,  37
1310, 772,  36,  35
1311, 773, 733, 734
1312, 809, 767, 808
1313, 771, 735, 736
1314, 833, 832, 797
1315, 769, 768,  34
1316, 806, 769, 732
1317, 769,  34,  33
1318, 806, 732, 766
1319, 888, 740, 703
1320, 887, 706, 739
1321, 771, 767, 735
1322, 771, 736, 770
1323, 812, 772, 807
1324, 772, 765,  36
1325, 810, 773, 809
1326, 773, 766, 733
1327, 774, 704, 125
1328, 775, 126, 127
1329, 778, 127, 128
1330, 855, 818, 854
1331, 849, 781, 816
1332, 780, 702, 705
1333, 777, 705, 704
1334, 796, 762, 761
1335, 779, 778, 128
1336, 784, 778, 779
1337, 779, 128, 129
1338, 784, 779, 719
1339, 817, 815, 780
1340, 780, 776, 702
1341, 961, 781, 849
1342, 781, 708, 707
1343, 782, 165,   9
1344, 782, 120, 708
1345, 783, 730, 729
1346, 828, 793, 783
1347, 784, 719, 718
1348, 841, 814, 784
1349, 786, 743, 748
1350, 788, 748, 747
1351, 789, 747, 746
1352, 826, 786, 824
1353, 869, 866, 831
1354, 787, 742, 749
1355, 789, 788, 747
1356, 942, 898, 922
1357, 790, 746, 745
1358, 930, 909, 908
1359, 791, 745, 744
1360, 873, 791, 840
1361, 840, 803, 821
1362, 909, 881, 880
1363, 804, 751, 792
1364, 792, 751, 756
1365, 793, 755, 763
1366, 828, 783, 742
1367, 794, 792, 756
1368, 794, 756, 755
1369, 798, 795, 759
1370, 847, 846, 809
1371, 799, 761, 754
1372, 917, 893, 899
1373, 929, 887, 878
1374, 797, 758, 760
1375, 839, 757, 804
1376, 824, 786, 788
1377, 836, 800, 832
1378, 799, 796, 761
1379, 800, 754, 758
1380, 951, 945, 939
1381, 865, 829, 830
1382, 801, 753, 762
1383, 885, 883, 865
1384, 802, 752, 753
1385, 819, 741, 750
1386, 857, 821, 819
1387, 804, 757, 709
1388, 834, 831, 792
1389, 805, 731, 765
1390, 812, 765, 772
1391, 811, 769, 806
1392, 843, 766, 810
1393, 933, 912, 859
1394, 811, 807, 768
1395, 808, 767, 771
1396, 842, 771, 770
1397, 898, 896, 867
1398, 809, 773, 767
1399, 838, 833, 795
1400, 810, 766, 773
1401, 811, 768, 769
1402, 851, 806, 843
1403, 857, 844, 821
1404, 812, 805, 765
1405, 813, 777, 704
1406, 854, 814, 841
1407, 814, 775, 778
1408, 841, 784, 752
1409, 853, 852, 815
1410, 815, 776, 780
1411, 878, 816, 852
1412, 816, 781, 776
1413, 845, 777, 813
1414, 830, 829, 801
1415, 818, 813, 774
1416, 818, 774, 775
1417, 819, 803, 741
1418, 820, 819, 750
1419, 820, 750, 720
1420, 856, 820, 720
1421, 859, 821, 844
1422, 821, 803, 819
1423, 823, 790, 822
1424, 822, 790, 791
1425, 863, 823, 860
1426, 823, 789, 790
1427, 890, 862, 861
1428, 825, 824, 788
1429, 825, 788, 789
1430, 902, 822, 873
1431, 862, 826, 861
1432, 826, 785, 786
1433, 901, 835, 827
1434, 827, 787, 785
1435, 828, 742, 787
1436, 835, 834, 794
1437, 829, 802, 801
1438, 830, 801, 796
1439, 837, 796, 799
1440, 939, 919, 938
1441, 897, 895, 866
1442, 831, 804, 792
1443, 832, 800, 797
1444, 833, 797, 795
1445, 838, 795, 798
1446, 871, 867, 833
1447, 834, 792, 794
1448, 901, 862, 869
1449, 835, 828, 787
1450, 835, 787, 827
1451, 870, 832, 867
1452, 836, 799, 800
1453, 837, 830, 796
1454, 837, 799, 836
1455, 874, 798, 839
1456, 921, 860, 902
1457, 839, 798, 757
1458, 839, 804, 831
1459, 840, 791, 744
1460, 840, 744, 803
1461, 841, 752, 802
1462, 854, 841, 802
1463, 886, 770, 740
1464, 929, 913, 911
1465, 843, 806, 766
1466, 876, 810, 846
1467, 850, 812, 807
1468, 850, 807, 848
1469, 845, 817, 777
1470, 883, 854, 829
1471, 846, 810, 809
1472, 847, 809, 808
1473, 875, 808, 842
1474, 913, 889, 911
1475, 881, 848, 880
1476, 851, 848, 811
1477, 887, 739, 849
1478, 961, 849, 739
1479, 933, 844, 850
1480, 850, 844, 812
1481, 851, 811, 806
1482, 882, 843, 876
1483, 852, 816, 815
1484, 906, 853, 877
1485, 877, 817, 845
1486, 868, 865, 830
1487, 854, 818, 814
1488, 854, 802, 829
1489, 855, 845, 813
1490, 855, 813, 818
1491, 856, 720,  39
1492, 856,  38, 731
1493, 857, 819, 820
1494, 857, 805, 844
1495, 889, 886, 888
1496, 858, 703, 706
1497, 940, 930, 921
1498, 859, 840, 821
1499, 915, 894, 914
1500, 860, 823, 822
1501, 861, 826, 824
1502, 864, 824, 825
1503, 901, 869, 834
1504, 862, 827, 826
1505, 863, 825, 823
1506, 931, 930, 908
1507, 864, 861, 824
1508, 864, 825, 863
1509, 885, 855, 883
1510, 868, 830, 837
1511, 935, 897, 890
1512, 866, 839, 831
1513, 867, 832, 833
1514, 871, 833, 838
1515, 872, 837, 836
1516, 900, 870, 896
1517, 869, 831, 834
1518, 897, 862, 890
1519, 870, 836, 832
1520, 919, 896, 918
1521, 903, 838, 874
1522, 894, 863, 891
1523, 872, 868, 837
1524, 872, 836, 870
1525, 873, 822, 791
1526, 873, 840, 859
1527, 874, 838, 798
1528, 874, 839, 866
1529, 875, 847, 808
1530, 889, 842, 886
1531, 876, 843, 810
1532, 905, 846, 879
1533, 877, 853, 817
1534, 885, 845, 855
1535, 878, 849, 816
1536, 907, 852, 884
1537, 879, 846, 847
1538, 904, 847, 875
1539, 880, 848, 851
1540, 882, 880, 851
1541, 933, 881, 912
1542, 881, 850, 848
1543, 882, 851, 843
1544, 910, 876, 905
1545, 883, 855, 854
1546, 883, 829, 865
1547, 884, 852, 853
1548, 927, 917, 906
1549, 927, 865, 893
1550, 885, 877, 845
1551, 886, 842, 770
1552, 888, 886, 740
1553, 887, 858, 706
1554, 887, 849, 878
1555, 888, 703, 858
1556, 911, 888, 858
1557, 889, 875, 842
1558, 911, 889, 888
1559, 892, 861, 864
1560, 935, 916, 895
1561, 935, 895, 897
1562, 891, 863, 860
1563, 892, 890, 861
1564, 894, 892, 864
1565, 927, 893, 917
1566, 899, 868, 872
1567, 894, 864, 863
1568, 932, 931, 910
1569, 958, 953, 950
1570, 895, 874, 866
1571, 896, 870, 867
1572, 898, 867, 871
1573, 897, 866, 869
1574, 897, 869, 862
1575, 922, 871, 903
1576, 914, 894, 891
1577, 899, 893, 868
1578, 900, 899, 872
1579, 900, 872, 870
1580, 960, 957, 945
1581, 901, 834, 835
1582, 901, 827, 862
1583, 902, 860, 822
1584, 912, 902, 873
1585, 903, 871, 838
1586, 903, 874, 895
1587, 904, 879, 847
1588, 923, 889, 913
1589, 905, 876, 846
1590, 925, 879, 924
1591, 906, 884, 853
1592, 927, 906, 877
1593, 907, 878, 852
1594, 928, 884, 926
1595, 908, 880, 882
1596, 910, 908, 882
1597, 940, 912, 909
1598, 909, 880, 908
1599, 910, 882, 876
1600, 932, 905, 925
1601, 948, 887, 929
1602, 948, 929, 911
1603, 912, 873, 859
1604, 912, 881, 909
1605, 949, 945, 926
1606, 934, 923, 913
1607, 937, 916, 935
1608, 941, 891, 921
1609, 937, 935, 915
1610, 915, 892, 894
1611, 937, 915, 936
1612, 916, 903, 895
1613, 926, 906, 917
1614, 920, 899, 900
1615, 958, 955, 953
1616, 918, 896, 898
1617, 955, 951, 938
1618, 919, 900, 896
1619, 920, 917, 899
1620, 920, 900, 919
1621, 921, 891, 860
1622, 940, 921, 902
1623, 922, 898, 871
1624, 922, 903, 916
1625, 923, 904, 875
1626, 923, 875, 889
1627, 924, 879, 904
1628, 956, 923, 934
1629, 955, 938, 953
1630, 925, 905, 879
1631, 926, 884, 906
1632, 949, 917, 920
1633, 927, 877, 885
1634, 927, 885, 865
1635, 957, 944, 928
1636, 928, 907, 884
1637, 929, 878, 907
1638, 944, 929, 907
1639, 931, 908, 910
1640, 941, 921, 930
1641, 932, 910, 905
1642, 959, 947, 952
1643, 946, 925, 943
1644, 958, 952, 947
1645, 933, 859, 844
1646, 933, 850, 881
1647, 956, 904, 923
1648, 944, 934, 913
1649, 935, 890, 892
1650, 935, 892, 915
1651, 936, 915, 914
1652, 952, 914, 941
1653, 950, 937, 936
1654, 937, 922, 916
1655, 938, 919, 918
1656, 953, 918, 942
1657, 949, 939, 945
1658, 939, 920, 919
1659, 940, 902, 912
1660, 940, 909, 930
1661, 941, 914, 891
1662, 959, 930, 931
1663, 942, 918, 898
1664, 942, 922, 937
1665, 943, 925, 924
1666, 954, 951, 943
1667, 944, 913, 929
1668, 944, 907, 928
1669, 960, 945, 951
1670, 945, 928, 926
1671, 958, 950, 952
1672, 946, 932, 925
1673, 947, 931, 932
1674, 947, 932, 946
1675, 948, 911, 858
1676, 948, 858, 887
1677, 949, 926, 917
1678, 949, 920, 939
1679, 950, 942, 937
1680, 952, 950, 936
1681, 951, 939, 938
1682, 954, 943, 924
1683, 952, 936, 914
1684, 959, 952, 941
1685, 953, 938, 918
1686, 953, 942, 950
1687, 956, 954, 924
1688, 960, 934, 957
1689, 955, 946, 943
1690, 955, 943, 951
1691, 956, 924, 904
1692, 956, 934, 954
1693, 957, 934, 944
1694, 957, 928, 945
1695, 958, 947, 946
1696, 958, 946, 955
1697, 959, 941, 930
1698, 959, 931, 947
1699, 960, 951, 954
1700, 960, 954, 934
1701, 961, 739, 782
1702, 961, 708, 781
1703, 1091, 1088, 1062
1704, 1002,  202,  963
1705, 1237,  979, 1032
1706, 1004,    8,  114
1707,  994,  193,  993
1708,  963,  129,  128
1709, 1005,  126,  125
1710, 1006,  124,  965
1711,  993,  194,  992
1712,  965,  124,  123
1713,  966,  965,  123
1714, 1025,  966,  968
1715,  967,  168,  964
1716,  968,  966,  122
1717,  969,  968,  121
1718,  970,    9,  166
1719,  971,  964,  169
1720, 1008,  969,  972
1721,  101,    7,  171
1722,  987,  171,  172
1723, 1009,  986,  985
1724, 1010,  984,  983
1725, 1117, 1038, 1053
1726, 1117, 1079, 1037
1727, 1012,  106,  105
1728,  995,  192,  994
1729,  974,  107,  973
1730, 1057, 1035, 1055
1731,  976,  110,  962
1732,  976,  111,  110
1733, 1013,  977,  976
1734,  979,  114,  113
1735,  185,  184,   12
1736, 1001,  185,  186
1737, 1014, 1000,  999
1738, 1015,  998,  997
1739, 1090, 1087, 1076
1740, 1054,  182, 1048
1741, 1017,  179,  180
1742,  981,  178,  980
1743,  982,  177,  981
1744,  983,  176,  982
1745,  984,  175,  983
1746,  985,  174,  984
1747,  986,  173,  985
1748,  987,  172,  986
1749,  202,   10,  129
1750,  963,  202,  129
1751, 1051,  963, 1023
1752, 1018,  200,  201
1753, 1019,  199,  200
1754, 1065,  988, 1019
1755,  989,  198,  988
1756,  990,  197,  989
1757,  991,  196,  990
1758,  992,  195,  991
1759, 1043,  962, 1030
1760, 1044, 1030,  975
1761,  996,  191,  995
1762,  997,  190,  996
1763,  998,  189,  997
1764,  999,  188,  998
1765, 1000,  187,  999
1766, 1001,  186, 1000
1767,  962,  110,  109
1768,  975,  109,  108
1769, 1023,  128,  127
1770, 1024,  126, 1005
1771,  964,  168,  169
1772,  971,  169,  170
1773, 1077, 1019, 1018
1774,  966,  123,  122
1775,  968,  122,  121
1776, 1008,  968,  969
1777,  967,  167,  168
1778, 1026,  989, 1020
1779,  969,  121,  120
1780,  972,  970,  166
1781,  970,  969,  120
1782,  972,  167,  967
1783,  970,  120,    9
1784,  972,  166,  167
1785, 1237, 1004,  979
1786,  978,  112,  977
1787, 1027, 1008,  972
1788,  972,  969,  970
1789,  973,  107,  106
1790, 1072, 1046, 1045
1791,  975,  108,  974
1792,  974,  108,  107
1793, 1042,  993,  992
1794,  975,  962,  109
1795,  977,  111,  976
1796, 1071, 1029, 1068
1797, 1031,  977, 1013
1798,  977,  112,  111
1799, 1032,  979,  978
1800,  978,  113,  112
1801, 1004,  971,  170
1802,  979,  113,  978
1803,  980,  178,  179
1804, 1060,  980, 1017
1805, 1109, 1090, 1076
1806,  981,  177,  178
1807, 1035,  983,  982
1808,  982,  176,  177
1809, 1036,  985,  984
1810,  983,  175,  176
1811, 1058, 1010, 1057
1812,  984,  174,  175
1813, 1039, 1037,  102
1814,  985,  173,  174
1815, 1038,  986, 1009
1816,  986,  172,  173
1817, 1039,  101,  987
1818,  987,  101,  171
1819,  988,  198,  199
1820, 1160, 1128, 1136
1821, 1040, 1027,  967
1822,  989,  197,  198
1823, 1069, 1041, 1066
1824,  990,  196,  197
1825, 1066, 1041, 1026
1826,  991,  195,  196
1827, 1042,  992, 1021
1828,  992,  194,  195
1829, 1029, 1028,  994
1830,  993,  193,  194
1831, 1044,  974, 1022
1832,  994,  192,  193
1833, 1074, 1028, 1071
1834,  995,  191,  192
1835, 1046,  997,  996
1836,  996,  190,  191
1837, 1047,  999,  998
1838,  997,  189,  190
1839, 1047,  998, 1015
1840,  998,  188,  189
1841, 1050, 1048,  183
1842,  999,  187,  188
1843, 1049, 1000, 1014
1844, 1000,  186,  187
1845, 1050,  184, 1001
1846, 1001,  184,  185
1847, 1018,  201, 1002
1848, 1002,  201,  202
1849, 1003,  964,  971
1850, 1084, 1031, 1013
1851, 1004,  170,    8
1852, 1004,  114,  979
1853, 1006,  125,  124
1854, 1006, 1005,  125
1855, 1064,  965, 1007
1856, 1061, 1005, 1006
1857, 1007,  965,  966
1858, 1151, 1135, 1063
1859, 1027,  972,  967
1860, 1100, 1063, 1025
1861, 1124, 1118, 1078
1862, 1079,  104,  103
1863, 1034,  981, 1033
1864, 1149, 1089, 1126
1865, 1086, 1078, 1012
1866, 1011,  105,  104
1867, 1012,  973,  106
1868, 1012,  105, 1011
1869, 1043,  976,  962
1870, 1070, 1021, 1069
1871, 1076, 1047, 1075
1872, 1054,  181,  182
1873, 1045,  995, 1028
1874, 1098, 1016, 1054
1875, 1017,  180, 1016
1876, 1016,  180,  181
1877, 1075, 1015, 1073
1878, 1017,  980,  179
1879, 1077, 1018, 1051
1880, 1051, 1002,  963
1881, 1019,  988,  199
1882, 1019,  200, 1018
1883, 1215,  964, 1003
1884, 1020,  989,  988
1885, 1021,  992,  991
1886, 1041,  991,  990
1887, 1022,  974,  973
1888, 1078,  973, 1012
1889, 1023,  963,  128
1890, 1024, 1023,  127
1891, 1024,  127,  126
1892, 1062, 1005, 1061
1893, 1025, 1007,  966
1894, 1025,  968, 1008
1895, 1026,  990,  989
1896, 1067, 1066, 1026
1897, 1100, 1025, 1008
1898, 1040,  967,  964
1899, 1028,  995,  994
1900, 1029,  994,  993
1901, 1042, 1029,  993
1902, 1082, 1044, 1081
1903, 1030,  962,  975
1904, 1044,  975,  974
1905, 1083, 1032, 1031
1906, 1031,  978,  977
1907, 1237, 1236, 1003
1908, 1032,  978, 1031
1909, 1056, 1034, 1033
1910, 1033,  981,  980
1911, 1055, 1035, 1034
1912, 1034,  982,  981
1913, 1035, 1010,  983
1914, 1035,  982, 1034
1915, 1036, 1009,  985
1916, 1036,  984, 1010
1917, 1037,  103,  102
1918, 1039, 1038, 1037
1919, 1038,  987,  986
1920, 1053, 1038, 1009
1921, 1039,  102,  101
1922, 1039,  987, 1038
1923, 1222, 1214, 1213
1924, 1173, 1108, 1141
1925, 1041, 1021,  991
1926, 1041,  990, 1026
1927, 1069, 1021, 1041
1928, 1070, 1042, 1021
1929, 1113, 1070, 1107
1930, 1043, 1013,  976
1931, 1074, 1072, 1045
1932, 1115, 1068, 1113
1933, 1046,  996, 1045
1934, 1045,  996,  995
1935, 1185, 1131, 1164
1936, 1046, 1015,  997
1937, 1047, 1014,  999
1938, 1112, 1072, 1104
1939, 1048,  182,  183
1940, 1050, 1049, 1048
1941, 1049, 1001, 1000
1942, 1087, 1014, 1076
1943, 1050,  183,  184
1944, 1050, 1001, 1049
1945, 1051, 1018, 1002
1946, 1088, 1024, 1062
1947, 1133, 1127, 1092
1948, 1052, 1017, 1016
1949, 1117, 1089, 1116
1950, 1059, 1009, 1036
1951, 1054, 1016,  181
1952, 1094, 1049, 1087
1953, 1056, 1055, 1034
1954, 1093, 1057, 1055
1955, 1099, 1033, 1060
1956, 1073, 1046, 1072
1957, 1149, 1124, 1086
1958, 1057, 1010, 1035
1959, 1095, 1057, 1093
1960, 1058, 1036, 1010
1961, 1059, 1053, 1009
1962, 1059, 1036, 1058
1963, 1060, 1033,  980
1964, 1060, 1017, 1052
1965, 1064, 1061, 1006
1966, 1103, 1102, 1061
1967, 1128, 1091, 1102
1968, 1062, 1024, 1005
1969, 1108, 1105, 1066
1970, 1063, 1007, 1025
1971, 1064, 1006,  965
1972, 1101, 1007, 1063
1973, 1065, 1020,  988
1974, 1077, 1065, 1019
1975, 1067, 1026, 1020
1976, 1148, 1083, 1120
1977, 1106, 1020, 1065
1978, 1103, 1064, 1101
1979, 1085, 1043, 1080
1980, 1068, 1029, 1042
1981, 1120, 1084, 1119
1982, 1107, 1069, 1105
1983, 1085, 1084, 1013
1984, 1070, 1068, 1042
1985, 1145, 1140, 1104
1986, 1071, 1028, 1029
1987, 1074, 1045, 1028
1988, 1132, 1130, 1093
1989, 1143, 1112, 1140
1990, 1073, 1015, 1046
1991, 1115, 1071, 1068
1992, 1188, 1184, 1185
1993, 1109, 1076, 1075
1994, 1075, 1047, 1015
1995, 1133, 1090, 1127
1996, 1076, 1014, 1047
1997, 1125, 1051, 1088
1998, 1125, 1091, 1110
1999, 1078, 1022,  973
2000, 1086, 1012, 1011
2001, 1079, 1011,  104
2002, 1079,  103, 1037
2003, 1080, 1043, 1030
2004, 1082, 1030, 1044
2005, 1081, 1044, 1022
2006, 1118, 1022, 1078
2007, 1115, 1114, 1071
2008, 1082, 1080, 1030
2009, 1236, 1083, 1148
2010, 1084, 1083, 1031
2011, 1085, 1013, 1043
2012, 1162, 1135, 1151
2013, 1144, 1107, 1139
2014, 1139, 1105, 1138
2015, 1116, 1011, 1079
2016, 1089, 1053, 1059
2017, 1094, 1087, 1090
2018, 1087, 1049, 1014
2019, 1088, 1051, 1023
2020, 1088, 1023, 1024
2021, 1096, 1059, 1058
2022, 1156, 1150, 1118
2023, 1127, 1090, 1109
2024, 1098, 1094, 1090
2025, 1125, 1110, 1077
2026, 1102, 1062, 1061
2027, 1161, 1092, 1127
2028, 1092, 1060, 1052
2029, 1097, 1055, 1056
2030, 1097, 1093, 1055
2031, 1094, 1054, 1048
2032, 1094, 1048, 1049
2033, 1188, 1185, 1164
2034, 1095, 1058, 1057
2035, 1096, 1089, 1059
2036, 1096, 1058, 1095
2037, 1134, 1056, 1099
2038, 1142, 1109, 1111
2039, 1098, 1052, 1016
2040, 1098, 1054, 1094
2041, 1099, 1056, 1033
2042, 1099, 1060, 1092
2043, 1157, 1008, 1027
2044, 1158, 1157, 1027
2045, 1101, 1064, 1007
2046, 1170, 1160, 1141
2047, 1102, 1091, 1062
2048, 1103, 1061, 1064
2049, 1135, 1101, 1063
2050, 1137, 1136, 1103
2051, 1104, 1072, 1074
2052, 1114, 1074, 1071
2053, 1105, 1069, 1066
2054, 1108, 1066, 1067
2055, 1106, 1067, 1020
2056, 1110, 1106, 1065
2057, 1122, 1080, 1082
2058, 1107, 1070, 1069
2059, 1141, 1067, 1106
2060, 1137, 1101, 1135
2061, 1111, 1075, 1073
2062, 1111, 1109, 1075
2063, 1110, 1065, 1077
2064, 1170, 1091, 1128
2065, 1112, 1073, 1072
2066, 1112, 1111, 1073
2067, 1163, 1134, 1129
2068, 1161, 1127, 1142
2069, 1122, 1082, 1121
2070, 1113, 1068, 1070
2071, 1146, 1115, 1113
2072, 1114, 1104, 1074
2073, 1177, 1176, 1145
2074, 1146, 1113, 1144
2075, 1116, 1086, 1011
2076, 1117, 1116, 1079
2077, 1117, 1037, 1038
2078, 1117, 1053, 1089
2079, 1118, 1081, 1022
2080, 1124, 1078, 1086
2081, 1119, 1084, 1085
2082, 1123, 1085, 1080
2083, 1235, 1189, 1224
2084, 1120, 1083, 1084
2085, 1121, 1082, 1081
2086, 1150, 1081, 1118
2087, 1147, 1115, 1146
2088, 1123, 1080, 1122
2089, 1172, 1139, 1169
2090, 1123, 1119, 1085
2091, 1159, 1149, 1126
2092, 1126, 1089, 1096
2093, 1125, 1077, 1051
2094, 1125, 1088, 1091
2095, 1131, 1096, 1095
2096, 1184, 1180, 1150
2097, 1143, 1142, 1111
2098, 1133, 1092, 1052
2099, 1170, 1110, 1091
2100, 1136, 1102, 1103
2101, 1163, 1129, 1161
2102, 1129, 1099, 1092
2103, 1130, 1095, 1093
2104, 1132, 1093, 1097
2105, 1131, 1126, 1096
2106, 1131, 1095, 1130
2107, 1166, 1097, 1134
2108, 1176, 1174, 1140
2109, 1133, 1052, 1098
2110, 1133, 1098, 1090
2111, 1134, 1097, 1056
2112, 1134, 1099, 1129
2113, 1151, 1063, 1100
2114, 1179, 1120, 1152
2115, 1136, 1128, 1102
2116, 1137, 1103, 1101
2117, 1168, 1135, 1162
2118, 1208, 1193, 1191
2119, 1234, 1230, 1220
2120, 1138, 1105, 1108
2121, 1153, 1152, 1119
2122, 1139, 1107, 1105
2123, 1140, 1112, 1104
2124, 1145, 1104, 1114
2125, 1141, 1108, 1067
2126, 1170, 1141, 1106
2127, 1142, 1127, 1109
2128, 1143, 1111, 1112
2129, 1209, 1187, 1163
2130, 1171, 1163, 1161
2131, 1155, 1122, 1154
2132, 1144, 1113, 1107
2133, 1147, 1114, 1115
2134, 1218, 1207, 1195
2135, 1175, 1144, 1172
2136, 1178, 1177, 1147
2137, 1178, 1146, 1175
2138, 1147, 1145, 1114
2139, 1215, 1148, 1199
2140, 1236, 1148, 1003
2141, 1149, 1086, 1116
2142, 1149, 1116, 1089
2143, 1150, 1121, 1081
2144, 1156, 1118, 1124
2145, 1212, 1100, 1157
2146, 1212, 1189, 1151
2147, 1152, 1120, 1119
2148, 1153, 1119, 1123
2149, 1155, 1123, 1122
2150, 1234, 1229, 1227
2151, 1154, 1122, 1121
2152, 1180, 1121, 1150
2153, 1194, 1172, 1192
2154, 1155, 1153, 1123
2155, 1159, 1156, 1124
2156, 1164, 1131, 1130
2157, 1157, 1100, 1008
2158, 1158, 1027, 1040
2159, 1215, 1205, 1040
2160, 1216, 1179, 1200
2161, 1159, 1124, 1149
2162, 1159, 1126, 1131
2163, 1167, 1136, 1137
2164, 1206, 1160, 1167
2165, 1161, 1129, 1092
2166, 1171, 1142, 1143
2167, 1206, 1191, 1193
2168, 1212, 1151, 1100
2169, 1174, 1171, 1143
2170, 1209, 1163, 1171
2171, 1165, 1130, 1132
2172, 1165, 1164, 1130
2173, 1190, 1132, 1166
2174, 1207, 1187, 1195
2175, 1166, 1132, 1097
2176, 1166, 1134, 1163
2177, 1167, 1160, 1136
2178, 1168, 1167, 1137
2179, 1168, 1137, 1135
2180, 1186, 1168, 1162
2181, 1169, 1139, 1138
2182, 1193, 1138, 1173
2183, 1170, 1106, 1110
2184, 1170, 1128, 1160
2185, 1171, 1161, 1142
2186, 1174, 1143, 1140
2187, 1182, 1181, 1153
2188, 1172, 1144, 1139
2189, 1173, 1138, 1108
2190, 1173, 1141, 1160
2191, 1176, 1140, 1145
2192, 1195, 1174, 1176
2193, 1183, 1182, 1155
2194, 1175, 1146, 1144
2195, 1177, 1145, 1147
2196, 1197, 1195, 1176
2197, 1178, 1147, 1146
2198, 1231, 1226, 1219
2199, 1196, 1175, 1194
2200, 1198, 1178, 1196
2201, 1179, 1148, 1120
2202, 1200, 1152, 1181
2203, 1180, 1154, 1121
2204, 1184, 1150, 1156
2205, 1181, 1152, 1153
2206, 1182, 1153, 1155
2207, 1183, 1155, 1154
2208, 1234, 1232, 1229
2209, 1201, 1154, 1180
2210, 1232, 1222, 1213
2211, 1185, 1184, 1156
2212, 1188, 1164, 1165
2213, 1185, 1156, 1159
2214, 1185, 1159, 1131
2215, 1229, 1228, 1208
2216, 1210, 1162, 1189
2217, 1209, 1195, 1187
2218, 1187, 1166, 1163
2219, 1204, 1184, 1188
2220, 1211, 1165, 1190
2221, 1189, 1162, 1151
2222, 1224, 1158, 1205
2223, 1190, 1165, 1132
2224, 1190, 1166, 1187
2225, 1191, 1167, 1168
2226, 1191, 1168, 1186
2227, 1192, 1172, 1169
2228, 1228, 1193, 1208
2229, 1193, 1169, 1138
2230, 1206, 1193, 1173
2231, 1203, 1202, 1182
2232, 1194, 1175, 1172
2233, 1197, 1176, 1177
2234, 1218, 1195, 1197
2235, 1198, 1197, 1177
2236, 1196, 1178, 1175
2237, 1198, 1177, 1178
2238, 1219, 1198, 1217
2239, 1217, 1196, 1214
2240, 1219, 1218, 1197
2241, 1216, 1205, 1199
2242, 1199, 1148, 1179
2243, 1200, 1179, 1152
2244, 1220, 1181, 1202
2245, 1201, 1183, 1154
2246, 1204, 1201, 1180
2247, 1202, 1181, 1182
2248, 1203, 1182, 1183
2249, 1221, 1183, 1201
2250, 1233, 1214, 1222
2251, 1204, 1180, 1184
2252, 1225, 1188, 1211
2253, 1205, 1158, 1040
2254, 1215, 1040,  964
2255, 1206, 1173, 1160
2256, 1206, 1167, 1191
2257, 1226, 1207, 1218
2258, 1207, 1190, 1187
2259, 1208, 1191, 1186
2260, 1227, 1186, 1210
2261, 1209, 1171, 1174
2262, 1209, 1174, 1195
2263, 1210, 1186, 1162
2264, 1235, 1224, 1216
2265, 1211, 1188, 1165
2266, 1211, 1190, 1207
2267, 1212, 1157, 1158
2268, 1224, 1212, 1158
2269, 1213, 1194, 1192
2270, 1229, 1192, 1228
2271, 1214, 1196, 1194
2272, 1214, 1194, 1213
2273, 1215, 1003, 1148
2274, 1215, 1199, 1205
2275, 1216, 1199, 1179
2276, 1235, 1227, 1210
2277, 1233, 1221, 1231
2278, 1217, 1198, 1196
2279, 1219, 1197, 1198
2280, 1226, 1225, 1211
2281, 1231, 1221, 1223
2282, 1223, 1221, 1201
2283, 1220, 1200, 1181
2284, 1232, 1220, 1202
2285, 1221, 1203, 1183
2286, 1223, 1201, 1204
2287, 1222, 1202, 1203
2288, 1233, 1231, 1217
2289, 1225, 1223, 1204
2290, 1231, 1223, 1226
2291, 1224, 1189, 1212
2292, 1224, 1205, 1216
2293, 1225, 1204, 1188
2294, 1226, 1211, 1207
2295, 1226, 1218, 1219
2296, 1226, 1223, 1225
2297, 1227, 1208, 1186
2298, 1235, 1230, 1227
2299, 1228, 1192, 1169
2300, 1228, 1169, 1193
2301, 1229, 1213, 1192
2302, 1229, 1208, 1227
2303, 1230, 1216, 1200
2304, 1230, 1200, 1220
2305, 1231, 1219, 1217
2306, 1233, 1217, 1214
2307, 1232, 1202, 1222
2308, 1232, 1213, 1229
2309, 1233, 1222, 1203
2310, 1233, 1203, 1221
2311, 1234, 1227, 1230
2312, 1234, 1220, 1232
2313, 1235, 1210, 1189
2314, 1235, 1216, 1230
2315, 1237, 1003,  971
2316, 1236, 1032, 1083
2317, 1237,  971, 1004
2318, 1237, 1032, 1236
*Orientation, name=Ori-1
1., 0., 0., 0., 1., 0.
3, 0.
** Region: (CompositeLayup-1-1: Generated From Layup)
*Elset, elset=CompositeLayup-1-1, generate
    1,  2318,     1
** Section: CompositeLayup-1-1
*Shell Section, elset=CompositeLayup-1-1, composite, orientation=Ori-1, layup=CompositeLayup-1, symmetric
0.25, 3, CFRP, 0., Ply-1
0.25, 3, CFRP, 45., Ply-2
0.25, 3, CFRP, 90., Ply-3
0.25, 3, CFRP, -45., Ply-4
*End Part
**  
**
** ASSEMBLY
**
*Assembly, name=Assembly
**  
*Instance, name=Plate-1, part=PLATE
*End Instance
**  
*Nset, nset=Set-1, instance=Plate-1
   6,   7,  12,  88,  89,  90,  91,  92,  93,  94,  95,  96,  97,  98,  99, 100
 171, 172, 173, 174, 175, 176, 177, 178, 179, 180, 181, 182, 183, 184
*Elset, elset=Set-1, instance=Plate-1
  554,  555,  572,  636,  637,  638,  640,  642,  644,  646,  648,  650,  676,  683, 1721, 1722
 1735, 1741, 1803, 1806, 1808, 1810, 1812, 1814, 1816, 1872, 1876, 1939, 1943
*Nset, nset=Set-2, instance=Plate-1
   4,   5,  11,  40,  41,  42,  43,  44,  45,  46,  47,  48,  49,  50,  51,  52
 147, 148, 149, 150, 151, 152, 153, 154, 155, 156, 157, 158, 159, 160
*Elset, elset=Set-2, instance=Plate-1
   18,   19,   31,   35,   91,   94,   96,   98,  100,  102,  104,  106,  168,  185, 1137, 1138
 1154, 1158, 1220, 1221, 1224, 1226, 1228, 1230, 1232, 1234, 1236, 1238, 1261
*End Assembly
** 
** MATERIALS
** 
*Material, name=CFRP
*Elastic, type=ENGINEERING CONSTANTS
150000.,9000.,9000., 0.34, 0.34,  0.4,5000.,5000.
5000.,
** ----------------------------------------------------------------
** 
** STEP: Step-1
** 
*Step, name=Step-1, nlgeom=NO
*Static
1., 1., 1e-05, 1.
** 
** BOUNDARY CONDITIONS
** 
** Name: BC-1 Type: Symmetry/Antisymmetry/Encastre
*Boundary
Set-1, ENCASTRE
** Name: DISPLACEMENT Type: Displacement/Rotation
*Boundary
Set-2, 1, 1, 1.05263
** 
** OUTPUT REQUESTS
** 
*Restart, write, frequency=0
** 
** FIELD OUTPUT: F-Output-1
** 
*Output, field
*Element Output, position=NODES, directions=YES
E, 
** 
** HISTORY OUTPUT: H-Output-1
** 
*Output, history, variable=PRESELECT
*End Step
