*Heading
 Elastic fabric composite plate with hole
** Job name: Plate_381 Model name: Model-1
** Generated by: Abaqus/CAE 2024.HF3
*Preprint, echo=NO, model=NO, history=NO, contact=NO
**
** PARTS
**
*Part, name=PLATE
*Node
      1,   73.7522736,   104.522728,           0.
      2,   73.7522736,   77.7089844,           0.
      3,   87.0055771,   64.4556808,           0.
      4,   119.598289,   64.4556808,           0.
      5,   119.598289,   104.522728,           0.
      6,           0.,   104.522728,           0.
      7,           0.,   64.4556808,           0.
      8,   60.4989738,   64.4556808,           0.
      9,   73.7522736,   51.2023811,           0.
     10,   73.7522736,           0.,           0.
     11,   119.598289,           0.,           0.
     12,           0.,           0.,           0.
     13,   73.7522736,   101.171013,           0.
     14,   73.7522736,   97.8192902,           0.
     15,   73.7522736,   94.4675751,           0.
     16,   73.7522736,     91.11586,           0.
     17,   73.7522736,   87.7641373,           0.
     18,   73.7522736,   84.4124222,           0.
     19,   73.7522736,   81.0607071,           0.
     20,   77.1824875,   77.2573929,           0.
     21,   80.3789291,   75.9333801,           0.
     22,   83.1237793,   73.8271866,           0.
     23,   85.2299728,   71.0823364,           0.
     24,   86.5539856,   67.8858871,           0.
     25,   90.6269913,   64.4556808,           0.
     26,   94.2484055,   64.4556808,           0.
     27,    97.869812,   64.4556808,           0.
     28,   101.491226,   64.4556808,           0.
     29,    105.11264,   64.4556808,           0.
     30,   108.734055,   64.4556808,           0.
     31,   112.355461,   64.4556808,           0.
     32,   115.976875,   64.4556808,           0.
     33,   119.598289,   67.7946014,           0.
     34,   119.598289,    71.133522,           0.
     35,   119.598289,   74.4724426,           0.
     36,   119.598289,   77.8113632,           0.
     37,   119.598289,   81.1502838,           0.
     38,   119.598289,   84.4892044,           0.
     39,   119.598289,    87.828125,           0.
     40,   119.598289,   91.1670456,           0.
     41,   119.598289,   94.5059662,           0.
     42,   119.598289,   97.8448868,           0.
     43,   119.598289,   101.183807,           0.
     44,   116.071671,   104.522728,           0.
     45,   112.545052,   104.522728,           0.
     46,    109.01844,   104.522728,           0.
     47,   105.491821,   104.522728,           0.
     48,   101.965202,   104.522728,           0.
     49,    98.438591,   104.522728,           0.
     50,    94.911972,   104.522728,           0.
     51,   91.3853607,   104.522728,           0.
     52,   87.8587418,   104.522728,           0.
     53,   84.3321228,   104.522728,           0.
     54,   80.8055115,   104.522728,           0.
     55,   77.2788925,   104.522728,           0.
     56,   70.2402649,   104.522728,           0.
     57,   66.7282486,   104.522728,           0.
     58,   63.2162361,   104.522728,           0.
     59,   59.7042236,   104.522728,           0.
     60,   56.1922112,   104.522728,           0.
     61,   52.6801987,   104.522728,           0.
     62,   49.1681862,   104.522728,           0.
     63,   45.6561699,   104.522728,           0.
     64,   42.1441574,   104.522728,           0.
     65,   38.6321449,   104.522728,           0.
     66,   35.1201324,   104.522728,           0.
     67,   31.6081181,   104.522728,           0.
     68,   28.0961056,   104.522728,           0.
     69,   24.5840931,   104.522728,           0.
     70,   21.0720787,   104.522728,           0.
     71,   17.5600662,   104.522728,           0.
     72,   14.0480528,   104.522728,           0.
     73,   10.5360394,   104.522728,           0.
     74,   7.02402639,   104.522728,           0.
     75,    3.5120132,   104.522728,           0.
     76,           0.,   101.183807,           0.
     77,           0.,   97.8448868,           0.
     78,           0.,   94.5059662,           0.
     79,           0.,   91.1670456,           0.
     80,           0.,    87.828125,           0.
     81,           0.,   84.4892044,           0.
     82,           0.,   81.1502838,           0.
     83,           0.,   77.8113632,           0.
     84,           0.,   74.4724426,           0.
     85,           0.,    71.133522,           0.
     86,           0.,   67.7946014,           0.
     87,   3.36105418,   64.4556808,           0.
     88,   6.72210836,   64.4556808,           0.
     89,   10.0831623,   64.4556808,           0.
     90,   13.4442167,   64.4556808,           0.
     91,   16.8052711,   64.4556808,           0.
     92,   20.1663246,   64.4556808,           0.
     93,   23.5273781,   64.4556808,           0.
     94,   26.8884335,   64.4556808,           0.
     95,   30.2494869,   64.4556808,           0.
     96,   33.6105423,   64.4556808,           0.
     97,   36.9715958,   64.4556808,           0.
     98,   40.3326492,   64.4556808,           0.
     99,   43.6937027,   64.4556808,           0.
    100,   47.0547562,   64.4556808,           0.
    101,   50.4158096,   64.4556808,           0.
    102,   53.7768669,   64.4556808,           0.
    103,   57.1379204,   64.4556808,           0.
    104,   60.9505692,   67.8858871,           0.
    105,   62.2745781,   71.0823364,           0.
    106,   64.3807755,   73.8271866,           0.
    107,   67.1256256,   75.9333801,           0.
    108,   70.3220673,   77.2573929,           0.
    109,   73.7522736,    47.788887,           0.
    110,   73.7522736,   44.3753967,           0.
    111,   73.7522736,   40.9619026,           0.
    112,   73.7522736,   37.5484123,           0.
    113,   73.7522736,   34.1349182,           0.
    114,   73.7522736,   30.7214279,           0.
    115,   73.7522736,   27.3079357,           0.
    116,   73.7522736,   23.8944435,           0.
    117,   73.7522736,   20.4809513,           0.
    118,   73.7522736,   17.0674591,           0.
    119,   73.7522736,   13.6539679,           0.
    120,   73.7522736,   10.2404757,           0.
    121,   73.7522736,   6.82698393,           0.
    122,   73.7522736,   3.41349196,           0.
    123,   77.2788925,           0.,           0.
    124,   80.8055115,           0.,           0.
    125,   84.3321228,           0.,           0.
    126,   87.8587418,           0.,           0.
    127,   91.3853607,           0.,           0.
    128,    94.911972,           0.,           0.
    129,    98.438591,           0.,           0.
    130,   101.965202,           0.,           0.
    131,   105.491821,           0.,           0.
    132,    109.01844,           0.,           0.
    133,   112.545052,           0.,           0.
    134,   116.071671,           0.,           0.
    135,   119.598289,   3.39240432,           0.
    136,   119.598289,   6.78480864,           0.
    137,   119.598289,   10.1772127,           0.
    138,   119.598289,   13.5696173,           0.
    139,   119.598289,   16.9620209,           0.
    140,   119.598289,   20.3544254,           0.
    141,   119.598289,     23.74683,           0.
    142,   119.598289,   27.1392345,           0.
    143,   119.598289,   30.5316391,           0.
    144,   119.598289,   33.9240417,           0.
    145,   119.598289,   37.3164482,           0.
    146,   119.598289,   40.7088509,           0.
    147,   119.598289,   44.1012573,           0.
    148,   119.598289,     47.49366,           0.
    149,   119.598289,   50.8860664,           0.
    150,   119.598289,   54.2784691,           0.
    151,   119.598289,   57.6708755,           0.
    152,   119.598289,   61.0632782,           0.
    153,   86.5539856,   61.0254745,           0.
    154,   85.2299728,   57.8290329,           0.
    155,   83.1237793,   55.0841827,           0.
    156,   80.3789291,   52.9779854,           0.
    157,   77.1824875,   51.6539764,           0.
    158,   70.3220673,   51.6539764,           0.
    159,   67.1256256,   52.9779854,           0.
    160,   64.3807755,   55.0841827,           0.
    161,   62.2745781,   57.8290329,           0.
    162,   60.9505692,   61.0254745,           0.
    163,           0.,   61.0632782,           0.
    164,           0.,   57.6708755,           0.
    165,           0.,   54.2784691,           0.
    166,           0.,   50.8860664,           0.
    167,           0.,     47.49366,           0.
    168,           0.,   44.1012573,           0.
    169,           0.,   40.7088509,           0.
    170,           0.,   37.3164482,           0.
    171,           0.,   33.9240417,           0.
    172,           0.,   30.5316391,           0.
    173,           0.,   27.1392345,           0.
    174,           0.,     23.74683,           0.
    175,           0.,   20.3544254,           0.
    176,           0.,   16.9620209,           0.
    177,           0.,   13.5696173,           0.
    178,           0.,   10.1772127,           0.
    179,           0.,   6.78480864,           0.
    180,           0.,   3.39240432,           0.
    181,    3.5120132,           0.,           0.
    182,   7.02402639,           0.,           0.
    183,   10.5360394,           0.,           0.
    184,   14.0480528,           0.,           0.
    185,   17.5600662,           0.,           0.
    186,   21.0720787,           0.,           0.
    187,   24.5840931,           0.,           0.
    188,   28.0961056,           0.,           0.
    189,   31.6081181,           0.,           0.
    190,   35.1201324,           0.,           0.
    191,   38.6321449,           0.,           0.
    192,   42.1441574,           0.,           0.
    193,   45.6561699,           0.,           0.
    194,   49.1681862,           0.,           0.
    195,   52.6801987,           0.,           0.
    196,   56.1922112,           0.,           0.
    197,   59.7042236,           0.,           0.
    198,   63.2162361,           0.,           0.
    199,   66.7282486,           0.,           0.
    200,   70.2402649,           0.,           0.
    201,    86.429451,   74.3263092,           0.
    202,   89.0272064,   66.9155273,           0.
    203,    76.899231,   99.9860001,           0.
    204,   76.6934433,   89.4049377,           0.
    205,   83.2667313,   76.9480133,           0.
    206,   76.7422333,   85.9688721,           0.
    207,   76.7284164,   82.4915619,           0.
    208,   76.2859955,    79.669426,           0.
    209,    88.956665,   70.3802719,           0.
    210,   80.0388947,   79.8553467,           0.
    211,   103.323486,   67.5874405,           0.
    212,   99.6262207,   67.5917282,           0.
    213,   95.7936859,    67.636528,           0.
    214,   91.9890671,   67.4887848,           0.
    215,   116.465286,   99.9557266,           0.
    216,   116.522507,   96.3225098,           0.
    217,   116.648293,   92.8622513,           0.
    218,   116.680298,   89.5014267,           0.
    219,   116.689613,    86.159256,           0.
    220,   116.689751,   82.8207932,           0.
    221,   116.684143,    79.482666,           0.
    222,   116.641541,   76.1389008,           0.
    223,   116.493263,   72.6908722,           0.
    224,   116.411621,   69.0391159,           0.
    225,   82.5386963,   101.514427,           0.
    226,   86.0694427,   101.489189,           0.
    227,   89.6171188,   101.479042,           0.
    228,   93.1477432,    101.47596,           0.
    229,    96.675621,   101.476532,           0.
    230,   100.202774,   101.479614,           0.
    231,   103.734756,   101.484032,           0.
    232,   107.305641,   101.465538,           0.
    233,   110.828697,   101.489334,           0.
    234,   113.771187,   84.4912338,           0.
    235,   113.598976,   94.5784149,           0.
    236,    113.70565,    77.822403,           0.
    237,   113.709526,   91.2083893,           0.
    238,   113.756927,   87.8336334,           0.
    239,   113.752167,   81.1581116,           0.
    240,    113.54435,   74.4704971,           0.
    241,   76.7146988,   92.7919922,           0.
    242,   79.8240814,   84.1260071,           0.
    243,   79.6883926,   87.6696548,           0.
    244,   101.977333,   98.4509888,           0.
    245,   109.206444,   98.4259949,           0.
    246,    87.762764,   98.3495407,           0.
    247,   94.9130936,   98.4355774,           0.
    248,   79.5610123,   101.763603,           0.
    249,   98.4440613,   98.4435196,           0.
    250,     84.12677,   98.3565903,           0.
    251,   91.3674774,   98.4227448,           0.
    252,    105.60022,    98.380394,           0.
    253,   107.014626,   67.5917664,           0.
    254,    97.629425,   70.7833557,           0.
    255,   110.647118,   67.5518875,           0.
    256,   113.678558,   67.2569809,           0.
    257,    101.46521,   70.7015762,           0.
    258,   93.3394012,   71.2465363,           0.
    259,   112.929893,   70.7022171,           0.
    260,    113.04435,   98.3313141,           0.
    261,   80.2958984,   98.2863007,           0.
    262,   110.695656,   73.2173157,           0.
    263,   110.839149,   86.1542892,           0.
    264,   110.826172,   82.8317413,           0.
    265,   110.816711,   89.5258942,           0.
    266,   110.763344,   92.8935089,           0.
    267,   110.761368,   79.4965668,           0.
    268,    110.63549,    76.165123,           0.
    269,   76.8525696,   96.2897797,           0.
    270,   79.6438522,   91.0697174,           0.
    271,   93.1466293,   95.4019852,           0.
    272,   89.6101608,    95.337265,           0.
    273,   96.6901474,   95.4104614,           0.
    274,   103.827591,    95.389122,           0.
    275,   85.7741928,    94.898262,           0.
    276,   107.649849,   94.9690018,           0.
    277,   100.274994,    95.413063,           0.
    278,   113.791008,   101.764366,           0.
    279,   105.245399,   70.7389145,           0.
    280,   99.6885834,   73.8997803,           0.
    281,   108.982681,     70.65625,           0.
    282,   107.375587,     74.12677,           0.
    283,   107.828247,   87.8124008,           0.
    284,   107.827744,   81.1493073,           0.
    285,   107.880692,   84.4653854,           0.
    286,   107.732986,   77.8040314,           0.
    287,   107.803276,   91.2291183,           0.
    288,   79.7465744,   94.4817657,           0.
    289,     82.65802,   89.4169693,           0.
    290,   110.852592,   95.8396454,           0.
    291,   82.4978638,   95.7584763,           0.
    292,   102.134972,    92.480957,           0.
    293,   105.169769,   92.7149277,           0.
    294,    91.355217,   92.4223251,           0.
    295,   98.5340576,   92.4328461,           0.
    296,   88.2839584,   92.6424484,           0.
    297,   94.9194031,   92.4047623,           0.
    298,   103.420219,   73.8787003,           0.
    299,   82.6566925,    92.795372,           0.
    300,   104.852264,   86.0395508,           0.
    301,   104.897964,   82.7698593,           0.
    302,   104.878654,   79.4436569,           0.
    303,   104.330383,   89.5695724,           0.
    304,    82.764122,    86.020256,           0.
    305,   100.447388,   89.5414276,           0.
    306,    89.026535,   89.3844986,           0.
    307,   93.0248718,   89.3532562,           0.
    308,   96.7933807,   89.3699188,           0.
    309,    101.78553,   77.3337708,           0.
    310,   105.038597,   76.5173874,           0.
    311,   85.6783295,   91.1539078,           0.
    312,   102.093872,    87.154007,           0.
    313,    101.99453,   84.2938843,           0.
    314,   85.6538696,   87.7559738,           0.
    315,   83.0222778,     82.57621,           0.
    316,   97.9230804,   77.0561371,           0.
    317,   98.8501663,    86.125412,           0.
    318,   91.3050919,   86.1929169,           0.
    319,   94.9629364,   86.3086777,           0.
    320,   102.031395,   80.9922409,           0.
    321,    85.840416,   84.4428329,           0.
    322,     99.42453,   79.6380005,           0.
    323,   95.9846573,   74.1257629,           0.
    324,   88.2606201,   86.1384583,           0.
    325,   96.5019836,   83.6644745,           0.
    326,   93.4492111,   83.2204971,           0.
    327,   99.1680527,   82.5063477,           0.
    328,   89.4466629,   82.9252472,           0.
    329,   86.1499405,   81.1687164,           0.
    330,   96.1640549,   80.4544983,           0.
    331,   94.3806381,   77.1413956,           0.
    332,   92.9879913,   74.6190262,           0.
    333,    88.887764,   79.1684418,           0.
    334,   91.1759872,   76.8311539,           0.
    335,   92.2507172,    79.956871,           0.
    336,   88.5300217,   76.4460907,           0.
    337,   86.1524353,   77.9669189,           0.
    338,   90.2365875,   73.9748993,           0.
    339,   83.7260513,   79.7030411,           0.
    340,   64.0714111,   77.2061768,           0.
    341,    15.124423,   67.3705368,           0.
    342,   70.6416702,   99.9514008,           0.
    343,    70.690506,   96.3040771,           0.
    344,   70.8034592,   92.8243942,           0.
    345,   70.8341446,    89.445488,           0.
    346,   70.8415985,   85.9637604,           0.
    347,   67.9307175,   79.7368164,           0.
    348,    15.782774,   101.472672,           0.
    349,   19.3133373,   101.487122,           0.
    350,   11.7809505,   67.3611298,           0.
    351,   18.4856339,    67.371994,           0.
    352,   29.8520737,   101.487907,           0.
    353,   28.5689583,    67.372612,           0.
    354,     35.29105,   67.3728333,           0.
    355,    47.412075,   101.485817,           0.
    356,   50.9243431,   101.486473,           0.
    357,   54.4369164,   101.488495,           0.
    358,   57.9493484,   101.491707,           0.
    359,   61.5154991,   101.477173,           0.
    360,   65.0295334,   101.498734,           0.
    361,   3.08061099,   68.9417191,           0.
    362,   8.44824219,   67.3737869,           0.
    363,   2.90072012,   82.8173904,           0.
    364,   2.90276003,   86.1566086,           0.
    365,   2.90556931,   89.4964752,           0.
    366,   2.94104958,   92.8458633,           0.
    367,   3.06687284,   96.3050995,           0.
    368,   3.12500429,   99.9591446,           0.
    369,   22.8276386,    101.48893,           0.
    370,   26.3399544,   101.489082,           0.
    371,   21.8468227,   67.3728943,           0.
    372,   25.2078972,   67.3735504,           0.
    373,     33.36409,   101.487923,           0.
    374,   36.8760605,   101.487816,           0.
    375,   31.9300079,   67.3732986,           0.
    376,   40.3880081,   101.487434,           0.
    377,   43.8999748,   101.487244,           0.
    378,   38.6520538,   67.3733139,           0.
    379,   42.0129204,   67.3741531,           0.
    380,    45.373661,   67.3763885,           0.
    381,   48.7363091,   67.3789215,           0.
    382,   58.6126709,    70.289978,           0.
    383,   52.2151756,    67.463562,           0.
    384,   55.7692451,   67.4028397,           0.
    385,   58.5938759,   66.8980179,           0.
    386,   71.3431854,   79.6669922,           0.
    387,   61.1250496,   74.0869293,           0.
    388,   70.9089737,   82.4480667,           0.
    389,   2.91415191,   79.4784393,           0.
    390,   5.81524229,   84.4845047,           0.
    391,   5.85964108,    91.175827,           0.
    392,    2.9604702,   76.0974731,           0.
    393,   3.05544066,   72.6039505,           0.
    394,   5.98450375,   94.5554886,           0.
    395,   5.82678127,   87.8239899,           0.
    396,   67.8754349,    91.147789,           0.
    397,   67.7576447,   94.5629272,           0.
    398,   67.8532867,   87.5945053,           0.
    399,   13.4106731,   70.2880249,           0.
    400,   20.1657238,   70.2941208,           0.
    401,    30.249464,   70.2954636,           0.
    402,   33.6104851,   70.2963943,           0.
    403,   40.3316383,   70.2979736,           0.
    404,   16.7983799,   70.2918015,           0.
    405,   43.6913071,   70.3026199,           0.
    406,    10.035778,   70.2870483,           0.
    407,   26.8884087,   70.2963638,           0.
    408,   23.5271397,   70.2967148,           0.
    409,   36.9712257,   70.2977982,           0.
    410,   47.0547638,   70.3081894,           0.
    411,    50.523632,   70.4492569,           0.
    412,   12.2222252,   101.454323,           0.
    413,   24.5835476,   98.4614105,           0.
    414,   31.6078949,   98.4590607,           0.
    415,   17.5463066,   98.4447861,           0.
    416,   5.75266361,   101.720993,           0.
    417,   8.73181629,   101.487274,           0.
    418,   49.1685905,   98.4553375,           0.
    419,   59.8178711,      98.3834,           0.
    420,   28.0957146,   98.4613342,           0.
    421,   35.1197853,   98.4590302,           0.
    422,   38.6315498,   98.4583817,           0.
    423,   56.2238846,   98.4378738,           0.
    424,    52.687191,   98.4551086,           0.
    425,   21.0698509,   98.4606094,           0.
    426,   42.1433983,     98.45755,           0.
    427,   45.6557121,   98.4570465,           0.
    428,   63.4142151,   98.4184113,           0.
    429,   6.53474283,   98.3302612,           0.
    430,   67.6907959,   83.8492966,           0.
    431,   8.74516582,    95.849556,           0.
    432,   5.94762707,   77.8065643,           0.
    433,   8.77965355,   89.5167313,           0.
    434,   8.75809956,   86.1507645,           0.
    435,   8.84654236,   92.8850861,           0.
    436,   5.84972477,   81.1656723,           0.
    437,    64.907135,   89.3708267,           0.
    438,   64.9160538,   92.8451462,           0.
    439,    31.929884,   73.2264481,           0.
    440,   28.5687904,   73.2272263,           0.
    441,   18.4752502,   73.2169418,           0.
    442,   25.2073765,   73.2271194,           0.
    443,   21.8439331,   73.2247391,           0.
    444,   35.2904472,   73.2283554,           0.
    445,   38.6498642,   73.2307281,           0.
    446,   42.0078926,   73.2354202,           0.
    447,   15.0325699,   73.1991653,           0.
    448,   11.6094484,   73.1410522,           0.
    449,   45.3706169,   73.2430267,           0.
    450,   48.7466049,   73.3047104,           0.
    451,   6.39873075,   70.5260086,           0.
    452,   54.4834213,   71.0528946,           0.
    453,   67.2282867,   98.3272629,           0.
    454,    13.953989,   98.3685684,           0.
    455,   33.3632812,   95.4379578,           0.
    456,   50.9285698,   95.4340286,           0.
    457,   29.8511753,   95.4404068,           0.
    458,   36.8747864,   95.4374695,           0.
    459,   26.3385086,   95.4425049,           0.
    460,   22.8287468,   95.4444962,           0.
    461,   47.4125481,   95.4335556,           0.
    462,   40.3862991,   95.4362183,           0.
    463,   43.8986626,   95.4354706,           0.
    464,   19.3183746,   95.4444427,           0.
    465,    54.490921,   95.4223785,           0.
    466,   61.8294029,   94.9460907,           0.
    467,   58.0416908,   95.3721008,           0.
    468,   10.3619213,   98.4124603,           0.
    469,    6.0543642,   74.3436584,           0.
    470,   57.4476128,   74.2534256,           0.
    471,   63.7173958,   81.6690826,           0.
    472,   59.8730354,   78.2605362,           0.
    473,   11.9929686,   94.9806137,           0.
    474,   9.40980244,   76.0323944,           0.
    475,   67.9736023,   101.764572,           0.
    476,   8.88680649,   79.5632553,           0.
    477,   11.8688507,   91.2335815,           0.
    478,   11.9074059,   87.8047943,           0.
    479,   61.9491043,   91.1451035,           0.
    480,   43.6856461,   76.1826553,           0.
    481,    40.325428,   76.1757584,           0.
    482,   47.0724106,   76.2423553,           0.
    483,    33.609436,   76.1674423,           0.
    484,   20.1661701,   76.1418533,           0.
    485,   36.9680023,   76.1719971,           0.
    486,    23.525259,   76.1608124,           0.
    487,   30.2487965,   76.1674118,           0.
    488,   26.8873501,   76.1667328,           0.
    489,    13.211484,   76.0305252,           0.
    490,   16.7143574,   76.1497498,           0.
    491,   8.70162487,   72.8660355,           0.
    492,   8.79763794,   82.8304977,           0.
    493,    52.002449,   73.5819702,           0.
    494,   65.0291214,   95.8199692,           0.
    495,    64.658905,   85.7908478,           0.
    496,   15.8141718,   95.4064331,           0.
    497,   35.1178436,   92.4253387,           0.
    498,   38.6288376,   92.4239655,           0.
    499,   59.3616066,   92.6636658,           0.
    500,   24.5954151,    92.393219,           0.
    501,   42.1406136,   92.4216995,           0.
    502,   31.6061192,   92.4285126,           0.
    503,   28.0956936,   92.4256134,           0.
    504,   45.6547623,   92.4198456,           0.
    505,   49.1724091,   92.4207458,           0.
    506,   21.1165638,    92.363121,           0.
    507,   52.7609482,   92.4358749,           0.
    508,   56.3132706,   92.4748306,           0.
    509,   5.60214901,   67.1505737,           0.
    510,   58.5589333,    89.426239,           0.
    511,   11.6247616,   78.4171143,           0.
    512,   11.7510786,   81.2339478,           0.
    513,   15.4216375,   89.4790497,           0.
    514,   42.0204773,   79.2939987,           0.
    515,   45.4378395,    79.398201,           0.
    516,   38.6489716,    79.331749,           0.
    517,   35.2691803,   79.3385162,           0.
    518,   31.8860188,    79.339241,           0.
    519,   25.1365547,     79.25811,           0.
    520,   28.4892025,   79.3640137,           0.
    521,    21.787384,   79.1481705,           0.
    522,   18.4488277,   79.0178604,           0.
    523,    14.792531,   79.3061523,           0.
    524,   11.7959671,   84.4750061,           0.
    525,   54.5537453,    74.527504,           0.
    526,   50.3502312,   76.2669144,           0.
    527,   61.8493614,   87.6811295,           0.
    528,   17.6096382,   92.4397583,           0.
    529,   36.8795166,   89.3233871,           0.
    530,   40.3809624,   89.3024597,           0.
    531,   33.3811874,   89.3022537,           0.
    532,   43.8774567,   89.2715073,           0.
    533,   29.8829861,   89.2990646,           0.
    534,   26.4159107,   89.1992874,           0.
    535,   22.8968945,   89.1087189,           0.
    536,    47.385128,    89.272583,           0.
    537,   51.0616722,   89.2516556,           0.
    538,   54.7473831,   89.3587418,           0.
    539,   14.5414534,   92.7078857,           0.
    540,    55.556427,   77.7473831,           0.
    541,   59.1884613,   85.7793198,           0.
    542,   14.6887217,   82.7637863,           0.
    543,   43.7914276,   82.6908035,           0.
    544,   40.3570328,   82.6961823,           0.
    545,    36.930542,   82.7083969,           0.
    546,   33.5033913,    82.704361,           0.
    547,   30.0726871,   82.7075806,           0.
    548,   26.6738338,    82.600296,           0.
    549,   23.2311306,   82.4008713,           0.
    550,   19.8811321,    81.973053,           0.
    551,   14.8710041,   85.9281158,           0.
    552,   48.8952408,    79.333786,           0.
    553,   19.2812538,   89.3303223,           0.
    554,   38.6355362,   86.0379333,           0.
    555,   35.1682892,    86.030159,           0.
    556,   42.1014252,   85.9982071,           0.
    557,   31.7016735,   86.0250015,           0.
    558,   28.2613087,   85.9358521,           0.
    559,   45.5868187,   86.0195618,           0.
    560,   24.7376804,   85.8217621,           0.
    561,   49.2472687,   85.8998795,           0.
    562,   53.3468246,   85.5585709,           0.
    563,   61.8380127,   84.6633682,           0.
    564,   56.4982948,    86.770546,           0.
    565,   20.7771988,   85.6686859,           0.
    566,    17.511631,   84.1141586,           0.
    567,   52.1862755,   78.8865051,           0.
    568,   47.3061676,   82.6150284,           0.
    569,   50.8909492,   82.2995071,           0.
    570,   17.0645695,   81.4350052,           0.
    571,   57.2438393,   80.7275009,           0.
    572,   56.7362137,   83.7892838,           0.
    573,   52.9298248,   76.2020569,           0.
    574,   59.7661591,    82.481514,           0.
    575,   17.5725441,    86.904068,           0.
    576,   54.3267555,   81.5014572,           0.
    577,   76.7099075,   32.4277992,           0.
    578,   116.656792,   28.8358746,           0.
    579,   86.9164505,   54.5401154,           0.
    580,   76.9306412,   4.62387848,           0.
    581,   76.8957596,   8.34565926,           0.
    582,   76.7832489,   11.8908691,           0.
    583,   76.7398224,   15.3411131,           0.
    584,   76.7218781,   18.7706375,           0.
    585,   76.7148285,   22.1878357,           0.
    586,   76.7112503,   25.6018276,           0.
    587,   76.7099609,   29.0148849,           0.
    588,   76.7116013,   35.8406792,           0.
    589,   76.7184448,   39.2324295,           0.
    590,     76.73246,   42.5788994,           0.
    591,   76.7472458,   45.8450851,           0.
    592,   96.6739807,   3.04240394,           0.
    593,   93.1442184,   3.04306483,           0.
    594,   89.5995483,   3.06505966,           0.
    595,   86.0498581,   3.08567023,           0.
    596,   82.5499802,   3.06689477,           0.
    597,   116.379311,   59.8563347,           0.
    598,   116.588905,   52.6278801,           0.
    599,   116.636269,   49.2037201,           0.
    600,   116.651054,   45.8009644,           0.
    601,   116.655235,   42.4057732,           0.
    602,   116.656738,   39.0126495,           0.
    603,   116.657372,   35.6201248,           0.
    604,   83.5640793,   51.3558121,           0.
    605,   116.657227,    32.227951,           0.
    606,   116.655228,   25.4438515,           0.
    607,   116.652512,   22.0516796,           0.
    608,   116.647652,   18.6585178,           0.
    609,   116.632912,   15.2604713,           0.
    610,   116.585945,   11.8346672,           0.
    611,   116.462959,   8.30067825,           0.
    612,   116.420914,   4.59300709,           0.
    613,   103.307739,   61.3350334,           0.
    614,   99.5882034,   61.3113899,           0.
    615,   95.7810211,    61.249073,           0.
    616,   92.0172424,   61.4195938,           0.
    617,   89.0540771,     61.99786,           0.
    618,   79.9704361,   50.1006355,           0.
    619,   89.0564041,   58.5789757,           0.
    620,   116.435883,   56.1617355,           0.
    621,   113.714561,   37.3159752,           0.
    622,   113.706795,   23.7501545,           0.
    623,   113.634628,   13.5329237,           0.
    624,   113.676773,   16.9518108,           0.
    625,   113.715004,   33.9240494,           0.
    626,   113.635315,   50.9263153,           0.
    627,   113.687218,   47.5086517,           0.
    628,     113.7062,   44.1041679,           0.
    629,   113.711769,   40.7088127,           0.
    630,    113.71418,   30.5326328,           0.
    631,   113.711044,   27.1416531,           0.
    632,   113.695946,   20.3558369,           0.
    633,   113.518814,   10.0845137,           0.
    634,   79.6697006,   34.1325226,           0.
    635,   79.6783218,   37.5298004,           0.
    636,   79.6740341,   23.8972721,           0.
    637,   79.6692429,   27.3096313,           0.
    638,    79.690567,   40.8814316,           0.
    639,    79.669487,   44.1359177,           0.
    640,   79.6983414,   17.0459709,           0.
    641,   79.8393936,   10.1377611,           0.
    642,   79.7353973,   13.5962315,           0.
    643,   79.6832199,   20.4778004,           0.
    644,   79.6681213,   30.7210598,           0.
    645,   76.8461609,   48.9662323,           0.
    646,   100.206497,   3.04892325,           0.
    647,   94.9001312,   6.08039618,           0.
    648,   87.7623138,   6.21609211,           0.
    649,   84.1790924,   6.19842482,           0.
    650,   110.803001,   3.05217814,           0.
    651,   107.298302,    3.0774138,           0.
    652,   103.750359,   3.07047892,           0.
    653,   113.769196,   2.78251958,           0.
    654,   91.3514099,   6.11666679,           0.
    655,   97.6294098,   58.0303078,           0.
    656,   107.002274,   61.3430862,           0.
    657,   110.616333,   61.3870735,           0.
    658,   93.3181381,   57.5978279,           0.
    659,   101.476692,   58.1428032,           0.
    660,   112.986694,   6.25052977,           0.
    661,   80.3633575,   6.28848171,           0.
    662,   110.768211,    8.7872324,           0.
    663,   110.713715,   49.2177582,           0.
    664,   110.751678,   45.8051186,           0.
    665,   110.763893,   42.4047165,           0.
    666,    110.76796,   39.0111885,           0.
    667,   110.770454,   32.2290573,           0.
    668,   110.769783,   35.6197166,           0.
    669,   110.766968,   28.8393745,           0.
    670,   110.741158,   22.0549812,           0.
    671,   110.756462,   25.4486637,           0.
    672,   110.702446,   18.6437511,           0.
    673,   110.627708,   11.7830229,           0.
    674,   110.651375,   15.2066689,           0.
    675,   113.486084,   54.3594055,           0.
    676,   82.6321564,   25.6074219,           0.
    677,   82.6272964,   29.0164967,           0.
    678,   82.6276245,   32.4249382,           0.
    679,   82.6407852,   22.1922703,           0.
    680,   82.6343155,   35.8289719,           0.
    681,   82.6461029,   39.2071152,           0.
    682,   82.7117767,   11.8420725,           0.
    683,   82.6985397,   15.2900982,           0.
    684,   82.5963516,   42.5450783,           0.
    685,   82.6745071,   18.7486992,           0.
    686,   98.4345016,   6.08397102,           0.
    687,   105.568008,   6.20523643,           0.
    688,   109.156815,   6.16806746,           0.
    689,   93.1159668,   9.12842083,           0.
    690,   89.6074142,   9.19445896,           0.
    691,   85.8284149,   9.67129421,           0.
    692,    101.97538,    6.1154108,           0.
    693,    105.26815,   58.1281319,           0.
    694,   79.5856781,   2.79585099,           0.
    695,   113.651154,   61.6655235,           0.
    696,   99.7212982,   54.8359413,           0.
    697,   108.985596,   58.2265739,           0.
    698,   112.892899,   58.1832466,           0.
    699,   107.490791,   9.63099861,           0.
    700,   107.597641,   16.9117756,           0.
    701,   107.821609,   30.5366192,           0.
    702,   107.723351,   20.3657341,           0.
    703,    107.81012,   27.1490021,           0.
    704,   107.802277,   47.5232353,           0.
    705,   107.823288,   33.9247398,           0.
    706,    107.81823,   44.1098976,           0.
    707,   107.587128,    13.420126,           0.
    708,   107.822227,   37.3140144,           0.
    709,   107.821121,   40.7071457,           0.
    710,    107.78109,   23.7612591,           0.
    711,   110.614349,   52.6270065,           0.
    712,    85.585762,   30.7201653,           0.
    713,   85.5970459,   34.1304893,           0.
    714,   85.5978622,   23.9068756,           0.
    715,   85.6434097,   20.4815369,           0.
    716,   85.6320496,   37.5506973,           0.
    717,   85.6082535,   41.0099564,           0.
    718,   85.5898285,   27.3155346,           0.
    719,   85.7331772,   13.4825115,           0.
    720,   85.7606964,   17.0023441,           0.
    721,   82.4104767,   45.7587814,           0.
    722,    82.584404,   8.82760715,           0.
    723,   96.6563339,   9.12453651,           0.
    724,   88.3310852,   11.9271851,           0.
    725,   91.3366241,   12.1179838,           0.
    726,   103.694504,   9.17387009,           0.
    727,   100.191193,   9.12722874,           0.
    728,   95.9879684,    54.477726,           0.
    729,    103.45195,   54.9226074,           0.
    730,    107.40284,   54.6751366,           0.
    731,   104.132179,   15.1302137,           0.
    732,   104.653465,   18.7832565,           0.
    733,   104.793152,   28.7775402,           0.
    734,   104.792336,    32.154789,           0.
    735,   104.770103,    22.103651,           0.
    736,    104.77182,   25.4048195,           0.
    737,   104.790474,   35.5383911,           0.
    738,   104.870522,   42.4053802,           0.
    739,   104.900238,    45.848423,           0.
    740,   104.811707,   38.9514275,           0.
    741,   110.676353,   55.6142769,           0.
    742,   88.6495361,   22.2221889,           0.
    743,   88.6235275,   32.4939384,           0.
    744,   88.7065659,   35.9680748,           0.
    745,   88.6307983,    25.647831,           0.
    746,   107.744751,   50.9290657,           0.
    747,   88.6320572,   29.0892887,           0.
    748,   88.7493134,   39.5351562,           0.
    749,   88.7155609,   18.8355408,           0.
    750,   89.1724854,   15.1546097,           0.
    751,   85.3928528,   44.4961472,           0.
    752,   94.8403473,   12.1595516,           0.
    753,   104.971558,   11.8900452,           0.
    754,   101.944153,   12.1127357,           0.
    755,   98.4042969,   12.1690283,           0.
    756,   101.823097,   51.3825035,           0.
    757,    98.109169,   51.5116806,           0.
    758,   105.061203,    52.235054,           0.
    759,   92.5240707,   53.5189209,           0.
    760,   87.4026337,    50.510231,           0.
    761,   101.795395,   20.5067501,           0.
    762,   101.863197,   17.6720963,           0.
    763,   101.787819,   23.6286659,           0.
    764,   101.593246,   30.2256985,           0.
    765,   101.629097,   26.8428211,           0.
    766,   101.598976,   33.6131935,           0.
    767,   101.919228,   44.1431389,           0.
    768,   101.662979,   37.0681572,           0.
    769,   101.761177,   40.5914268,           0.
    770,   91.8912277,   23.9854183,           0.
    771,   91.8646927,   34.4650459,           0.
    772,   91.8271179,   27.5257034,           0.
    773,   91.8322449,   31.0107594,           0.
    774,   104.896851,   49.2576866,           0.
    775,   91.9639282,   38.0807953,           0.
    776,    91.779747,   20.4882736,           0.
    777,    88.580719,   43.1949539,           0.
    778,   84.8544922,   47.8971901,           0.
    779,    91.412384,   17.5629082,           0.
    780,   99.5830994,   48.9681892,           0.
    781,   94.7646027,   50.8827477,           0.
    782,   96.5622864,   15.2674932,           0.
    783,   90.2928848,    55.411541,           0.
    784,   89.6606293,   52.7350197,           0.
    785,   102.037643,   47.6004753,           0.
    786,     98.52742,   18.7027588,           0.
    787,   99.2479172,   21.9434948,           0.
    788,   98.3194656,   31.5956707,           0.
    789,   98.3651123,   28.1698303,           0.
    790,   98.6205368,   24.7746181,           0.
    791,   95.2190247,   26.0050488,           0.
    792,   98.3906479,   35.0651894,           0.
    793,   98.6670227,   42.3706589,           0.
    794,   98.4953308,   38.6477852,           0.
    795,   95.6759491,   22.0179348,           0.
    796,   95.1005249,   33.0283852,           0.
    797,   95.1105804,   29.5559006,           0.
    798,   95.1874771,   36.5942535,           0.
    799,   91.9206619,   41.8758392,           0.
    800,   88.1601715,   46.8969498,           0.
    801,   96.8143692,   48.2867165,           0.
    802,    92.961647,   15.0814142,           0.
    803,   100.238922,   15.1757212,           0.
    804,   94.4865723,   18.1867981,           0.
    805,   91.1491852,    49.701519,           0.
    806,   99.0630722,   45.9910164,           0.
    807,   93.9296875,   47.8073616,           0.
    808,   95.2652512,    40.357708,           0.
    809,   91.5162506,   45.6755905,           0.
    810,   95.3109055,   44.6235542,           0.
    811,   82.0943451,    48.463768,           0.
    812,    79.623024,   47.2117386,           0.
    813,   61.2966843,   54.7397308,           0.
    814,   70.5650711,   4.56008005,           0.
    815,   58.5380478,   61.8997879,           0.
    816,   70.7926788,   25.6006794,           0.
    817,   70.7930069,   29.0142574,           0.
    818,   70.7926865,   32.4279022,           0.
    819,   70.7918091,   35.8413429,           0.
    820,   70.7671432,   39.2867889,           0.
    821,    63.957058,   52.0382614,           0.
    822,   70.7218704,   42.7938499,           0.
    823,   70.7119141,   46.3412666,           0.
    824,   71.1578827,   49.2150612,           0.
    825,   58.3565292,   58.0704918,           0.
    826,    67.297554,   49.0309486,           0.
    827,   38.6502151,   61.5399323,           0.
    828,   42.0116692,   61.5376472,           0.
    829,   45.3733063,   61.5348206,           0.
    830,   48.7752266,   61.5045547,           0.
    831,   52.2241516,   61.4502296,           0.
    832,   55.6856766,   61.4450035,           0.
    833,   3.21440244,   4.57870197,           0.
    834,   3.02876997,    11.826786,           0.
    835,   2.95563364,   15.2576323,           0.
    836,   2.94247627,   18.6568775,           0.
    837,   2.93945026,   22.0504589,           0.
    838,   2.93830419,   25.4430809,           0.
    839,   2.93767643,   28.8355274,           0.
    840,   2.93717384,   32.2279396,           0.
    841,   2.93670869,   35.6203461,           0.
    842,   2.93622708,   39.0127602,           0.
    843,    2.9356966,   42.4051743,           0.
    844,   2.93516636,   45.7975845,           0.
    845,   2.93823433,   49.1963425,           0.
    846,   2.98954582,   52.6764526,           0.
    847,   3.09176731,   56.2598457,           0.
    848,   3.08991265,   59.9534111,           0.
    849,   36.8740005,   3.03468823,           0.
    850,   33.3627472,   3.03348255,           0.
    851,   29.8515644,   3.03236675,           0.
    852,   26.3397579,   3.03152537,           0.
    853,   22.8277359,   3.03052354,           0.
    854,   19.3156509,   3.02875805,           0.
    855,   15.8035841,     3.026793,           0.
    856,   12.3213596,   3.01602912,           0.
    857,   8.84626961,   3.01088929,           0.
    858,   35.2894363,   61.5406723,           0.
    859,   28.5682602,   61.5420952,           0.
    860,   31.9288349,   61.5413017,           0.
    861,   40.3267097,   58.6162949,           0.
    862,   43.6894455,   58.6091385,           0.
    863,    47.085289,   58.5764503,           0.
    864,   50.5086784,    58.488472,           0.
    865,   54.0701332,   58.3347206,           0.
    866,   21.8473873,   61.5424156,           0.
    867,   18.4862347,   61.5421371,           0.
    868,   15.1248865,   61.5418892,           0.
    869,   11.7800026,   61.5579796,           0.
    870,   8.46460724,    61.564312,           0.
    871,   5.61876106,   61.7677116,           0.
    872,   3.18691182,   8.28776264,           0.
    873,   5.98060608,   54.5069923,           0.
    874,   5.87293196,   47.5029907,           0.
    875,   5.87017488,   44.1035728,           0.
    876,   5.87088299,   40.7097435,           0.
    877,   5.87214279,   37.3170624,           0.
    878,   5.87343836,   33.9245949,           0.
    879,   5.87910557,   23.7475662,           0.
    880,   5.87689829,   27.1398983,           0.
    881,   5.87495756,   30.5322227,           0.
    882,   5.90231562,   50.9909782,           0.
    883,   5.88265276,   20.3550014,           0.
    884,   5.88870478,   16.9602337,           0.
    885,   5.97288847,   13.5457191,           0.
    886,   67.8082657,    37.566597,           0.
    887,   67.5516663,   44.6741638,           0.
    888,   67.8280106,   34.1369896,           0.
    889,   67.7182693,   41.0439911,           0.
    890,   67.8316422,   27.3068962,           0.
    891,   70.7888794,   18.7739086,           0.
    892,   70.7908783,    22.187149,           0.
    893,   70.7271576,    11.869545,           0.
    894,   67.8316498,   30.7208252,           0.
    895,   40.3862686,    3.0341177,           0.
    896,   35.1150627,   6.06180143,           0.
    897,   21.0702572,   6.05092096,           0.
    898,   54.4347229,   3.03502512,           0.
    899,   50.9232216,   3.03517532,           0.
    900,   47.4116058,   3.03471422,           0.
    901,   43.8991241,   3.03379679,           0.
    902,   14.0197554,   6.13986921,           0.
    903,    24.582489,   6.05357075,           0.
    904,   28.0944138,   6.05599403,           0.
    905,   31.6045399,   6.05813456,           0.
    906,   17.5532875,   6.06103802,           0.
    907,   10.4710646,    6.1434536,           0.
    908,   6.42680359,   58.3720589,           0.
    909,   33.6063728,   58.6233368,           0.
    910,   25.2078133,   61.5419388,           0.
    911,   13.4626198,    58.521183,           0.
    912,   16.8280773,   58.5970001,           0.
    913,   30.2461491,   58.6244621,           0.
    914,   20.1746159,   58.6194839,           0.
    915,   10.0814047,   58.5044861,           0.
    916,   48.7476578,   55.5851212,           0.
    917,   45.3724518,   55.6543884,           0.
    918,    42.001297,   55.6801872,           0.
    919,   36.9660225,   58.6195908,           0.
    920,   8.86723804,   18.6529007,           0.
    921,   8.94715405,    15.230895,           0.
    922,   8.81531715,   28.8374977,           0.
    923,   8.83754349,    22.051733,           0.
    924,   8.81202698,   32.2296791,           0.
    925,   8.80618095,   39.0144234,           0.
    926,    8.8089819,   35.6220856,           0.
    927,   8.80361748,   42.4076271,           0.
    928,   8.82265377,   25.4457741,           0.
    929,   8.79524326,   49.3012581,           0.
    930,    8.8010788,   45.8199768,           0.
    931,   8.77775574,   52.8266563,           0.
    932,   6.12725401,   10.0924835,           0.
    933,   67.8238525,   20.4805889,           0.
    934,   70.7712402,   15.3427544,           0.
    935,   70.5943985,   8.28023815,           0.
    936,   64.8699341,   32.4259491,           0.
    937,   64.8689423,    29.013176,           0.
    938,   64.8575668,   35.8428802,           0.
    939,   64.7848969,   39.2568169,           0.
    940,   67.8281937,   23.8935261,           0.
    941,   6.65926552,   6.23722839,           0.
    942,   38.6273499,   6.06189632,           0.
    943,   57.9465599,    3.0259316,           0.
    944,   64.9430084,   2.96196127,           0.
    945,   61.4596901,   2.99122286,           0.
    946,    52.677269,    6.0646925,           0.
    947,   49.1658325,   6.06450033,           0.
    948,    45.654171,   6.06325579,           0.
    949,   33.3547325,   9.07970142,           0.
    950,   29.8452377,   9.07451057,           0.
    951,    26.335146,   9.06912994,           0.
    952,   22.8230286,   9.06365108,           0.
    953,   19.3094463,   9.05954647,           0.
    954,   15.8418684,    9.1421299,           0.
    955,   12.1160364,   9.62592888,           0.
    956,    42.140995,    6.0615797,           0.
    957,   35.2808189,   55.6984787,           0.
    958,   31.9216442,   55.7019348,           0.
    959,   11.6860342,   55.0389328,           0.
    960,   15.2059479,   55.5083885,           0.
    961,   18.4771328,   55.5597992,           0.
    962,   43.6733093,   52.7386055,           0.
    963,   47.0244865,   52.6923218,           0.
    964,   23.5293961,   58.6246376,           0.
    965,   26.8871002,   58.6248741,           0.
    966,   38.6397514,     55.69067,           0.
    967,   8.59052086,    55.849823,           0.
    968,   11.7618818,   27.1458263,           0.
    969,   11.7434807,   37.3213272,           0.
    970,   11.6898975,   47.6775589,           0.
    971,    12.013483,    16.931921,           0.
    972,   11.7404184,   40.7189445,           0.
    973,   11.7545252,   30.5368729,           0.
    974,   11.7487068,   33.9287949,           0.
    975,   11.7382488,   44.1725006,           0.
    976,   11.7797976,   23.7540226,           0.
    977,   11.5676556,   51.2130814,           0.
    978,   11.8670025,   20.3717823,           0.
    979,   67.8088226,   17.0596714,           0.
    980,   9.01446342,   11.7858315,           0.
    981,   61.8683395,   37.5189476,           0.
    982,   64.8577805,   22.1882725,           0.
    983,   61.8998833,   34.1263504,           0.
    984,   61.9049072,   30.7184944,           0.
    985,   64.8643188,   25.6005707,           0.
    986,   67.6412354,   10.0507736,           0.
    987,   64.5930862,   42.6978569,           0.
    988,   67.7528687,   13.5662193,           0.
    989,   8.87761688,   8.77698517,           0.
    990,   36.8669777,   9.08124447,           0.
    991,   56.1983337,    6.0683465,           0.
    992,   63.3051186,   6.06338406,           0.
    993,   67.9174652,   2.73204923,           0.
    994,   50.9191933,   9.08760071,           0.
    995,   47.4075356,   9.08648586,           0.
    996,   21.0599861,   12.0596333,           0.
    997,   31.5923691,   12.0875559,           0.
    998,     17.59268,   12.0530462,           0.
    999,   28.0834122,   12.0790424,           0.
   1000,   14.6077347,   11.8800383,           0.
   1001,   24.5727482,   12.0684624,           0.
   1002,   59.7700005,   6.14720297,           0.
   1003,   43.8955841,   9.08427429,           0.
   1004,   40.3815079,   9.08170605,           0.
   1005,   5.85119534,   2.76536393,           0.
   1006,   52.1268196,   55.4135475,           0.
   1007,   67.1227264,   6.18968821,           0.
   1008,   36.9516678,   52.7666512,           0.
   1009,   25.2044449,   55.6976204,           0.
   1010,   33.5938644,   52.7734489,           0.
   1011,   16.6956844,   52.4278183,           0.
   1012,   13.9227076,   52.7813301,           0.
   1013,   45.3287506,   49.7846413,           0.
   1014,   21.8239193,   55.6145668,           0.
   1015,   28.5633202,   55.7024345,           0.
   1016,   40.3106995,   52.7540245,           0.
   1017,   14.7245731,   25.4525871,           0.
   1018,   14.8188925,   22.0807362,           0.
   1019,    14.704813,   28.8470306,           0.
   1020,    14.693305,   32.2378616,           0.
   1021,   14.7024403,   46.1559792,           0.
   1022,   14.6847286,   35.6302185,           0.
   1023,   14.6902637,   42.5239639,           0.
   1024,   14.6827488,   39.0475769,           0.
   1025,   14.4276028,   49.8119583,           0.
   1026,   14.9540787,   18.7445087,           0.
   1027,   50.3323898,   52.5625496,           0.
   1028,   12.0265322,   13.4325361,           0.
   1029,   58.9326324,   35.8140182,           0.
   1030,   61.8893433,   23.8960609,           0.
   1031,   64.8307724,   15.2852879,           0.
   1032,   58.9404869,   32.4211388,           0.
   1033,   64.8002396,   11.7802534,           0.
   1034,   64.8456879,   18.7618389,           0.
   1035,   61.7401085,   40.8757019,           0.
   1036,   61.8995743,   27.3079567,           0.
   1037,   35.1045876,   12.0913782,           0.
   1038,   55.5603561,   55.0121918,           0.
   1039,   54.4606552,   9.10210705,           0.
   1040,   49.1598091,   12.1030626,           0.
   1041,    29.827076,   15.0848951,           0.
   1042,   15.4561796,   15.0900745,           0.
   1043,    26.333849,   15.0588007,           0.
   1044,   45.6479607,    12.100565,           0.
   1045,    19.262764,   15.0350676,           0.
   1046,   61.7266808,   9.61379528,           0.
   1047,   22.8051815,   15.0999756,           0.
   1048,    42.135437,   12.0971127,           0.
   1049,   57.9697533,   9.16640759,           0.
   1050,   38.6201553,    12.093339,           0.
   1051,   64.2084198,   46.1950684,           0.
   1052,   38.6194649,   49.8279495,           0.
   1053,   48.6304779,   49.7114563,           0.
   1054,   26.8837986,   52.7532845,           0.
   1055,   35.2623405,   49.8387756,           0.
   1056,   23.5036087,   52.6064339,           0.
   1057,   20.0533657,   52.3671455,           0.
   1058,   30.2377815,   52.7726669,           0.
   1059,   41.9765472,   49.8095245,           0.
   1060,   17.6795979,   27.1512222,           0.
   1061,   17.7457676,   23.7675037,           0.
   1062,   61.3928223,   44.1874771,           0.
   1063,   17.6498394,    30.548769,           0.
   1064,   17.8144188,    20.435154,           0.
   1065,   17.6909904,   44.4039688,           0.
   1066,   17.6323528,   33.9410172,           0.
   1067,   17.6230145,   37.3441315,           0.
   1068,   17.6106586,   40.8006554,           0.
   1069,   18.0177135,   48.6383934,           0.
   1070,   61.7885056,   16.9816341,           0.
   1071,   58.9213219,   25.6025658,           0.
   1072,   55.9793434,   34.1211472,           0.
   1073,   58.8409462,   39.1945457,           0.
   1074,   58.9350815,   29.0150318,           0.
   1075,   61.8161736,    13.449235,           0.
   1076,   61.8492889,   20.4594021,           0.
   1077,   53.5636444,    52.354599,           0.
   1078,   64.9191971,    8.7395792,           0.
   1079,   33.3395157,   15.0920324,           0.
   1080,   52.7054138,   12.0789404,           0.
   1081,   47.3837166,   15.1004953,           0.
   1082,   59.2414665,   11.8896837,           0.
   1083,   28.1232147,   18.1657352,           0.
   1084,   43.8841858,   15.1048412,           0.
   1085,   24.6477947,   18.1837025,           0.
   1086,   20.8863926,   18.4487801,           0.
   1087,   40.3728104,   15.1013851,           0.
   1088,   56.2077026,   12.0449018,           0.
   1089,   36.8563423,     15.09622,           0.
   1090,   17.6747665,   17.5507164,           0.
   1091,   60.3099289,    51.146492,           0.
   1092,   58.4617348,   54.1467209,           0.
   1093,   58.3450928,   15.0778713,           0.
   1094,   56.6661987,   51.8585815,           0.
   1095,   51.9661064,   49.6776047,           0.
   1096,   60.7868118,   47.4923248,           0.
   1097,    40.282589,   46.8823853,           0.
   1098,   28.5726376,   49.8192291,           0.
   1099,   36.9290466,   46.8959923,           0.
   1100,   21.8893032,    49.320507,           0.
   1101,   25.2682209,   49.6689034,           0.
   1102,   46.9537239,   46.8214455,           0.
   1103,   31.9110718,   49.8396034,           0.
   1104,   43.6325722,   46.8573074,           0.
   1105,   20.6522465,   25.4742203,           0.
   1106,   20.6203117,   28.8723831,           0.
   1107,   20.6529636,   22.1095963,           0.
   1108,   58.5957909,   42.4580612,           0.
   1109,   20.5902767,   32.2588882,           0.
   1110,   58.8030281,   18.7647018,           0.
   1111,   20.5960999,   39.1067429,           0.
   1112,    20.577507,   35.6612587,           0.
   1113,   20.5596695,   42.5509071,           0.
   1114,   55.9596405,   27.3123322,           0.
   1115,   55.8853073,   37.5707741,           0.
   1116,   55.9727821,   30.7216778,           0.
   1117,   58.8773422,   22.1649494,           0.
   1118,   31.6112518,   18.1169128,           0.
   1119,   50.9295845,   15.1070013,           0.
   1120,   45.6227455,    18.082859,           0.
   1121,   42.1201744,   18.0999889,           0.
   1122,   26.3945637,   21.6342144,           0.
   1123,   38.6077652,    18.097271,           0.
   1124,   35.1003723,   18.0984955,           0.
   1125,   54.5081978,    15.029151,           0.
   1126,   50.4822044,   46.7063408,           0.
   1127,   58.0367088,   45.6161423,           0.
   1128,   54.7749939,   49.9010735,           0.
   1129,   38.5968285,   43.9477997,           0.
   1130,   30.3193932,   46.8921013,           0.
   1131,   41.9455681,   43.9295883,           0.
   1132,   27.0870266,   46.8385735,           0.
   1133,   23.5471611,   27.1849823,           0.
   1134,   33.6101303,   46.8903694,           0.
   1135,   45.3066826,   43.8880348,           0.
   1136,   23.5441093,   30.5836449,           0.
   1137,   55.9109344,   20.4741631,           0.
   1138,   20.8091946,   45.9285469,           0.
   1139,   23.5258942,   33.9711075,           0.
   1140,   53.0004425,   29.0441399,           0.
   1141,   23.5390644,   37.3455925,           0.
   1142,   23.8442554,   40.9421959,           0.
   1143,   55.7246628,    40.978878,           0.
   1144,   52.8428421,   35.9285622,           0.
   1145,   52.9838562,   32.4494476,           0.
   1146,   55.9407921,   23.8878021,           0.
   1147,   29.9935894,   21.1753998,           0.
   1148,   23.9288883,    46.631897,           0.
   1149,   49.0841179,   18.0620689,           0.
   1150,   43.8873444,   21.0533485,           0.
   1151,   40.3590927,   21.0861549,           0.
   1152,   36.8471642,   21.0890274,           0.
   1153,   33.3812332,   21.1144047,           0.
   1154,    52.836071,   18.4334373,           0.
   1155,    23.483654,    23.776186,           0.
   1156,   57.4789238,   48.8174362,           0.
   1157,   23.2130737,   20.8304958,           0.
   1158,   54.4261589,   46.8466377,           0.
   1159,   25.6897259,   43.8954849,           0.
   1160,   55.8523331,    43.832634,           0.
   1161,    48.734726,    43.768322,           0.
   1162,   26.4149876,   25.4255581,           0.
   1163,   32.0926552,   43.9624634,           0.
   1164,   40.2621689,   40.9984055,           0.
   1165,   28.8889771,   43.9265633,           0.
   1166,    43.676239,    40.971138,           0.
   1167,   26.5257854,   28.8882885,           0.
   1168,   52.9300804,    22.169178,           0.
   1169,   35.3234024,   43.9559975,           0.
   1170,   26.4841557,   32.3092804,           0.
   1171,   50.0607529,   30.8579483,           0.
   1172,   26.4203396,   35.6640587,           0.
   1173,   26.1203384,   38.5273552,           0.
   1174,   49.9138794,   34.2360001,           0.
   1175,   52.7201653,   39.4443436,           0.
   1176,   52.8996544,   25.6273766,           0.
   1177,   56.0806656,   17.5558643,           0.
   1178,   47.3673172,   20.9551849,           0.
   1179,   42.1812325,    24.118372,           0.
   1180,    38.603569,   24.0822945,           0.
   1181,      35.1194,   24.0796528,           0.
   1182,   31.7430477,   24.0672264,           0.
   1183,   63.3119545,   49.1806183,           0.
   1184,   52.5711174,   43.2341766,           0.
   1185,   27.4243603,   41.0070152,           0.
   1186,   29.7641335,      27.0639,           0.
   1187,   33.7599716,    41.151989,           0.
   1188,   42.0215645,   38.0758476,           0.
   1189,   47.0977707,   40.9431648,           0.
   1190,   29.3953094,    30.654068,           0.
   1191,   49.5161476,   23.8920441,           0.
   1192,   29.4498768,   34.0237579,           0.
   1193,   36.9438171,    41.063282,           0.
   1194,   29.3366699,   37.7919006,           0.
   1195,   47.1098442,   32.6820259,           0.
   1196,   22.9663467,   43.9898071,           0.
   1197,   49.3228722,   37.9001236,           0.
   1198,   49.9990005,   27.5281944,           0.
   1199,   45.7490578,   23.9884262,           0.
   1200,   40.4626884,   27.1021671,           0.
   1201,   36.9646683,   27.0955124,           0.
   1202,   33.4652557,   27.0046139,           0.
   1203,   50.3467445,    20.702383,           0.
   1204,   50.0893288,   41.0580254,           0.
   1205,   31.9991455,   29.4402676,           0.
   1206,   35.1920662,   38.3570709,           0.
   1207,    32.325985,   32.2152405,           0.
   1208,   28.8620644,   23.8732586,           0.
   1209,   30.6453896,   41.0932541,           0.
   1210,   45.5463295,   38.0582504,           0.
   1211,    32.903038,   35.7081795,           0.
   1212,   38.5328712,   38.2411842,           0.
   1213,   47.1807442,   35.5512047,           0.
   1214,   47.1754112,   29.3651161,           0.
   1215,   44.1704292,   27.4346333,           0.
   1216,   38.9547882,   29.9212646,           0.
   1217,   35.2294731,   30.2590828,           0.
   1218,   43.9460258,   34.7683754,           0.
   1219,   36.6121483,   35.6427765,           0.
   1220,   40.0443268,    35.323494,           0.
   1221,   41.8406334,   29.6111622,           0.
   1222,   32.3674278,   38.8204765,           0.
   1223,     47.32201,   26.4416828,           0.
   1224,   34.9898643,   33.3302498,           0.
   1225,   44.2528381,   31.0413551,           0.
   1226,   41.1528816,   32.2486038,           0.
   1227,   37.8305817,   32.7875786,           0.
*Element, type=S3
  1, 241,  16, 204
  2, 248,  55, 203
  3, 219,  39, 218
  4, 202,   3,  25
  5, 258, 214, 213
  6, 203,  13,  14
  7, 204,  16,  17
  8, 229,  50, 228
  9, 226,  53, 225
 10, 205,  22, 201
 11, 206, 204,  17
 12, 207, 206,  18
 13, 208,   2,  20
 14, 209,  23,  24
 15, 242, 207, 210
 16,  32,   4,  33
 17, 224,  33,  34
 18, 236, 222, 221
 19, 259, 256, 224
 20, 253,  29,  30
 21, 234, 220, 219
 22, 212,  28, 211
 23, 214,  25,  26
 24,  44,  43,   5
 25, 215,  43,  44
 26, 233,  46, 232
 27, 216,  41,  42
 28, 217,  40,  41
 29, 249, 229, 247
 30, 220,  38, 219
 31, 221,  37, 220
 32, 222,  36, 221
 33, 223,  35, 222
 34, 224,  34, 223
 35,  55,   1,  13
 36, 203,  55,  13
 37, 248, 225,  54
 38, 296, 272, 275
 39, 250, 246, 226
 40, 227,  52, 226
 41, 228,  51, 227
 42, 230,  49, 229
 43, 252, 231, 244
 44, 265, 263, 238
 45, 245, 233, 232
 46, 278,  44,  45
 47, 201,  22,  23
 48, 209,  24, 202
 49, 202,  24,   3
 50, 214,  26, 213
 51, 269,  15, 241
 52, 270, 204, 243
 53, 206,  17,  18
 54, 242, 206, 207
 55, 205,  21,  22
 56, 251, 227, 246
 57, 207,  18,  19
 58, 210, 208,  20
 59, 208, 207,  19
 60, 210,  21, 205
 61, 208,  19,   2
 62, 210,  20,  21
 63, 213,  27, 212
 64, 209, 201,  23
 65, 339, 315, 210
 66, 210, 207, 208
 67, 211,  28,  29
 68, 303, 283, 287
 69, 254, 213, 212
 70, 212,  27,  28
 71, 258, 213, 254
 72, 213,  26,  27
 73, 214, 209, 202
 74, 214, 202,  25
 75, 216,  42, 215
 76, 215,  42,  43
 77, 232,  47, 231
 78, 217,  41, 216
 79, 231,  48, 230
 80, 218,  40, 217
 81, 252, 245, 232
 82, 218,  39,  40
 83, 238, 219, 218
 84, 219,  38,  39
 85, 239, 220, 234
 86, 220,  37,  38
 87, 281, 259, 262
 88, 221,  36,  37
 89, 240, 222, 236
 90, 222,  35,  36
 91, 259, 223, 240
 92, 223,  34,  35
 93, 256,  32, 224
 94, 224,  32,  33
 95, 225,  53,  54
 96, 261, 250, 225
 97, 250, 226, 225
 98, 226,  52,  53
 99, 251, 247, 228
100, 227,  51,  52
101, 247, 229, 228
102, 228,  50,  51
103, 265, 238, 237
104, 229,  49,  50
105, 260, 235, 216
106, 230,  48,  49
107, 244, 231, 230
108, 231,  47,  48
109, 278, 260, 215
110, 232,  46,  47
111, 278, 233, 260
112, 233,  45,  46
113, 298, 257, 279
114, 257, 254, 212
115, 237, 217, 235
116, 235, 217, 216
117, 284, 267, 264
118, 239, 236, 221
119, 266, 265, 237
120, 237, 218, 217
121, 238, 234, 219
122, 238, 218, 237
123, 239, 221, 220
124, 264, 234, 263
125, 282, 262, 268
126, 240, 223, 222
127, 288, 241, 270
128, 241,  15,  16
129, 243, 206, 242
130, 318, 307, 306
131, 275, 272, 246
132, 243, 204, 206
133, 249, 230, 229
134, 277, 249, 273
135, 290, 260, 245
136, 252, 232, 231
137, 272, 251, 246
138, 246, 227, 226
139, 251, 228, 227
140, 273, 247, 271
141, 248,  54,  55
142, 261, 248, 203
143, 297, 295, 273
144, 249, 244, 230
145, 261, 225, 248
146, 291, 261, 288
147, 272, 271, 251
148, 311, 306, 296
149, 277, 274, 244
150, 274, 252, 244
151, 253, 211,  29
152, 255, 253,  30
153, 297, 271, 294
154, 257, 212, 211
155, 255,  30,  31
156, 256, 255,  31
157, 256,  31,  32
158, 259, 224, 223
159, 279, 211, 253
160, 267, 239, 264
161, 338, 258, 332
162, 258, 209, 214
163, 262, 259, 240
164, 259, 255, 256
165, 260, 216, 215
166, 260, 233, 245
167, 269, 261, 203
168, 299, 291, 288
169, 281, 255, 259
170, 268, 240, 236
171, 323, 254, 280
172, 263, 234, 238
173, 320, 301, 313
174, 264, 239, 234
175, 266, 237, 235
176, 292, 274, 277
177, 290, 266, 235
178, 276, 245, 252
179, 310, 282, 286
180, 267, 236, 239
181, 268, 262, 240
182, 268, 236, 267
183, 269, 203,  14
184, 269,  14,  15
185, 270, 241, 204
186, 296, 294, 272
187, 326, 325, 319
188, 271, 247, 251
189, 275, 246, 250
190, 299, 275, 291
191, 287, 265, 266
192, 273, 249, 247
193, 287, 283, 265
194, 277, 244, 249
195, 299, 288, 270
196, 289, 270, 243
197, 290, 276, 266
198, 276, 252, 274
199, 297, 273, 271
200, 303, 300, 283
201, 278, 215,  44
202, 278,  45, 233
203, 279, 257, 211
204, 281, 279, 253
205, 280, 254, 257
206, 301, 285, 300
207, 281, 253, 255
208, 282, 281, 262
209, 282, 279, 281
210, 286, 267, 284
211, 285, 263, 283
212, 283, 263, 265
213, 302, 284, 301
214, 285, 284, 264
215, 285, 264, 263
216, 303, 287, 293
217, 286, 282, 268
218, 286, 268, 267
219, 287, 266, 276
220, 293, 276, 274
221, 288, 261, 269
222, 288, 269, 241
223, 304, 243, 242
224, 304, 289, 243
225, 290, 235, 260
226, 290, 245, 276
227, 291, 275, 250
228, 291, 250, 261
229, 295, 277, 273
230, 305, 292, 295
231, 293, 287, 276
232, 293, 274, 292
233, 332, 323, 331
234, 294, 271, 272
235, 317, 305, 308
236, 295, 292, 277
237, 311, 275, 299
238, 314, 311, 289
239, 307, 294, 306
240, 307, 297, 294
241, 298, 280, 257
242, 298, 279, 282
243, 299, 270, 289
244, 311, 299, 289
245, 312, 303, 305
246, 300, 285, 283
247, 310, 309, 298
248, 301, 284, 285
249, 310, 302, 309
250, 302, 286, 284
251, 303, 293, 292
252, 305, 303, 292
253, 315, 242, 210
254, 328, 326, 318
255, 308, 295, 297
256, 317, 312, 305
257, 328, 324, 321
258, 306, 294, 296
259, 322, 309, 320
260, 308, 297, 307
261, 319, 307, 318
262, 308, 305, 295
263, 313, 301, 300
264, 309, 280, 298
265, 310, 298, 282
266, 310, 286, 302
267, 314, 289, 304
268, 311, 296, 275
269, 313, 300, 312
270, 312, 300, 303
271, 330, 327, 325
272, 327, 317, 325
273, 321, 304, 315
274, 314, 306, 311
275, 315, 304, 242
276, 336, 334, 333
277, 331, 316, 330
278, 316, 280, 309
279, 317, 313, 312
280, 319, 308, 307
281, 324, 306, 314
282, 335, 334, 331
283, 327, 322, 320
284, 319, 317, 308
285, 320, 309, 302
286, 320, 302, 301
287, 321, 314, 304
288, 329, 328, 321
289, 325, 317, 319
290, 322, 316, 309
291, 323, 258, 254
292, 323, 280, 316
293, 324, 318, 306
294, 324, 314, 321
295, 326, 319, 318
296, 330, 322, 327
297, 335, 328, 333
298, 328, 318, 324
299, 327, 320, 313
300, 327, 313, 317
301, 329, 321, 315
302, 338, 334, 336
303, 339, 329, 315
304, 337, 201, 336
305, 330, 316, 322
306, 330, 325, 326
307, 335, 333, 334
308, 331, 323, 316
309, 338, 332, 334
310, 332, 258, 323
311, 333, 328, 329
312, 339, 337, 329
313, 334, 332, 331
314, 335, 331, 330
315, 335, 330, 326
316, 335, 326, 328
317, 337, 336, 333
318, 338, 336, 201
319, 337, 333, 329
320, 337, 205, 201
321, 338, 201, 209
322, 338, 209, 258
323, 339, 210, 205
324, 339, 205, 337
325, 388, 386,  19
326, 347, 107, 108
327, 357,  61, 356
328, 351,  91,  92
329, 509,  87,  88
330, 381, 380, 100
331,  13,   1,  56
332, 342,  13,  56
333, 360,  58, 359
334, 343,  15,  14
335, 344,  16,  15
336, 346,  17, 345
337, 388, 347, 386
338,  75,   6,  76
339, 368,  76,  77
340, 394, 366, 391
341, 417,  73,  74
342, 412,  72,  73
343, 553, 528, 513
344, 389, 363,  82
345, 491, 451, 406
346, 350,  90, 341
347, 408, 371, 372
348, 372,  94, 353
349, 402, 375, 354
350, 378,  97,  98
351, 450, 449, 410
352, 355,  62,  63
353, 356,  62, 355
354, 358,  60, 357
355, 397, 344, 343
356, 467, 423, 465
357, 475,  56,  57
358,  87,  86,   7
359, 361,  86,  87
360, 490, 441, 484
361, 362,  89, 350
362, 392, 389,  83
363, 389,  82,  83
364, 364,  81, 363
365, 365,  80, 364
366, 366,  79, 365
367, 367,  78, 366
368, 368,  77, 367
369, 369,  70, 349
370, 420, 414, 352
371, 372, 371,  93
372, 440, 401, 439
373, 373,  67, 352
374, 421, 373, 414
375, 402, 401, 375
376, 374,  66, 373
377, 422, 374, 421
378, 405, 379, 380
379, 379, 378,  98
380, 380, 379,  99
381, 449, 446, 405
382, 382, 104, 105
383, 385, 384, 103
384, 385, 382, 384
385, 385,   8, 104
386, 386,   2,  19
387, 387, 106, 340
388, 340, 106, 107
389, 424, 357, 356
390, 349,  71, 348
391, 341,  90,  91
392, 343,  14, 342
393, 342,  14,  13
394, 359,  59, 358
395, 344,  15, 343
396, 397, 396, 344
397, 345,  16, 344
398, 398, 345, 396
399, 345,  17,  16
400, 438, 437, 396
401, 346,  18,  17
402, 347, 340, 107
403, 386, 347, 108
404, 348,  71,  72
405, 390, 364, 363
406, 404, 351, 400
407, 349,  70,  71
408, 393,  85, 361
409, 350,  89,  90
410, 351, 341,  91
411, 371,  92,  93
412, 352,  67,  68
413, 370,  68,  69
414, 353,  94,  95
415, 375,  95,  96
416, 376,  65, 374
417, 354,  96,  97
418, 377,  63,  64
419, 405, 403, 379
420, 424, 356, 418
421, 356,  61,  62
422, 438, 396, 397
423, 357,  60,  61
424, 475, 453, 342
425, 358,  59,  60
426, 419, 359, 358
427, 359,  58,  59
428, 475, 360, 453
429, 360,  57,  58
430, 361,  85,  86
431, 509, 362, 451
432, 362,  88,  89
433, 448, 399, 447
434, 363,  81,  82
435, 436, 363, 389
436, 395, 364, 390
437, 364,  80,  81
438, 391, 366, 365
439, 365,  79,  80
440, 429, 417, 416
441, 366,  78,  79
442, 429, 367, 394
443, 367,  77,  78
444, 416,  75, 368
445, 368,  75,  76
446, 369,  69,  70
447, 464, 460, 425
448, 370, 352,  68
449, 370,  69, 369
450, 371, 351,  92
451, 372,  93,  94
452, 407, 353, 401
453, 407, 372, 353
454, 373,  66,  67
455, 457, 455, 414
456, 458, 421, 455
457, 374,  65,  66
458, 375, 353,  95
459, 375,  96, 354
460, 377,  64, 376
461, 376,  64,  65
462, 445, 444, 409
463, 377, 355,  63
464, 378, 354,  97
465, 379,  98,  99
466, 380,  99, 100
467, 462, 422, 458
468, 381, 100, 101
469, 410, 405, 380
470, 383, 101, 102
471, 541, 527, 510
472, 387, 105, 106
473, 387, 382, 105
474, 383, 381, 101
475, 384, 383, 102
476, 384, 102, 103
477, 452, 411, 383
478, 385, 103,   8
479, 385, 104, 382
480, 386, 108,   2
481, 388,  19,  18
482, 423, 419, 358
483, 411, 410, 381
484, 388,  18, 346
485, 430, 346, 398
486, 392,  83,  84
487, 469, 393, 451
488, 489, 474, 448
489, 395, 391, 365
490, 477, 473, 435
491, 395, 365, 364
492, 393,  84,  85
493, 393, 392,  84
494, 451, 362, 406
495, 406, 350, 399
496, 473, 431, 435
497, 394, 367, 366
498, 539, 473, 477
499, 433, 391, 395
500, 471, 347, 430
501, 396, 345, 344
502, 453, 397, 343
503, 428, 360, 359
504, 495, 398, 437
505, 398, 346, 345
506, 399, 350, 341
507, 404, 341, 351
508, 425, 349, 415
509, 400, 351, 371
510, 420, 370, 413
511, 401, 353, 375
512, 409, 354, 378
513, 502, 497, 455
514, 426, 376, 422
515, 403, 378, 379
516, 521, 486, 519
517, 404, 399, 341
518, 410, 380, 381
519, 426, 377, 376
520, 491, 469, 451
521, 406, 362, 350
522, 442, 407, 440
523, 408, 372, 407
524, 442, 408, 407
525, 408, 400, 371
526, 409, 402, 354
527, 409, 378, 403
528, 411, 381, 383
529, 472, 340, 471
530, 452, 383, 384
531, 470, 452, 382
532, 412, 348,  72
533, 417,  74, 416
534, 413, 370, 369
535, 425, 369, 349
536, 414, 373, 352
537, 420, 352, 370
538, 415, 349, 348
539, 454, 348, 412
540, 416,  74,  75
541, 429, 368, 367
542, 468, 429, 431
543, 417, 412,  73
544, 418, 356, 355
545, 427, 355, 377
546, 423, 358, 357
547, 467, 466, 419
548, 487, 439, 483
549, 459, 457, 420
550, 444, 439, 402
551, 421, 374, 373
552, 446, 445, 403
553, 422, 376, 374
554, 424, 423, 357
555, 507, 456, 505
556, 573, 493, 525
557, 465, 424, 456
558, 506, 500, 460
559, 425, 413, 369
560, 463, 426, 462
561, 427, 377, 426
562, 504, 463, 501
563, 427, 418, 355
564, 494, 453, 428
565, 428, 359, 419
566, 429, 416, 368
567, 431, 429, 394
568, 430, 347, 388
569, 430, 388, 346
570, 473, 468, 431
571, 435, 394, 391
572, 489, 448, 447
573, 432, 389, 392
574, 434, 395, 390
575, 434, 433, 395
576, 492, 390, 436
577, 447, 404, 441
578, 435, 431, 394
579, 435, 391, 433
580, 436, 390, 363
581, 436, 389, 432
582, 527, 437, 479
583, 437, 398, 396
584, 494, 438, 397
585, 466, 428, 419
586, 439, 401, 402
587, 444, 402, 409
588, 443, 408, 442
589, 440, 407, 401
590, 441, 404, 400
591, 443, 400, 408
592, 487, 440, 439
593, 486, 484, 443
594, 460, 459, 413
595, 443, 441, 400
596, 445, 409, 403
597, 485, 445, 481
598, 446, 403, 405
599, 517, 485, 516
600, 449, 405, 410
601, 498, 458, 497
602, 490, 489, 447
603, 447, 399, 404
604, 491, 474, 469
605, 448, 406, 399
606, 450, 410, 411
607, 461, 456, 418
608, 493, 411, 452
609, 505, 461, 504
610, 451, 393, 361
611, 509, 451, 361
612, 452, 384, 382
613, 470, 382, 387
614, 453, 343, 342
615, 453, 360, 428
616, 454, 415, 348
617, 468, 454, 412
618, 455, 421, 414
619, 457, 414, 420
620, 456, 424, 418
621, 461, 418, 427
622, 459, 420, 413
623, 488, 440, 487
624, 481, 446, 480
625, 458, 422, 421
626, 460, 413, 425
627, 503, 502, 457
628, 464, 425, 415
629, 575, 551, 566
630, 463, 427, 426
631, 482, 480, 449
632, 462, 426, 422
633, 554, 545, 544
634, 501, 462, 498
635, 463, 461, 427
636, 496, 415, 454
637, 539, 513, 528
638, 479, 438, 466
639, 465, 423, 424
640, 494, 466, 438
641, 467, 419, 423
642, 499, 479, 466
643, 499, 466, 467
644, 468, 412, 417
645, 468, 417, 429
646, 469, 432, 392
647, 469, 392, 393
648, 472, 387, 340
649, 525, 493, 452
650, 471, 340, 347
651, 495, 471, 430
652, 537, 505, 536
653, 472, 470, 387
654, 473, 454, 468
655, 477, 435, 433
656, 476, 432, 474
657, 474, 432, 469
658, 475, 342,  56
659, 475,  57, 360
660, 512, 476, 511
661, 476, 436, 432
662, 478, 433, 434
663, 478, 477, 433
664, 524, 434, 492
665, 512, 492, 476
666, 479, 437, 438
667, 510, 479, 499
668, 480, 446, 449
669, 482, 449, 450
670, 516, 481, 514
671, 481, 445, 446
672, 526, 450, 493
673, 532, 501, 530
674, 483, 439, 444
675, 485, 483, 444
676, 484, 441, 443
677, 486, 443, 442
678, 485, 444, 445
679, 545, 516, 544
680, 488, 442, 440
681, 535, 534, 500
682, 555, 546, 545
683, 503, 459, 500
684, 520, 487, 518
685, 488, 486, 442
686, 511, 474, 489
687, 490, 447, 441
688, 522, 484, 521
689, 523, 489, 490
690, 491, 406, 448
691, 491, 448, 474
692, 492, 434, 390
693, 492, 436, 476
694, 493, 450, 411
695, 525, 452, 470
696, 494, 397, 453
697, 494, 428, 466
698, 495, 430, 398
699, 527, 479, 510
700, 496, 464, 415
701, 496, 454, 473
702, 497, 458, 455
703, 502, 455, 457
704, 530, 498, 529
705, 498, 462, 458
706, 508, 467, 465
707, 507, 465, 456
708, 500, 459, 460
709, 506, 460, 464
710, 515, 514, 480
711, 501, 463, 462
712, 503, 457, 459
713, 518, 483, 517
714, 534, 533, 503
715, 520, 519, 488
716, 536, 504, 532
717, 504, 461, 463
718, 562, 537, 561
719, 505, 456, 461
720, 528, 464, 496
721, 560, 548, 558
722, 561, 536, 559
723, 508, 465, 507
724, 538, 507, 537
725, 508, 499, 467
726, 509, 361,  87
727, 509,  88, 362
728, 574, 571, 472
729, 510, 499, 508
730, 511, 476, 474
731, 523, 490, 522
732, 550, 521, 549
733, 542, 512, 523
734, 513, 477, 478
735, 551, 478, 524
736, 514, 481, 480
737, 515, 480, 482
738, 552, 482, 526
739, 556, 554, 544
740, 544, 514, 543
741, 516, 485, 481
742, 531, 529, 497
743, 517, 483, 485
744, 533, 531, 502
745, 518, 487, 483
746, 519, 486, 488
747, 520, 488, 487
748, 557, 546, 555
749, 558, 547, 557
750, 542, 524, 512
751, 521, 484, 486
752, 565, 549, 560
753, 522, 490, 484
754, 523, 512, 511
755, 523, 511, 489
756, 524, 478, 434
757, 524, 492, 512
758, 540, 470, 472
759, 540, 525, 470
760, 569, 568, 552
761, 526, 482, 450
762, 563, 495, 527
763, 527, 495, 437
764, 528, 506, 464
765, 539, 528, 496
766, 529, 498, 497
767, 531, 497, 502
768, 559, 556, 543
769, 530, 501, 498
770, 533, 502, 503
771, 546, 517, 545
772, 559, 532, 556
773, 532, 504, 501
774, 534, 503, 500
775, 547, 518, 546
776, 535, 500, 506
777, 548, 520, 547
778, 553, 506, 528
779, 549, 519, 548
780, 568, 561, 559
781, 536, 505, 504
782, 574, 572, 571
783, 537, 507, 505
784, 538, 510, 508
785, 538, 508, 507
786, 539, 496, 473
787, 539, 477, 513
788, 573, 540, 567
789, 572, 541, 564
790, 574, 471, 563
791, 564, 510, 538
792, 570, 523, 522
793, 570, 566, 542
794, 543, 514, 515
795, 568, 515, 552
796, 556, 544, 543
797, 544, 516, 514
798, 555, 554, 529
799, 545, 517, 516
800, 557, 547, 546
801, 546, 518, 517
802, 558, 548, 547
803, 547, 520, 518
804, 560, 549, 548
805, 548, 519, 520
806, 575, 566, 565
807, 549, 521, 519
808, 570, 550, 566
809, 550, 522, 521
810, 551, 513, 478
811, 551, 524, 542
812, 552, 515, 482
813, 573, 567, 526
814, 553, 535, 506
815, 575, 513, 551
816, 554, 530, 529
817, 555, 529, 531
818, 557, 555, 531
819, 555, 545, 554
820, 556, 532, 530
821, 556, 530, 554
822, 557, 531, 533
823, 558, 557, 533
824, 558, 533, 534
825, 560, 558, 534
826, 568, 559, 543
827, 559, 536, 532
828, 560, 534, 535
829, 565, 560, 535
830, 576, 572, 562
831, 561, 537, 536
832, 576, 569, 567
833, 562, 538, 537
834, 563, 471, 495
835, 563, 527, 541
836, 564, 541, 510
837, 564, 538, 562
838, 565, 535, 553
839, 565, 550, 549
840, 566, 551, 542
841, 566, 550, 565
842, 567, 552, 526
843, 576, 540, 571
844, 568, 543, 515
845, 569, 552, 567
846, 569, 562, 561
847, 569, 561, 568
848, 570, 542, 523
849, 570, 522, 550
850, 571, 540, 472
851, 574, 472, 471
852, 572, 564, 562
853, 576, 562, 569
854, 573, 526, 493
855, 573, 525, 540
856, 574, 563, 541
857, 574, 541, 572
858, 575, 565, 553
859, 575, 553, 513
860, 576, 567, 540
861, 576, 571, 572
 862, 645,   9, 109
 863, 586, 115, 116
 864, 621, 603, 602
 865, 695,  32,  31
 866, 579, 154, 155
 867, 736, 703, 733
 868, 122,  10, 123
 869, 580, 122, 123
 870, 596, 125, 595
 871, 581, 120, 121
 872, 582, 119, 120
 873, 583, 118, 119
 874, 584, 117, 118
 875, 622, 607, 606
 876, 642, 583, 582
 877, 586, 116, 585
 878, 588, 113, 577
 879, 588, 112, 113
 880, 590, 111, 589
 881, 591, 110, 590
 882, 134,  11, 135
 883, 612, 135, 136
 884, 623, 610, 609
 885, 624, 609, 608
 886, 674, 624, 672
 887, 651, 132, 650
 888, 646, 129, 130
 889, 642, 582, 641
 890, 683, 640, 642
 891, 647, 593, 592
 892, 654, 648, 594
 893, 694, 123, 124
 894,  32, 152,   4
 895, 597, 152,  32
 896, 620, 598, 150
 897, 697, 657, 656
 898, 599, 149, 598
 899, 600, 148, 599
 900, 601, 147, 600
 901, 602, 146, 601
 902, 603, 145, 602
 903, 618, 604, 156
 904, 625, 603, 621
 905, 606, 142, 578
 906, 607, 141, 606
 907, 608, 140, 607
 908, 609, 139, 608
 909, 610, 138, 609
 910, 611, 137, 610
 911, 612, 136, 611
 912, 656,  29, 613
 913, 693, 613, 659
 914, 613,  29,  28
 915, 614, 613,  28
 916, 615, 614,  27
 917, 658, 616, 619
 918, 616, 615,  26
 919, 617,   3, 153
 920, 635, 588, 634
 921, 619, 617, 153
 922, 577, 113, 114
 923, 587, 114, 115
 924, 578, 142, 143
 925, 605, 143, 144
 926, 626, 599, 598
 927, 604, 155, 156
 928, 581, 121, 580
 929, 580, 121, 122
 930, 595, 126, 594
 931, 582, 120, 581
 932, 594, 127, 593
 933, 583, 119, 582
 934, 593, 128, 592
 935, 584, 118, 583
 936, 749, 742, 715
 937, 585, 117, 584
 938, 671, 631, 669
 939, 585, 116, 117
 940, 745, 714, 742
 941, 637, 586, 636
 942, 587, 577, 114
 943, 587, 115, 586
 944, 716, 680, 713
 945, 589, 112, 588
 946, 645, 618, 157
 947, 589, 111, 112
 948, 680, 634, 678
 949, 590, 110, 111
 950, 812, 645, 591
 951, 591, 109, 110
 952, 592, 128, 129
 953, 803, 782, 755
 954, 661, 641, 581
 955, 593, 127, 128
 956, 694, 661, 580
 957, 594, 126, 127
 958, 649, 596, 595
 959, 595, 125, 126
 960, 694, 596, 661
 961, 596, 124, 125
 962, 597, 151, 152
 963, 657,  30, 656
 964, 598, 149, 150
 965, 620, 150, 151
 966, 627, 599, 626
 967, 599, 148, 149
 968, 628, 600, 627
 969, 600, 147, 148
 970, 628, 601, 600
 971, 601, 146, 147
 972, 810, 809, 799
 973, 602, 145, 146
 974, 605, 144, 603
 975, 603, 144, 145
 976, 638, 589, 635
 977, 604, 579, 155
 978, 630, 605, 625
 979, 605, 578, 143
 980, 606, 141, 142
 981, 678, 644, 677
 982, 632, 607, 622
 983, 607, 140, 141
 984, 651, 131, 132
 985, 608, 139, 140
 986, 653, 650, 133
 987, 609, 138, 139
 988, 633, 610, 623
 989, 610, 137, 138
 990, 660, 611, 633
 991, 611, 136, 137
 992, 653, 134, 612
 993, 612, 134, 135
 994, 614,  28,  27
 995, 659, 614, 655
 996, 615,  27,  26
 997, 696, 659, 655
 998, 616,  26,  25
 999, 658, 615, 616
1000, 617, 616,  25
1001, 619, 154, 579
1002, 617,  25,   3
1003, 619, 153, 154
1004, 618, 156, 157
1005, 639, 590, 638
1006, 658, 655, 615
1007, 619, 616, 617
1008, 620, 151, 597
1009, 698, 597, 695
1010, 629, 602, 601
1011, 666, 629, 665
1012, 631, 606, 578
1013, 735, 732, 702
1014, 624, 623, 609
1015, 726, 687, 699
1016, 632, 624, 608
1017, 672, 632, 670
1018, 668, 621, 666
1019, 625, 605, 603
1020, 675, 598, 620
1021, 711, 626, 675
1022, 664, 627, 663
1023, 627, 600, 599
1024, 665, 628, 664
1025, 629, 601, 628
1026, 796, 788, 792
1027, 629, 621, 602
1028, 677, 637, 676
1029, 630, 578, 605
1030, 631, 622, 606
1031, 631, 578, 630
1032, 632, 608, 607
1033, 679, 676, 636
1034, 688, 660, 662
1035, 633, 611, 610
1036, 634, 588, 577
1037, 644, 577, 587
1038, 721, 639, 684
1039, 635, 589, 588
1040, 636, 586, 585
1041, 643, 585, 584
1042, 669, 630, 667
1043, 637, 587, 586
1044, 684, 638, 681
1045, 638, 590, 589
1046, 812, 591, 639
1047, 639, 591, 590
1048, 640, 584, 583
1049, 722, 682, 641
1050, 641, 582, 581
1051, 648, 595, 594
1052, 654, 593, 647
1053, 642, 640, 583
1054, 643, 636, 585
1055, 643, 584, 640
1056, 644, 634, 577
1057, 644, 587, 637
1058, 645, 157,   9
1059, 645, 109, 591
1060, 646, 592, 129
1061, 652, 130, 131
1062, 686, 592, 646
1063, 702, 700, 672
1064, 691, 649, 648
1065, 654, 594, 593
1066, 722, 661, 649
1067, 649, 595, 648
1068, 650, 132, 133
1069, 660, 653, 612
1070, 699, 688, 662
1071, 652, 131, 651
1072, 688, 687, 651
1073, 652, 646, 130
1074, 653, 133, 134
1075, 660, 612, 611
1076, 715, 714, 679
1077, 690, 654, 689
1078, 655, 614, 615
1079, 758, 730, 729
1080, 785, 756, 780
1081, 656,  30,  29
1082, 698, 695, 657
1083, 657,  31,  30
1084, 783, 759, 658
1085, 806, 785, 780
1086, 730, 697, 693
1087, 659, 613, 614
1088, 662, 660, 633
1089, 660, 650, 653
1090, 661, 581, 580
1091, 661, 596, 649
1092, 673, 633, 623
1093, 754, 726, 753
1094, 746, 663, 711
1095, 663, 627, 626
1096, 751, 721, 684
1097, 664, 628, 627
1098, 681, 635, 680
1099, 665, 629, 628
1100, 748, 716, 744
1101, 666, 621, 629
1102, 667, 630, 625
1103, 668, 667, 625
1104, 668, 625, 621
1105, 713, 678, 712
1106, 787, 786, 761
1107, 669, 631, 630
1108, 670, 632, 622
1109, 671, 670, 622
1110, 671, 622, 631
1111, 703, 669, 701
1112, 753, 699, 707
1113, 672, 624, 632
1114, 673, 662, 633
1115, 674, 673, 623
1116, 674, 623, 624
1117, 754, 753, 731
1118, 675, 626, 598
1119, 698, 620, 597
1120, 676, 637, 636
1121, 679, 636, 643
1122, 734, 733, 701
1123, 677, 644, 637
1124, 705, 701, 667
1125, 678, 634, 644
1126, 685, 643, 640
1127, 720, 683, 719
1128, 709, 665, 706
1129, 680, 635, 634
1130, 706, 664, 704
1131, 681, 638, 635
1132, 683, 642, 682
1133, 682, 642, 641
1134, 719, 682, 691
1135, 685, 640, 683
1136, 751, 684, 717
1137, 684, 639, 638
1138, 689, 654, 647
1139, 685, 679, 643
1140, 686, 647, 592
1141, 692, 646, 652
1142, 687, 652, 651
1143, 699, 662, 673
1144, 688, 651, 650
1145, 688, 650, 660
1146, 723, 647, 686
1147, 732, 731, 700
1148, 724, 691, 690
1149, 690, 648, 654
1150, 722, 691, 682
1151, 691, 648, 690
1152, 692, 686, 646
1153, 692, 652, 687
1154, 693, 656, 613
1155, 729, 659, 696
1156, 694, 580, 123
1157, 694, 124, 596
1158, 695, 597,  32
1159, 695,  31, 657
1160, 728, 655, 658
1161, 728, 696, 655
1162, 741, 698, 697
1163, 697, 656, 693
1164, 698, 657, 697
1165, 698, 675, 620
1166, 699, 687, 688
1167, 707, 674, 700
1168, 700, 674, 672
1169, 702, 672, 670
1170, 701, 669, 667
1171, 705, 667, 668
1172, 710, 670, 671
1173, 776, 770, 742
1174, 703, 671, 669
1175, 795, 790, 791
1176, 777, 717, 748
1177, 704, 664, 663
1178, 708, 668, 666
1179, 797, 788, 796
1180, 717, 681, 716
1181, 706, 665, 664
1182, 707, 699, 673
1183, 707, 673, 674
1184, 708, 705, 668
1185, 709, 708, 666
1186, 709, 666, 665
1187, 798, 792, 794
1188, 710, 702, 670
1189, 710, 671, 703
1190, 711, 663, 626
1191, 741, 711, 675
1192, 712, 678, 677
1193, 718, 677, 676
1194, 737, 734, 705
1195, 713, 680, 678
1196, 714, 676, 679
1197, 715, 679, 685
1198, 720, 685, 683
1199, 750, 719, 724
1200, 793, 769, 767
1201, 716, 681, 680
1202, 739, 738, 706
1203, 717, 684, 681
1204, 718, 712, 677
1205, 718, 676, 714
1206, 719, 683, 682
1207, 724, 719, 691
1208, 804, 786, 795
1209, 720, 715, 685
1210, 811, 721, 778
1211, 812, 721, 811
1212, 722, 641, 661
1213, 722, 649, 691
1214, 723, 689, 647
1215, 727, 686, 692
1216, 725, 690, 689
1217, 725, 724, 690
1218, 750, 749, 720
1219, 752, 689, 723
1220, 726, 692, 687
1221, 731, 707, 700
1222, 727, 723, 686
1223, 727, 692, 726
1224, 783, 658, 619
1225, 809, 805, 800
1226, 729, 693, 659
1227, 774, 758, 756
1228, 741, 730, 711
1229, 730, 693, 729
1230, 762, 731, 732
1231, 732, 700, 702
1232, 735, 702, 710
1233, 804, 782, 786
1234, 733, 703, 701
1235, 734, 701, 705
1236, 737, 705, 708
1237, 766, 764, 734
1238, 736, 735, 710
1239, 763, 761, 735
1240, 736, 710, 703
1241, 772, 745, 770
1242, 740, 708, 709
1243, 744, 713, 743
1244, 738, 709, 706
1245, 739, 706, 704
1246, 774, 746, 758
1247, 757, 756, 696
1248, 740, 737, 708
1249, 740, 709, 738
1250, 741, 675, 698
1251, 741, 697, 730
1252, 742, 714, 715
1253, 749, 715, 720
1254, 743, 713, 712
1255, 747, 712, 718
1256, 768, 766, 737
1257, 744, 716, 713
1258, 797, 789, 788
1259, 745, 718, 714
1260, 746, 704, 663
1261, 746, 711, 730
1262, 747, 743, 712
1263, 747, 718, 745
1264, 769, 738, 767
1265, 748, 717, 716
1266, 750, 720, 719
1267, 802, 750, 725
1268, 750, 724, 725
1269, 802, 725, 752
1270, 811, 778, 604
1271, 778, 760, 604
1272, 752, 725, 689
1273, 755, 723, 727
1274, 753, 726, 699
1275, 753, 707, 731
1276, 754, 727, 726
1277, 762, 732, 761
1278, 755, 752, 723
1279, 755, 727, 754
1280, 756, 729, 696
1281, 757, 696, 728
1282, 781, 728, 759
1283, 810, 807, 809
1284, 758, 746, 730
1285, 758, 729, 756
1286, 759, 728, 658
1287, 784, 783, 579
1288, 760, 579, 604
1289, 800, 778, 751
1290, 761, 732, 735
1291, 763, 735, 736
1292, 803, 754, 731
1293, 803, 731, 762
1294, 765, 736, 733
1295, 797, 791, 789
1296, 764, 733, 734
1297, 766, 734, 737
1298, 765, 763, 736
1299, 765, 733, 764
1300, 768, 737, 740
1301, 792, 788, 766
1302, 767, 738, 739
1303, 785, 774, 756
1304, 769, 768, 740
1305, 775, 744, 771
1306, 769, 740, 738
1307, 810, 801, 807
1308, 770, 745, 742
1309, 776, 742, 749
1310, 771, 744, 743
1311, 773, 743, 747
1312, 789, 764, 788
1313, 772, 747, 745
1314, 773, 771, 743
1315, 773, 747, 772
1316, 774, 739, 704
1317, 774, 704, 746
1318, 808, 799, 775
1319, 775, 748, 744
1320, 779, 776, 749
1321, 795, 786, 787
1322, 777, 751, 717
1323, 799, 748, 775
1324, 778, 721, 751
1325, 800, 751, 777
1326, 779, 749, 750
1327, 804, 802, 782
1328, 780, 756, 757
1329, 801, 757, 781
1330, 781, 757, 728
1331, 805, 759, 784
1332, 782, 752, 755
1333, 803, 786, 782
1334, 783, 619, 579
1335, 784, 579, 760
1336, 805, 760, 800
1337, 784, 759, 783
1338, 785, 767, 739
1339, 785, 739, 774
1340, 786, 762, 761
1341, 787, 761, 763
1342, 790, 763, 765
1343, 795, 787, 790
1344, 788, 764, 766
1345, 792, 766, 768
1346, 791, 790, 789
1347, 789, 765, 764
1348, 790, 787, 763
1349, 790, 765, 789
1350, 791, 772, 770
1351, 795, 791, 770
1352, 794, 768, 769
1353, 798, 796, 792
1354, 808, 798, 794
1355, 806, 767, 785
1356, 794, 792, 768
1357, 794, 769, 793
1358, 795, 770, 776
1359, 804, 795, 776
1360, 796, 771, 773
1361, 797, 796, 773
1362, 797, 773, 772
1363, 797, 772, 791
1364, 798, 775, 771
1365, 798, 771, 796
1366, 799, 777, 748
1367, 808, 775, 798
1368, 800, 760, 778
1369, 809, 777, 799
1370, 801, 780, 757
1371, 807, 781, 805
1372, 802, 779, 750
1373, 802, 752, 782
1374, 803, 755, 754
1375, 803, 762, 786
1376, 804, 776, 779
1377, 804, 779, 802
1378, 805, 781, 759
1379, 805, 784, 760
1380, 806, 793, 767
1381, 806, 780, 801
1382, 809, 807, 805
1383, 807, 801, 781
1384, 808, 794, 793
1385, 810, 793, 806
1386, 809, 800, 777
1387, 810, 799, 808
1388, 810, 808, 793
1389, 810, 806, 801
1390, 811, 604, 618
1391, 812, 811, 618
1392, 812, 618, 645
1393, 812, 639, 721
1394,  979,  934,  891
1395,  993,  200,  814
1396,  888,  818,  819
1397,  814,  122,  121
1398,  916,  864,  863
1399,  815,    8,  103
1400,  934,  118,  891
1401,  891,  118,  117
1402,  892,  116,  816
1403,  816,  116,  115
1404,  896,  850,  849
1405,  818,  114,  113
1406,  817,  816,  115
1407,  818,  817,  114
1408,  820,  819,  112
1409,  889,  820,  822
1410,  821,  160,  813
1411,  822,  820,  111
1412,  823,  822,  110
1413,  824,    9,  158
1414,  825,  161,  162
1415,  887,  823,  826
1416,   87,    7,  163
1417,  848,  163,  164
1418,  915,  869,  870
1419,  929,  882,  874
1420,  969,  925,  926
1421,  875,  874,  844
1422,  925,  876,  877
1423,  878,  877,  841
1424,  910,   93,  866
1425,  910,   94,   93
1426,  860,   96,   95
1427,  858,   97,   96
1428,  828,   98,  827
1429,  828,   99,   98
1430,  861,  828,  827
1431,  830,  100,  829
1432,  832,  103,  102
1433,  181,  180,   12
1434,  833,  180,  181
1435,  857,  183,  856
1436,  921,  884,  885
1437,  835,  177,  834
1438,  836,  176,  835
1439,  837,  175,  836
1440,  838,  174,  837
1441,  839,  173,  838
1442,  840,  172,  839
1443,  841,  171,  840
1444,  842,  170,  841
1445,  843,  169,  842
1446,  844,  168,  843
1447,  845,  167,  844
1448,  846,  166,  845
1449,  847,  165,  846
1450,  848,  164,  847
1451,  200,   10,  122
1452,  814,  200,  122
1453,  993,  944,  199
1454, 1078, 1007,  986
1455,  945,  198,  944
1456,  988,  986,  893
1457,  892,  891,  117
1458, 1031,  988,  979
1459,  899,  195,  898
1460,  899,  194,  195
1461,  900,  194,  899
1462,  895,  191,  192
1463,  850,  190,  849
1464,  852,  188,  851
1465,  853,  187,  852
1466,  854,  186,  853
1467,  855,  185,  854
1468,  906,  902,  855
1469,  856,  184,  855
1470, 1005,  181,  182
1471,  813,  160,  161
1472,  825,  162,  815
1473,  935,  120,  893
1474,  893,  120,  119
1475,  815,  162,    8
1476,  832,  102,  831
1477,  817,  115,  114
1478,  850,  189,  190
1479,  819,  113,  112
1480, 1010, 1008,  957
1481,  819,  818,  113
1482,  939,  938,  886
1483,  820,  112,  111
1484,  987,  939,  889
1485,  822,  111,  110
1486,  887,  822,  823
1487,  821,  159,  160
1488, 1027,  916,  963
1489,  823,  110,  109
1490,  826,  824,  158
1491,  824,  823,  109
1492,  826,  159,  821
1493,  824,  109,    9
1494,  826,  158,  159
1495,  831,  101,  830
1496,  825,  813,  161
1497, 1183, 1096, 1051
1498,  826,  823,  824
1499,  827,   98,   97
1500,  879,  838,  837
1501,  862,  828,  861
1502,  829,   99,  828
1503,  862,  829,  828
1504,  829,  100,   99
1505,  864,  830,  863
1506,  830,  101,  100
1507,  865,  831,  864
1508,  831,  102,  101
1509,  832,  825,  815
1510,  832,  815,  103
1511,  872,  834,  178
1512,  833,  179,  180
1513,  834,  177,  178
1514,  872,  178,  179
1515,  952,  903,  951
1516,  835,  176,  177
1517,  905,  851,  850
1518,  836,  175,  176
1519,  984,  936,  983
1520,  837,  174,  175
1521, 1026, 1018,  978
1522,  838,  173,  174
1523,  909,  858,  860
1524,  839,  172,  173
1525,  877,  876,  842
1526,  840,  171,  172
1527,  867,   92,   91
1528,  841,  170,  171
1529,  867,  866,   92
1530,  842,  169,  170
1531,  868,  867,   91
1532,  843,  168,  169
1533,  869,  868,   90
1534,  844,  167,  168
1535,  882,  845,  874
1536,  845,  166,  167
1537,  870,  869,   89
1538,  846,  165,  166
1539,  873,  847,  846
1540,  847,  164,  165
1541,  871,   87,  848
1542,  848,   87,  163
1543,  849,  190,  191
1544,  948,  900,  947
1545,  905,  850,  896
1546,  851,  189,  850
1547,  883,  879,  837
1548,  851,  188,  189
1549,  884,  883,  836
1550,  852,  187,  188
1551,  885,  884,  835
1552,  853,  186,  187
1553,  921,  920,  884
1554,  854,  185,  186
1555,  989,  980,  932
1556,  855,  184,  185
1557,  907,  857,  856
1558,  856,  183,  184
1559, 1005,  857,  941
1560,  857,  182,  183
1561,  858,  827,   97
1562,  913,  909,  860
1563,  859,   95,   94
1564,  876,  875,  843
1565,  860,  858,   96
1566,  860,   95,  859
1567, 1035,  939,  987
1568,  919,  827,  858
1569,  917,  916,  863
1570,  863,  829,  862
1571, 1006,  864,  916
1572,  863,  830,  829
1573,  865,  832,  831
1574,  864,  831,  830
1575, 1038,  825,  865
1576,  865,  825,  832
1577,  866,   93,   92
1578,  912,  867,  868
1579,  868,   91,   90
1580,  967,  959,  915
1581,  869,   90,   89
1582,  915,  870,  908
1583,  870,   89,   88
1584,  915,  911,  869
1585,  871,  870,   88
1586,  908,  848,  847
1587,  871,   88,   87
1588,  908,  871,  848
1589,  872,  179,  833
1590,  941,  857,  907
1591,  882,  846,  845
1592,  874,  845,  844
1593,  875,  844,  843
1594,  876,  843,  842
1595,  877,  842,  841
1596, 1014,  914,  961
1597,  878,  841,  840
1598,  926,  878,  924
1599,  881,  840,  839
1600,  926,  925,  877
1601,  880,  838,  879
1602,  958,  957,  909
1603,  883,  837,  836
1604,  937,  894,  936
1605,  881,  839,  880
1606,  880,  839,  838
1607,  894,  890,  817
1608,  881,  878,  840
1609,  931,  882,  929
1610,  882,  873,  846
1611,  884,  836,  835
1612,  897,  854,  853
1613,  885,  835,  834
1614,  906,  854,  897
1615,  932,  834,  872
1616,  902,  856,  855
1617,  888,  819,  886
1618,  886,  819,  820
1619, 1183,  826,  821
1620, 1027, 1006,  916
1621,  924,  881,  922
1622,  894,  818,  888
1623,  889,  886,  820
1624,  889,  822,  887
1625,  890,  816,  817
1626,  894,  817,  818
1627,  943,  196,  197
1628,  892,  117,  116
1629,  940,  816,  890
1630,  940,  933,  892
1631, 1070, 1031, 1034
1632,  934,  119,  118
1633,  973,  922,  968
1634, 1073,  981, 1035
1635,  895,  849,  191
1636,  901,  192,  193
1637,  903,  897,  853
1638,  942,  849,  895
1639,  903,  853,  852
1640,  904,  852,  851
1641,  991,  898,  943
1642,  898,  195,  196
1643, 1080,  994, 1039
1644,  900,  193,  194
1645,  947,  899,  946
1646,  901,  193,  900
1647,  947,  900,  899
1648,  901,  895,  192
1649, 1028,  955, 1000
1650,  906,  855,  854
1651,  904,  903,  852
1652,  997,  950,  949
1653,  905,  904,  851
1654,  950,  905,  949
1655,  949,  905,  896
1656,  951,  904,  950
1657, 1083, 1043, 1041
1658,  953,  897,  952
1659,  989,  955,  980
1660,  907,  856,  902
1661,  908,  870,  871
1662,  908,  847,  873
1663,  957,  919,  909
1664,  913,  860,  859
1665,  910,  859,   94
1666,  914,  866,  867
1667,  912,  868,  911
1668,  911,  868,  869
1669,  930,  875,  927
1670,  914,  867,  912
1671,  965,  859,  910
1672,  927,  876,  925
1673,  964,  866,  914
1674,  930,  929,  874
1675,  967,  908,  873
1676,  977,  959,  931
1677,  917,  863,  862
1678,  918,  862,  861
1679,  918,  917,  862
1680,  962,  917,  918
1681,  966,  861,  919
1682, 1055, 1052, 1008
1683,  919,  861,  827
1684,  919,  858,  909
1685,  923,  883,  920
1686,  920,  883,  884
1687,  980,  885,  932
1688,  954,  906,  953
1689,  922,  881,  880
1690,  928,  880,  879
1691,  923,  879,  883
1692,  999,  951,  950
1693,  938,  936,  888
1694,  924,  878,  881
1695, 1025,  977,  970
1696,  926,  877,  878
1697, 1061, 1060, 1017
1698,  975,  927,  972
1699,  970,  929,  930
1700,  927,  875,  876
1701,  928,  922,  880
1702,  928,  879,  923
1703,  977,  931,  929
1704,  930,  874,  875
1705,  972,  927,  925
1706, 1012, 1011,  960
1707,  967,  931,  959
1708,  931,  873,  882
1709,  932,  885,  834
1710,  941,  932,  872
1711,  933,  891,  892
1712,  985,  982,  940
1713,  934,  893,  119
1714,  979,  891,  933
1715,  935,  814,  121
1716,  935,  121,  120
1717,  936,  894,  888
1718,  938,  888,  886
1719, 1039,  946,  991
1720,  937,  890,  894
1721,  939,  886,  889
1722,  963,  917,  962
1723,  987,  889,  887
1724, 1184, 1126, 1161
1725,  940,  892,  816
1726,  985,  890,  937
1727,  941,  872,  833
1728, 1005,  941,  833
1729,  942,  896,  849
1730,  956,  895,  901
1731,  943,  898,  196
1732,  945,  197,  198
1733,  944,  198,  199
1734, 1007,  814,  935
1735,  986,  935,  893
1736,  945,  943,  197
1737,  946,  899,  898
1738, 1093, 1082, 1075
1739, 1149, 1081, 1119
1740,  948,  901,  900
1741,  995,  948,  947
1742,  995,  947,  994
1743,  976,  928,  923
1744,  990,  896,  942
1745,  996,  953,  952
1746,  950,  904,  905
1747, 1028,  980,  955
1748,  951,  903,  904
1749, 1018, 1017,  976
1750,  952,  897,  903
1751,  998,  953,  996
1752,  953,  906,  897
1753, 1042, 1028, 1000
1754,  954,  902,  906
1755,  955,  907,  902
1756,  955,  902,  954
1757,  956,  942,  895
1758,  956,  901,  948
1759, 1008,  966,  957
1760,  958,  909,  913
1761, 1009,  965,  964
1762,  972,  925,  969
1763,  960,  911,  959
1764,  959,  911,  915
1765,  961,  912,  960
1766,  960,  912,  911
1767, 1014, 1009,  964
1768,  961,  914,  912
1769, 1013,  963,  962
1770, 1016,  918,  966
1771, 1204, 1184, 1161
1772,  963,  916,  917
1773,  965,  910,  964
1774,  964,  910,  866
1775, 1015,  913,  965
1776,  965,  913,  859
1777,  966,  918,  861
1778,  966,  919,  957
1779,  967,  915,  908
1780,  967,  873,  931
1781, 1171, 1140, 1145
1782,  968,  922,  928
1783,  974,  926,  924
1784,  974,  924,  973
1785,  975,  930,  927
1786, 1113, 1068, 1111
1787,  978,  920,  971
1788,  971,  920,  921
1789, 1022,  974, 1020
1790, 1100, 1057, 1069
1791,  973,  924,  922
1792, 1019,  968, 1017
1793, 1020,  973, 1019
1794,  974,  969,  926
1795, 1065, 1021, 1023
1796,  975,  970,  930
1797,  976,  968,  928
1798,  978,  976,  923
1799, 1012,  959,  977
1800,  977,  929,  970
1801,  978,  923,  920
1802, 1047, 1001, 1043
1803,  988,  934,  979
1804, 1034,  933,  982
1805,  980,  921,  885
1806,  989,  932,  941
1807,  983,  938,  981
1808,  981,  938,  939
1809,  982,  933,  940
1810, 1036, 1030,  985
1811, 1032,  983, 1029
1812,  983,  936,  938
1813, 1218, 1210, 1188
1814,  984,  937,  936
1815,  985,  940,  890
1816, 1036,  937,  984
1817, 1007,  992,  944
1818,  988,  893,  934
1819, 1051,  887,  826
1820, 1183, 1091, 1096
1821, 1125, 1119, 1080
1822, 1078, 1046,  992
1823,  989,  941,  907
1824,  989,  907,  955
1825,  990,  949,  896
1826, 1004,  942,  956
1827,  991,  946,  898
1828, 1002,  943,  945
1829,  992,  945,  944
1830, 1033,  988, 1031
1831,  993,  199,  200
1832, 1007,  993,  814
1833,  994,  947,  946
1834, 1082, 1046, 1075
1835, 1226, 1221, 1225
1836, 1003,  948,  995
1837, 1001,  952,  951
1838,  999,  950,  997
1839, 1041,  999,  997
1840, 1037,  949,  990
1841, 1042, 1026,  971
1842,  998,  954,  953
1843, 1018,  976,  978
1844, 1001,  951,  999
1845, 1000,  955,  954
1846, 1000,  954,  998
1847, 1043,  999, 1041
1848, 1001,  996,  952
1849, 1002,  991,  943
1850, 1002,  945,  992
1851, 1044,  995, 1040
1852, 1003,  956,  948
1853, 1004,  990,  942
1854, 1004,  956, 1003
1855, 1005,  833,  181
1856, 1005,  182,  857
1857, 1038,  865, 1006
1858, 1006,  865,  864
1859, 1007,  944,  993
1860, 1007,  935,  986
1861, 1052, 1016, 1008
1862, 1010,  957,  958
1863, 1056, 1054, 1009
1864, 1054, 1015, 1009
1865, 1058,  958, 1015
1866, 1024,  969, 1022
1867, 1011,  961,  960
1868, 1021,  970,  975
1869, 1012,  960,  959
1870, 1025, 1012,  977
1871, 1059,  962, 1016
1872, 1107, 1061, 1064
1873, 1014,  964,  914
1874, 1057,  961, 1011
1875, 1015,  958,  913
1876, 1015,  965, 1009
1877, 1016,  962,  918
1878, 1016,  966, 1008
1879, 1017,  968,  976
1880, 1061, 1017, 1018
1881, 1026,  978,  971
1882, 1047, 1045,  996
1883, 1152, 1123, 1151
1884, 1019,  973,  968
1885, 1063, 1019, 1060
1886, 1020,  974,  973
1887, 1023,  975,  972
1888, 1148, 1100, 1138
1889, 1194, 1173, 1172
1890, 1022,  969,  974
1891, 1023, 1021,  975
1892, 1024, 1023,  972
1893, 1024,  972,  969
1894, 1066, 1020, 1063
1895, 1025, 1011, 1012
1896, 1025,  970, 1021
1897, 1042,  971, 1028
1898, 1047,  996, 1001
1899, 1053,  963, 1013
1900, 1094, 1091, 1092
1901, 1028,  971,  921
1902, 1028,  921,  980
1903, 1072, 1032, 1029
1904, 1029,  983,  981
1905, 1030,  982,  985
1906, 1074, 1071, 1036
1907, 1034, 1031,  979
1908, 1088, 1049, 1082
1909, 1119, 1040, 1080
1910, 1032,  984,  983
1911, 1078, 1033, 1046
1912, 1033,  986,  988
1913, 1034,  979,  933
1914, 1076,  982, 1030
1915, 1035,  981,  939
1916, 1062,  987, 1051
1917, 1036,  985,  937
1918, 1074,  984, 1032
1919, 1037,  997,  949
1920, 1050,  990, 1004
1921, 1092,  825, 1038
1922, 1077, 1006, 1027
1923, 1039,  994,  946
1924, 1049,  991, 1002
1925, 1040,  995,  994
1926, 1177, 1137, 1154
1927, 1079,  997, 1037
1928, 1151, 1121, 1150
1929, 1042, 1000,  998
1930, 1045,  998,  996
1931, 1064, 1061, 1018
1932, 1043, 1001,  999
1933, 1048, 1003, 1044
1934, 1044, 1003,  995
1935, 1090, 1042, 1045
1936, 1045, 1042,  998
1937, 1046, 1002,  992
1938, 1075, 1031, 1070
1939, 1107, 1064, 1086
1940, 1085, 1043, 1083
1941, 1084, 1044, 1081
1942, 1048, 1004, 1003
1943, 1049, 1039,  991
1944, 1049, 1002, 1046
1945, 1050, 1037,  990
1946, 1050, 1004, 1048
1947, 1051,  987,  887
1948, 1091,  821,  813
1949, 1099, 1097, 1052
1950, 1055, 1008, 1010
1951, 1053, 1027,  963
1952, 1102, 1053, 1013
1953, 1098, 1058, 1054
1954, 1056, 1009, 1014
1955, 1103, 1010, 1058
1956, 1067, 1022, 1066
1957, 1057, 1056, 1014
1958, 1069, 1021, 1065
1959, 1057, 1014,  961
1960, 1069, 1011, 1025
1961, 1058, 1010,  958
1962, 1058, 1015, 1054
1963, 1059, 1013,  962
1964, 1059, 1016, 1052
1965, 1060, 1019, 1017
1966, 1155, 1133, 1105
1967, 1064, 1018, 1026
1968, 1157, 1122, 1155
1969, 1128, 1077, 1095
1970, 1062, 1035,  987
1971, 1157, 1155, 1107
1972, 1063, 1020, 1019
1973, 1090, 1064, 1026
1974, 1086, 1045, 1047
1975, 1068, 1023, 1024
1976, 1109, 1063, 1106
1977, 1111, 1068, 1067
1978, 1066, 1022, 1020
1979, 1205, 1190, 1186
1980, 1067, 1024, 1022
1981, 1068, 1065, 1023
1982, 1068, 1024, 1067
1983, 1069, 1057, 1011
1984, 1069, 1025, 1021
1985, 1076, 1070, 1034
1986, 1110, 1093, 1070
1987, 1071, 1030, 1036
1988, 1116, 1114, 1074
1989, 1115, 1029, 1073
1990, 1104, 1059, 1097
1991, 1073, 1029,  981
1992, 1108, 1035, 1062
1993, 1074, 1036,  984
1994, 1116, 1032, 1072
1995, 1075, 1046, 1033
1996, 1075, 1033, 1031
1997, 1076, 1034,  982
1998, 1117, 1030, 1071
1999, 1077, 1038, 1006
2000, 1095, 1027, 1053
2001, 1078,  992, 1007
2002, 1078,  986, 1033
2003, 1079, 1041,  997
2004, 1089, 1037, 1050
2005, 1080, 1040,  994
2006, 1088, 1039, 1049
2007, 1081, 1044, 1040
2008, 1168, 1154, 1137
2009, 1082, 1049, 1046
2010, 1093, 1075, 1070
2011, 1118, 1041, 1079
2012, 1186, 1167, 1162
2013, 1087, 1048, 1084
2014, 1084, 1048, 1044
2015, 1107, 1105, 1061
2016, 1085, 1047, 1043
2017, 1090, 1086, 1064
2018, 1086, 1047, 1085
2019, 1123, 1087, 1121
2020, 1087, 1050, 1048
2021, 1093, 1088, 1082
2022, 1088, 1080, 1039
2023, 1089, 1079, 1037
2024, 1089, 1050, 1087
2025, 1090, 1026, 1042
2026, 1090, 1045, 1086
2027, 1092, 1091,  813
2028, 1094, 1038, 1077
2029, 1092,  813,  825
2030, 1094, 1092, 1038
2031, 1110, 1070, 1076
2032, 1117, 1110, 1076
2033, 1095, 1077, 1027
2034, 1158, 1156, 1128
2035, 1126, 1053, 1102
2036, 1127, 1108, 1062
2037, 1096, 1062, 1051
2038, 1156, 1091, 1094
2039, 1097, 1059, 1052
2040, 1099, 1052, 1055
2041, 1130, 1103, 1098
2042, 1101, 1054, 1056
2043, 1134, 1055, 1103
2044, 1112, 1066, 1109
2045, 1100, 1056, 1057
2046, 1138, 1069, 1065
2047, 1101, 1098, 1054
2048, 1101, 1056, 1100
2049, 1135, 1104, 1131
2050, 1104, 1102, 1013
2051, 1103, 1055, 1010
2052, 1103, 1058, 1098
2053, 1104, 1013, 1059
2054, 1131, 1097, 1129
2055, 1106, 1060, 1105
2056, 1105, 1060, 1061
2057, 1136, 1106, 1133
2058, 1106, 1063, 1060
2059, 1157, 1086, 1085
2060, 1122, 1085, 1083
2061, 1108, 1073, 1035
2062, 1127, 1062, 1096
2063, 1141, 1112, 1139
2064, 1109, 1066, 1063
2065, 1177, 1154, 1125
2066, 1137, 1110, 1117
2067, 1132, 1130, 1098
2068, 1112, 1111, 1067
2069, 1112, 1067, 1066
2070, 1139, 1109, 1136
2071, 1196, 1142, 1159
2072, 1113, 1065, 1068
2073, 1114, 1071, 1074
2074, 1140, 1114, 1116
2075, 1115, 1072, 1029
2076, 1143, 1073, 1108
2077, 1116, 1074, 1032
2078, 1175, 1115, 1143
2079, 1117, 1076, 1030
2080, 1146, 1071, 1114
2081, 1118, 1083, 1041
2082, 1124, 1079, 1089
2083, 1119, 1081, 1040
2084, 1125, 1080, 1088
2085, 1121, 1084, 1120
2086, 1120, 1084, 1081
2087, 1227, 1224, 1217
2088, 1121, 1087, 1084
2089, 1147, 1083, 1118
2090, 1182, 1153, 1181
2091, 1124, 1089, 1123
2092, 1123, 1089, 1087
2093, 1152, 1124, 1123
2094, 1124, 1118, 1079
2095, 1125, 1088, 1093
2096, 1177, 1093, 1110
2097, 1126, 1095, 1053
2098, 1161, 1102, 1135
2099, 1156, 1127, 1096
2100, 1158, 1128, 1095
2101, 1128, 1094, 1077
2102, 1158, 1095, 1126
2103, 1129, 1097, 1099
2104, 1169, 1099, 1134
2105, 1165, 1163, 1130
2106, 1132, 1098, 1101
2107, 1174, 1171, 1145
2108, 1131, 1104, 1097
2109, 1196, 1159, 1148
2110, 1142, 1111, 1141
2111, 1133, 1106, 1105
2112, 1162, 1155, 1122
2113, 1134, 1099, 1055
2114, 1134, 1103, 1130
2115, 1204, 1189, 1197
2116, 1135, 1102, 1104
2117, 1170, 1136, 1167
2118, 1136, 1109, 1106
2119, 1146, 1137, 1117
2120, 1203, 1154, 1168
2121, 1138, 1100, 1069
2122, 1138, 1065, 1113
2123, 1172, 1139, 1170
2124, 1139, 1112, 1109
2125, 1191, 1168, 1176
2126, 1145, 1116, 1072
2127, 1173, 1141, 1172
2128, 1141, 1111, 1112
2129, 1196, 1148, 1138
2130, 1142, 1113, 1111
2131, 1143, 1115, 1073
2132, 1160, 1108, 1127
2133, 1144, 1072, 1115
2134, 1166, 1131, 1164
2135, 1145, 1140, 1116
2136, 1145, 1072, 1144
2137, 1146, 1117, 1071
2138, 1176, 1114, 1140
2139, 1147, 1122, 1083
2140, 1153, 1118, 1124
2141, 1148, 1132, 1101
2142, 1148, 1101, 1100
2143, 1149, 1120, 1081
2144, 1154, 1149, 1119
2145, 1150, 1121, 1120
2146, 1178, 1120, 1149
2147, 1180, 1151, 1179
2148, 1151, 1123, 1121
2149, 1181, 1152, 1180
2150, 1153, 1124, 1152
2151, 1201, 1180, 1200
2152, 1153, 1147, 1118
2153, 1154, 1119, 1125
2154, 1168, 1137, 1146
2155, 1155, 1105, 1107
2156, 1208, 1122, 1147
2157, 1156, 1096, 1091
2158, 1156, 1094, 1128
2159, 1157, 1107, 1086
2160, 1157, 1085, 1122
2161, 1184, 1158, 1126
2162, 1158, 1127, 1156
2163, 1165, 1132, 1159
2164, 1159, 1132, 1148
2165, 1160, 1143, 1108
2166, 1160, 1127, 1158
2167, 1161, 1126, 1102
2168, 1189, 1135, 1166
2169, 1167, 1133, 1162
2170, 1162, 1133, 1155
2171, 1209, 1163, 1165
2172, 1163, 1134, 1130
2173, 1164, 1131, 1129
2174, 1193, 1129, 1169
2175, 1165, 1130, 1132
2176, 1185, 1142, 1173
2177, 1210, 1189, 1166
2178, 1166, 1135, 1131
2179, 1167, 1136, 1133
2180, 1202, 1182, 1181
2181, 1176, 1168, 1146
2182, 1203, 1191, 1178
2183, 1169, 1129, 1099
2184, 1169, 1134, 1163
2185, 1192, 1170, 1190
2186, 1170, 1139, 1136
2187, 1199, 1178, 1191
2188, 1174, 1145, 1144
2189, 1194, 1185, 1173
2190, 1172, 1141, 1139
2191, 1185, 1159, 1142
2192, 1173, 1142, 1141
2193, 1197, 1144, 1175
2194, 1213, 1197, 1210
2195, 1175, 1144, 1115
2196, 1184, 1175, 1143
2197, 1176, 1146, 1114
2198, 1198, 1140, 1171
2199, 1177, 1125, 1093
2200, 1177, 1110, 1137
2201, 1178, 1150, 1120
2202, 1203, 1178, 1149
2203, 1179, 1151, 1150
2204, 1199, 1150, 1178
2205, 1206, 1193, 1187
2206, 1180, 1152, 1151
2207, 1208, 1186, 1162
2208, 1181, 1153, 1152
2209, 1208, 1182, 1186
2210, 1182, 1147, 1153
2211, 1183, 1051,  826
2212, 1183,  821, 1091
2213, 1184, 1143, 1160
2214, 1184, 1160, 1158
2215, 1209, 1165, 1185
2216, 1185, 1165, 1159
2217, 1220, 1212, 1219
2218, 1190, 1167, 1186
2219, 1222, 1187, 1209
2220, 1187, 1169, 1163
2221, 1188, 1166, 1164
2222, 1212, 1164, 1193
2223, 1189, 1161, 1135
2224, 1210, 1197, 1189
2225, 1190, 1170, 1167
2226, 1217, 1202, 1201
2227, 1198, 1191, 1176
2228, 1214, 1198, 1171
2229, 1211, 1194, 1192
2230, 1192, 1172, 1170
2231, 1193, 1164, 1129
2232, 1193, 1169, 1187
2233, 1222, 1194, 1211
2234, 1194, 1172, 1192
2235, 1223, 1215, 1199
2236, 1195, 1171, 1174
2237, 1196, 1138, 1113
2238, 1196, 1113, 1142
2239, 1197, 1174, 1144
2240, 1204, 1197, 1175
2241, 1198, 1176, 1140
2242, 1223, 1214, 1215
2243, 1199, 1179, 1150
2244, 1223, 1191, 1198
2245, 1200, 1180, 1179
2246, 1225, 1214, 1195
2247, 1205, 1186, 1202
2248, 1201, 1181, 1180
2249, 1202, 1186, 1182
2250, 1202, 1181, 1201
2251, 1203, 1149, 1154
2252, 1203, 1168, 1191
2253, 1204, 1175, 1184
2254, 1204, 1161, 1189
2255, 1226, 1216, 1221
2256, 1207, 1190, 1205
2257, 1224, 1211, 1207
2258, 1224, 1219, 1211
2259, 1207, 1192, 1190
2260, 1217, 1201, 1216
2261, 1208, 1162, 1122
2262, 1208, 1147, 1182
2263, 1209, 1187, 1163
2264, 1209, 1185, 1194
2265, 1210, 1166, 1188
2266, 1218, 1213, 1210
2267, 1222, 1211, 1206
2268, 1211, 1192, 1207
2269, 1212, 1188, 1164
2270, 1212, 1193, 1206
2271, 1213, 1195, 1174
2272, 1213, 1174, 1197
2273, 1214, 1171, 1195
2274, 1225, 1221, 1215
2275, 1215, 1200, 1179
2276, 1215, 1179, 1199
2277, 1216, 1201, 1200
2278, 1221, 1200, 1215
2279, 1217, 1207, 1205
2280, 1217, 1205, 1202
2281, 1218, 1195, 1213
2282, 1227, 1220, 1219
2283, 1219, 1212, 1206
2284, 1219, 1206, 1211
2285, 1220, 1218, 1188
2286, 1220, 1188, 1212
2287, 1221, 1216, 1200
2288, 1225, 1215, 1214
2289, 1222, 1206, 1187
2290, 1222, 1209, 1194
2291, 1223, 1199, 1191
2292, 1223, 1198, 1214
2293, 1224, 1207, 1217
2294, 1227, 1217, 1216
2295, 1225, 1195, 1218
2296, 1226, 1225, 1218
2297, 1226, 1218, 1220
2298, 1227, 1226, 1220
2299, 1227, 1219, 1224
2300, 1227, 1216, 1226
*Orientation, name=Ori-1
1., 0., 0., 0., 1., 0.
3, 0.
** Region: (CompositeLayup-1-1: Generated From Layup)
*Elset, elset=CompositeLayup-1-1, generate
    1,  2300,     1
** Section: CompositeLayup-1-1
*Shell Section, elset=CompositeLayup-1-1, composite, orientation=Ori-1, layup=CompositeLayup-1, symmetric
0.25, 3, CFRP, 0., Ply-1
0.25, 3, CFRP, 45., Ply-2
0.25, 3, CFRP, 90., Ply-3
0.25, 3, CFRP, -45., Ply-4
*End Part
**  
**
** ASSEMBLY
**
*Assembly, name=Assembly
**  
*Instance, name=Plate-1, part=PLATE
*End Instance
**  
*Nset, nset=Set-1, instance=Plate-1
   6,   7,  12,  76,  77,  78,  79,  80,  81,  82,  83,  84,  85,  86, 163, 164
 165, 166, 167, 168, 169, 170, 171, 172, 173, 174, 175, 176, 177, 178, 179, 180
*Elset, elset=Set-1, instance=Plate-1
  338,  339,  358,  363,  430,  434,  437,  439,  441,  443,  486,  492, 1416, 1417, 1433, 1512
 1513, 1514, 1516, 1518, 1520, 1522, 1524, 1526, 1528, 1530, 1532, 1534, 1536, 1538, 1540
*Nset, nset=Set-2, instance=Plate-1
   4,   5,  11,  33,  34,  35,  36,  37,  38,  39,  40,  41,  42,  43, 135, 136
 137, 138, 139, 140, 141, 142, 143, 144, 145, 146, 147, 148, 149, 150, 151, 152
*Elset, elset=Set-2, instance=Plate-1
  16,  17,  24,  27,  28,  76,  82,  84,  86,  88,  90,  92, 882, 883, 894, 924
 925, 962, 964, 965, 967, 969, 971, 973, 975, 980, 983, 985, 987, 989, 991
*End Assembly
** 
** MATERIALS
** 
*Material, name=CFRP
*Elastic, type=ENGINEERING CONSTANTS
150000.,9000.,9000., 0.34, 0.34,  0.4,5000.,5000.
5000.,
** ----------------------------------------------------------------
** 
** STEP: Step-1
** 
*Step, name=Step-1, nlgeom=NO
*Static
1., 1., 1e-05, 1.
** 
** BOUNDARY CONDITIONS
** 
** Name: BC-1 Type: Symmetry/Antisymmetry/Encastre
*Boundary
Set-1, ENCASTRE
** Name: DISPLACEMENT Type: Displacement/Rotation
*Boundary
Set-2, 1, 1, 1.05263
** 
** OUTPUT REQUESTS
** 
*Restart, write, frequency=0
** 
** FIELD OUTPUT: F-Output-1
** 
*Output, field
*Element Output, position=NODES, directions=YES
E, 
** 
** HISTORY OUTPUT: H-Output-1
** 
*Output, history, variable=PRESELECT
*End Step
