*Heading
 Elastic fabric composite plate with hole
** Job name: Plate_492 Model name: Model-1
** Generated by: Abaqus/CAE 2024.HF3
*Preprint, echo=NO, model=NO, history=NO, contact=NO
**
** PARTS
**
*Part, name=PLATE
*Node
      1,   70.3865509,   181.546143,           0.
      2,   70.3865509,   144.150879,           0.
      3,   87.4551239,   127.082298,           0.
      4,   100.552208,   127.082298,           0.
      5,   100.552208,   181.546143,           0.
      6,           0.,   181.546143,           0.
      7,           0.,   127.082298,           0.
      8,   53.3179741,   127.082298,           0.
      9,   70.3865509,   110.013725,           0.
     10,   70.3865509,           0.,           0.
     11,   100.552208,           0.,           0.
     12,           0.,           0.,           0.
     13,   70.3865509,   177.391113,           0.
     14,   70.3865509,   173.236084,           0.
     15,   70.3865509,   169.081055,           0.
     16,   70.3865509,   164.926025,           0.
     17,   70.3865509,   160.770996,           0.
     18,   70.3865509,   156.615967,           0.
     19,   70.3865509,   152.460938,           0.
     20,   70.3865509,   148.305908,           0.
     21,   74.8042221,   143.569275,           0.
     22,   78.9208374,    141.86412,           0.
     23,   82.4558487,   139.151611,           0.
     24,   85.1683655,   135.616592,           0.
     25,   86.8735275,   131.499969,           0.
     26,    91.820816,   127.082298,           0.
     27,   96.1865158,   127.082298,           0.
     28,   100.552208,    131.27182,           0.
     29,   100.552208,   135.461349,           0.
     30,   100.552208,   139.650879,           0.
     31,   100.552208,   143.840408,           0.
     32,   100.552208,   148.029938,           0.
     33,   100.552208,   152.219452,           0.
     34,   100.552208,   156.408981,           0.
     35,   100.552208,   160.598511,           0.
     36,   100.552208,    164.78804,           0.
     37,   100.552208,    168.97757,           0.
     38,   100.552208,   173.167084,           0.
     39,   100.552208,   177.356613,           0.
     40,   96.2428284,   181.546143,           0.
     41,   91.9334488,   181.546143,           0.
     42,   87.6240692,   181.546143,           0.
     43,   83.3146896,   181.546143,           0.
     44,   79.0053101,   181.546143,           0.
     45,   74.6959305,   181.546143,           0.
     46,   66.2461624,   181.546143,           0.
     47,   62.1057777,   181.546143,           0.
     48,   57.9653931,   181.546143,           0.
     49,   53.8250084,   181.546143,           0.
     50,   49.6846237,   181.546143,           0.
     51,   45.5442352,   181.546143,           0.
     52,   41.4038506,   181.546143,           0.
     53,   37.2634659,   181.546143,           0.
     54,   33.1230812,   181.546143,           0.
     55,   28.9826965,   181.546143,           0.
     56,   24.8423119,   181.546143,           0.
     57,   20.7019253,   181.546143,           0.
     58,   16.5615406,   181.546143,           0.
     59,   12.4211559,   181.546143,           0.
     60,    8.2807703,   181.546143,           0.
     61,   4.14038515,   181.546143,           0.
     62,           0.,   177.356613,           0.
     63,           0.,   173.167084,           0.
     64,           0.,    168.97757,           0.
     65,           0.,    164.78804,           0.
     66,           0.,   160.598511,           0.
     67,           0.,   156.408981,           0.
     68,           0.,   152.219452,           0.
     69,           0.,   148.029938,           0.
     70,           0.,   143.840408,           0.
     71,           0.,   139.650879,           0.
     72,           0.,   135.461349,           0.
     73,           0.,    131.27182,           0.
     74,   4.10138273,   127.082298,           0.
     75,   8.20276546,   127.082298,           0.
     76,   12.3041477,   127.082298,           0.
     77,   16.4055309,   127.082298,           0.
     78,   20.5069141,   127.082298,           0.
     79,   24.6082954,   127.082298,           0.
     80,   28.7096786,   127.082298,           0.
     81,   32.8110619,   127.082298,           0.
     82,   36.9124451,   127.082298,           0.
     83,   41.0138283,   127.082298,           0.
     84,   45.1152077,   127.082298,           0.
     85,   49.2165909,   127.082298,           0.
     86,   53.8995705,   131.499969,           0.
     87,   55.6047287,   135.616592,           0.
     88,   58.3172455,   139.151611,           0.
     89,   61.8522606,    141.86412,           0.
     90,   65.9688797,   143.569275,           0.
     91,   70.3865509,   105.782433,           0.
     92,   70.3865509,   101.551132,           0.
     93,   70.3865509,   97.3198318,           0.
     94,   70.3865509,   93.0885391,           0.
     95,   70.3865509,   88.8572388,           0.
     96,   70.3865509,    84.625946,           0.
     97,   70.3865509,   80.3946457,           0.
     98,   70.3865509,    76.163353,           0.
     99,   70.3865509,   71.9320526,           0.
    100,   70.3865509,   67.7007523,           0.
    101,   70.3865509,   63.4694595,           0.
    102,   70.3865509,   59.2381592,           0.
    103,   70.3865509,   55.0068626,           0.
    104,   70.3865509,   50.7755661,           0.
    105,   70.3865509,   46.5442696,           0.
    106,   70.3865509,    42.312973,           0.
    107,   70.3865509,   38.0816765,           0.
    108,   70.3865509,   33.8503761,           0.
    109,   70.3865509,   29.6190796,           0.
    110,   70.3865509,   25.3877831,           0.
    111,   70.3865509,   21.1564865,           0.
    112,   70.3865509,   16.9251881,           0.
    113,   70.3865509,   12.6938915,           0.
    114,   70.3865509,   8.46259403,           0.
    115,   70.3865509,   4.23129702,           0.
    116,   74.6959305,           0.,           0.
    117,   79.0053101,           0.,           0.
    118,   83.3146896,           0.,           0.
    119,   87.6240692,           0.,           0.
    120,   91.9334488,           0.,           0.
    121,   96.2428284,           0.,           0.
    122,   100.552208,   4.09942913,           0.
    123,   100.552208,   8.19885826,           0.
    124,   100.552208,   12.2982874,           0.
    125,   100.552208,   16.3977165,           0.
    126,   100.552208,   20.4971447,           0.
    127,   100.552208,   24.5965748,           0.
    128,   100.552208,    28.696003,           0.
    129,   100.552208,    32.795433,           0.
    130,   100.552208,   36.8948631,           0.
    131,   100.552208,   40.9942894,           0.
    132,   100.552208,   45.0937195,           0.
    133,   100.552208,   49.1931496,           0.
    134,   100.552208,   53.2925758,           0.
    135,   100.552208,   57.3920059,           0.
    136,   100.552208,    61.491436,           0.
    137,   100.552208,   65.5908661,           0.
    138,   100.552208,   69.6902924,           0.
    139,   100.552208,   73.7897263,           0.
    140,   100.552208,   77.8891525,           0.
    141,   100.552208,   81.9885788,           0.
    142,   100.552208,   86.0880127,           0.
    143,   100.552208,    90.187439,           0.
    144,   100.552208,   94.2868652,           0.
    145,   100.552208,   98.3862991,           0.
    146,   100.552208,   102.485725,           0.
    147,   100.552208,   106.585152,           0.
    148,   100.552208,   110.684586,           0.
    149,   100.552208,   114.784012,           0.
    150,   100.552208,   118.883446,           0.
    151,   100.552208,   122.982872,           0.
    152,   86.8735275,   122.664627,           0.
    153,   85.1683655,   118.548012,           0.
    154,   82.4558487,   115.012993,           0.
    155,   78.9208374,   112.300484,           0.
    156,   74.8042221,   110.595322,           0.
    157,   65.9688797,   110.595322,           0.
    158,   61.8522606,   112.300484,           0.
    159,   58.3172455,   115.012993,           0.
    160,   55.6047287,   118.548012,           0.
    161,   53.8995705,   122.664627,           0.
    162,           0.,   122.982872,           0.
    163,           0.,   118.883446,           0.
    164,           0.,   114.784012,           0.
    165,           0.,   110.684586,           0.
    166,           0.,   106.585152,           0.
    167,           0.,   102.485725,           0.
    168,           0.,   98.3862991,           0.
    169,           0.,   94.2868652,           0.
    170,           0.,    90.187439,           0.
    171,           0.,   86.0880127,           0.
    172,           0.,   81.9885788,           0.
    173,           0.,   77.8891525,           0.
    174,           0.,   73.7897263,           0.
    175,           0.,   69.6902924,           0.
    176,           0.,   65.5908661,           0.
    177,           0.,    61.491436,           0.
    178,           0.,   57.3920059,           0.
    179,           0.,   53.2925758,           0.
    180,           0.,   49.1931496,           0.
    181,           0.,   45.0937195,           0.
    182,           0.,   40.9942894,           0.
    183,           0.,   36.8948631,           0.
    184,           0.,    32.795433,           0.
    185,           0.,    28.696003,           0.
    186,           0.,   24.5965748,           0.
    187,           0.,   20.4971447,           0.
    188,           0.,   16.3977165,           0.
    189,           0.,   12.2982874,           0.
    190,           0.,   8.19885826,           0.
    191,           0.,   4.09942913,           0.
    192,   4.14038515,           0.,           0.
    193,    8.2807703,           0.,           0.
    194,   12.4211559,           0.,           0.
    195,   16.5615406,           0.,           0.
    196,   20.7019253,           0.,           0.
    197,   24.8423119,           0.,           0.
    198,   28.9826965,           0.,           0.
    199,   33.1230812,           0.,           0.
    200,   37.2634659,           0.,           0.
    201,   41.4038506,           0.,           0.
    202,   45.5442352,           0.,           0.
    203,   49.6846237,           0.,           0.
    204,   53.8250084,           0.,           0.
    205,   57.9653931,           0.,           0.
    206,   62.1057777,           0.,           0.
    207,   66.2461624,           0.,           0.
    208,   74.2138443,   175.854202,           0.
    209,   82.9250717,   144.081146,           0.
    210,   89.2645187,   136.324127,           0.
    211,   90.4235382,   131.266541,           0.
    212,   86.0765152,   140.087494,           0.
    213,    74.174118,   171.318878,           0.
    214,    74.036171,   167.011581,           0.
    215,   74.0090179,   162.844742,           0.
    216,    74.048912,   158.650421,           0.
    217,   74.1200638,   154.342529,           0.
    218,   74.0552826,    149.99913,           0.
    219,   73.4996033,   146.527496,           0.
    220,   77.7463074,     146.7603,           0.
    221,    93.739006,   130.624435,           0.
    222,   96.6902084,   175.794876,           0.
    223,   96.7357864,   171.216217,           0.
    224,   96.8796463,   166.891174,           0.
    225,   96.9149933,   162.695343,           0.
    226,   96.9182739,   158.505234,           0.
    227,   96.9127655,   154.315979,           0.
    228,   96.9050827,   150.126251,           0.
    229,   96.8976974,   145.926971,           0.
    230,   96.8870926,    141.69635,           0.
    231,   96.9084015,   137.320038,           0.
    232,   81.1100998,   177.768768,           0.
    233,     85.46138,   177.728699,           0.
    234,   89.7852097,   177.717331,           0.
    235,   77.8060303,   156.409637,           0.
    236,   77.9185867,   151.856827,           0.
    237,   77.7850571,   169.165375,           0.
    238,   77.6737213,   164.970551,           0.
    239,   77.6893768,   160.751053,           0.
    240,   96.8909378,   132.750198,           0.
    241,   93.1416473,   164.811539,           0.
    242,   93.1653366,   156.454391,           0.
    243,   93.2640991,   148.018784,           0.
    244,   93.2331619,   139.235245,           0.
    245,   93.0212402,   169.031067,           0.
    246,   93.1046677,   160.643646,           0.
    247,   93.2051468,   152.248718,           0.
    248,    93.280838,   143.721542,           0.
    249,   83.1970215,   173.959229,           0.
    250,   77.4832001,   178.092087,           0.
    251,   87.6388474,   173.897781,           0.
    252,   78.4478302,   173.856537,           0.
    253,   92.4190598,   173.754059,           0.
    254,   81.2104797,   170.781631,           0.
    255,   81.4042282,   167.104736,           0.
    256,   81.4353409,   162.902252,           0.
    257,   81.5576248,   158.582733,           0.
    258,   89.2071686,   162.829987,           0.
    259,   89.2473984,   167.023285,           0.
    260,     89.82798,   145.802872,           0.
    261,   89.5982132,   150.024338,           0.
    262,   89.2593384,   158.607468,           0.
    263,   89.3937836,    154.31604,           0.
    264,   93.4099274,   134.586761,           0.
    265,   85.3593521,   169.781952,           0.
    266,   93.4141541,   178.071716,           0.
    267,   81.7464371,   154.147507,           0.
    268,   82.0404205,   149.413864,           0.
    269,    89.537178,   170.697632,           0.
    270,   85.4945755,   156.412018,           0.
    271,   85.3229599,   165.068329,           0.
    272,   85.3795013,   160.733795,           0.
    273,   86.1763077,   147.530289,           0.
    274,   85.7416229,   151.974014,           0.
    275,   89.7705231,   141.496704,           0.
    276,   86.9552765,   143.799698,           0.
    277,   30.7571163,   130.672897,           0.
    278,   38.9593391,    130.70343,           0.
    279,   43.1474991,   130.733093,           0.
    280,    22.552597,   130.653259,           0.
    281,   26.6540279,   130.662811,           0.
    282,   34.8567543,    130.69104,           0.
    283,   47.3752708,   130.638153,           0.
    284,   31.0524235,   177.956345,           0.
    285,   22.7705421,   177.946457,           0.
    286,   26.9119034,   177.955322,           0.
    287,   35.1925316,   177.953568,           0.
    288,   39.3331757,   177.950623,           0.
    289,   43.4740906,   177.949142,           0.
    290,   47.6148911,   177.949539,           0.
    291,   51.7552795,   177.951401,           0.
    292,   55.9176216,   177.919418,           0.
    293,   60.2292671,      177.806,           0.
    294,   64.7550354,    177.79361,           0.
    295,   66.7525787,   158.694855,           0.
    296,   66.7458115,   154.448624,           0.
    297,   66.8506775,   150.159973,           0.
    298,   66.6197128,   167.035355,           0.
    299,    66.672226,   162.868256,           0.
    300,   3.64581704,   137.532928,           0.
    301,    3.6249516,   154.315048,           0.
    302,   3.62500334,   158.504395,           0.
    303,   3.62642384,   162.693848,           0.
    304,   3.65840149,   166.908722,           0.
    305,   3.76024961,   171.278503,           0.
    306,   3.75761199,   175.857773,           0.
    307,   63.1716843,   146.915039,           0.
    308,   53.1972198,   139.875107,           0.
    309,   50.6047325,   134.383484,           0.
    310,   57.7196503,   144.409622,           0.
    311,   67.3528671,   146.620209,           0.
    312,   50.8828278,   130.137238,           0.
    313,   36.8953667,     134.3349,           0.
    314,   41.0866051,   134.385376,           0.
    315,   45.5421791,   134.454407,           0.
    316,   28.6911221,    134.26387,           0.
    317,   5.54856062,   130.841888,           0.
    318,     14.33111,   130.663544,           0.
    319,   18.4556904,   130.645432,           0.
    320,   32.7899933,   134.299957,           0.
    321,   24.5915985,   134.240768,           0.
    322,   18.6178474,   177.869781,           0.
    323,   37.2602272,   174.351395,           0.
    324,   53.8172073,   174.324005,           0.
    325,   45.5449638,   174.342651,           0.
    326,   14.4770002,   177.762634,           0.
    327,   28.9803562,   174.364487,           0.
    328,   24.8423882,   174.342407,           0.
    329,   10.3769217,    177.75293,           0.
    330,   6.88362741,   178.104156,           0.
    331,   33.1194267,    174.35788,           0.
    332,   41.4021873,   174.343948,           0.
    333,   57.9864235,   174.241119,           0.
    334,   49.6833229,   174.337814,           0.
    335,   66.6171875,   171.157562,           0.
    336,   63.0864716,   156.536713,           0.
    337,   66.9721756,   174.657074,           0.
    338,   62.7818642,   164.958984,           0.
    339,   62.9629173,    160.75708,           0.
    340,   3.36032605,   133.995346,           0.
    341,   3.62391376,   150.124969,           0.
    342,   7.34154272,   169.014267,           0.
    343,    7.2739563,   164.790451,           0.
    344,   3.62542176,   145.928116,           0.
    345,   3.64069438,   141.712418,           0.
    346,   7.24723053,   156.411011,           0.
    347,   7.25121689,   160.600708,           0.
    348,   62.6734276,   173.679581,           0.
    349,   7.88082409,    173.76181,           0.
    350,   7.56714916,   134.909363,           0.
    351,   16.3998737,   134.197342,           0.
    352,   10.0475836,   130.801315,           0.
    353,   26.6138611,   137.852631,           0.
    354,    30.707304,   137.898468,           0.
    355,   43.2854767,   138.178223,           0.
    356,   38.9773369,    138.03981,           0.
    357,   34.8149872,   137.962372,           0.
    358,   20.5000725,   134.211945,           0.
    359,   16.5642681,   173.983948,           0.
    360,   12.3873739,    173.89534,           0.
    361,    26.912138,   170.747513,           0.
    362,   55.8818665,   170.778778,           0.
    363,   43.4715118,   170.725937,           0.
    364,   51.7586327,   170.752167,           0.
    365,   39.3252563,   170.735123,           0.
    366,   31.0443764,   170.758743,           0.
    367,   47.6167145,   170.725388,           0.
    368,   35.1824646,   170.747772,           0.
    369,   20.7207718,   174.218185,           0.
    370,   63.0798225,   152.032761,           0.
    371,    59.200386,   162.716049,           0.
    372,   59.3782959,   158.572571,           0.
    373,   62.7622261,   169.160294,           0.
    374,   59.5558167,   171.001785,           0.
    375,   7.24558687,   152.220337,           0.
    376,   7.41526031,   139.463165,           0.
    377,   10.8661556,   158.508194,           0.
    378,   10.8537903,   162.704559,           0.
    379,   10.8072653,   166.918365,           0.
    380,   7.26881075,   148.011429,           0.
    381,   7.43662548,   143.715942,           0.
    382,   10.5667982,   170.647949,           0.
    383,   58.5569611,   167.142578,           0.
    384,   14.3946056,   169.683945,           0.
    385,   18.3908253,   137.813675,           0.
    386,   28.6123981,   141.494766,           0.
    387,   32.6987915,   141.563416,           0.
    388,   36.8242035,   141.652725,           0.
    389,   41.0277481,   141.791428,           0.
    390,   12.2281284,   134.293152,           0.
    391,   22.5032768,   137.847946,           0.
    392,    55.767395,   160.517929,           0.
    393,   28.9711952,   167.148743,           0.
    394,   33.1003227,   167.144852,           0.
    395,   18.7626438,   170.418045,           0.
    396,   49.7676125,   167.010818,           0.
    397,   53.9946251,   167.118683,           0.
    398,   45.5667419,   167.061661,           0.
    399,   37.2409515,   167.124542,           0.
    400,   22.8081169,   170.627716,           0.
    401,   41.3950005,   167.096863,           0.
    402,   10.8642969,   154.319077,           0.
    403,   11.6250505,   141.449463,           0.
    404,   14.5194807,   160.679596,           0.
    405,    14.396698,   165.008591,           0.
    406,   10.8876629,   150.127258,           0.
    407,   10.9976187,   145.983353,           0.
    408,   59.3906059,   154.253159,           0.
    409,   47.8911781,   138.488266,           0.
    410,   10.6296797,   137.562805,           0.
    411,   14.2464581,    137.79364,           0.
    412,   20.3973866,   141.559067,           0.
    413,   30.6000366,   145.095261,           0.
    414,   34.6637306,   145.221069,           0.
    415,   38.7214699,   145.391098,           0.
    416,   31.0309906,   163.460861,           0.
    417,   24.5365734,    141.50325,           0.
    418,   20.8483143,   166.950058,           0.
    419,   52.0567703,    162.93222,           0.
    420,     35.15868,   163.460693,           0.
    421,   39.3030243,   163.465454,           0.
    422,   24.8854504,   167.080948,           0.
    423,   47.5765953,   163.374344,           0.
    424,   43.4416428,   163.439651,           0.
    425,   14.4873772,   156.425903,           0.
    426,   14.2990761,   144.524368,           0.
    427,   14.4855814,   148.110626,           0.
    428,   18.4882069,   163.117905,           0.
    429,   14.4777994,   152.246033,           0.
    430,   55.9152298,   164.085495,           0.
    431,   55.7587967,   156.374069,           0.
    432,   45.4466286,   142.084244,           0.
    433,   16.1926975,   141.460693,           0.
    434,   22.5280342,   145.132767,           0.
    435,    32.444809,   148.594818,           0.
    436,   36.3327103,   148.862732,           0.
    437,   33.0822144,   159.644196,           0.
    438,   22.8738136,   163.485519,           0.
    439,   26.5514069,   145.067917,           0.
    440,   37.2781677,   159.779358,           0.
    441,   49.0760269,    160.12001,           0.
    442,   17.3780937,   167.035706,           0.
    443,   26.9185677,   163.475311,           0.
    444,   41.3953476,    159.81926,           0.
    445,     45.52108,   159.831085,           0.
    446,   18.2319736,   158.493515,           0.
    447,   18.1369381,   145.617798,           0.
    448,   17.9704742,   150.061096,           0.
    449,   18.2114372,   154.184219,           0.
    450,   43.0127068,   145.756973,           0.
    451,   55.6896515,   152.068665,           0.
    452,   49.4745636,   142.410156,           0.
    453,   24.4537506,   148.565338,           0.
    454,   33.8753815,   152.154297,           0.
    455,   24.8770504,   159.972672,           0.
    456,   28.4963703,   148.566528,           0.
    457,   35.3773079,   155.965805,           0.
    458,   39.5446358,   156.185516,           0.
    459,     28.89184,   159.783508,           0.
    460,   48.0033569,   156.227493,           0.
    461,    40.370697,    149.17717,           0.
    462,   43.5947418,    156.36351,           0.
    463,   20.9437637,   148.215637,           0.
    464,   21.7549953,   151.633362,           0.
    465,     22.51157,   156.268951,           0.
    466,   52.1239204,   158.395569,           0.
    467,   47.9535751,    146.61113,           0.
    468,   59.1012383,   149.650452,           0.
    469,   52.0177345,   154.048111,           0.
    470,   21.3965225,   160.267715,           0.
    471,    52.677597,   145.198364,           0.
    472,   30.6922035,   155.484283,           0.
    473,   26.4354839,   152.680634,           0.
    474,   26.6816292,   156.838013,           0.
    475,   44.4678535,   149.870865,           0.
    476,   41.8602943,   152.914597,           0.
    477,   45.2584724,   153.387741,           0.
    478,   52.0434456,   149.618668,           0.
    479,   55.4463158,   148.189148,           0.
    480,    48.290741,   151.627335,           0.
    481,   30.3888493,   151.496109,           0.
    482,   37.8935051,    152.54335,           0.
    483,   96.9119492,   121.272087,           0.
    484,   97.0977783,    116.94561,           0.
    485,   97.0139618,   112.812782,           0.
    486,   96.9799271,   108.656769,           0.
    487,   96.9784088,   104.538849,           0.
    488,   96.9842682,   100.435493,           0.
    489,    96.988533,   96.3359985,           0.
    490,   96.9911575,   92.2369232,           0.
    491,   96.9920959,   88.1376419,           0.
    492,    96.992424,   84.0382614,           0.
    493,   96.9927368,    79.938858,           0.
    494,   96.9925919,   75.8394318,           0.
    495,   96.9923706,   71.7400055,           0.
    496,   96.9925461,   67.6405792,           0.
    497,   96.9927826,   63.5411491,           0.
    498,   96.9926071,   59.4417191,           0.
    499,   96.9923706,   55.3422928,           0.
    500,   96.9925079,   51.2428627,           0.
    501,   96.9925308,   47.1434326,           0.
    502,   96.9925308,   43.0440063,           0.
    503,   96.9925156,   38.9445763,           0.
    504,   96.9924774,   34.8451576,           0.
    505,   96.9923248,   30.7457809,           0.
    506,    96.991478,   26.6466656,           0.
    507,    96.988533,   22.5480957,           0.
    508,   96.9810638,   18.4503441,           0.
    509,   96.9359589,   14.3380432,           0.
    510,   96.7707367,   10.0779266,           0.
    511,   96.7012711,   5.59127045,           0.
    512,   74.0419083,   61.3538094,           0.
    513,   74.2385406,   5.78171587,           0.
    514,   74.2013245,   10.3892145,           0.
    515,   74.0732269,   14.7763624,           0.
    516,    74.049263,   19.0352325,           0.
    517,    74.043663,   23.2712708,           0.
    518,   74.0420532,   27.5033398,           0.
    519,   74.0415115,   31.7347393,           0.
    520,   74.0413132,   35.9660378,           0.
    521,   74.0412369,   40.1973305,           0.
    522,   74.0410309,   44.4286232,           0.
    523,    74.041214,   48.6599197,           0.
    524,   74.0411224,   52.8912163,           0.
    525,    74.040657,   57.1225128,           0.
    526,   74.0414276,   65.5851059,           0.
    527,   74.0413437,   69.8164062,           0.
    528,   74.0418777,   78.2789993,           0.
    529,   74.0414734,   82.5102921,           0.
    530,   74.0415955,   86.7415848,           0.
    531,   74.0447922,   90.9719238,           0.
    532,    74.054184,   95.2011719,           0.
    533,   74.0950623,   99.4815445,           0.
    534,   74.1221161,   103.778419,           0.
    535,   74.0404892,    74.047699,           0.
    536,   85.4426041,   3.77602029,           0.
    537,   81.1292343,   3.79891157,           0.
    538,   89.8119125,   123.662888,           0.
    539,   93.1090698,   122.765549,           0.
    540,   83.2277908,   110.237938,           0.
    541,   89.8405991,   118.592255,           0.
    542,   86.2872696,   114.297127,           0.
    543,   78.3866882,   106.876427,           0.
    544,   94.0939178,   118.933365,           0.
    545,    93.564827,   115.151764,           0.
    546,   93.4721069,   110.776436,           0.
    547,   93.4253387,    61.491436,           0.
    548,   93.4252701,   77.8891296,           0.
    549,   93.3970947,   102.477844,           0.
    550,   93.4277573,   106.584717,           0.
    551,   93.4243927,   81.9885101,           0.
    552,   93.4245605,   65.5908661,           0.
    553,   93.1673889,   12.2052374,           0.
    554,   93.3259735,   16.3576946,           0.
    555,   93.3923264,   20.4919205,           0.
    556,   93.4152298,   24.5982056,           0.
    557,   93.4219742,   28.6969814,           0.
    558,   93.4236221,   32.7957611,           0.
    559,   93.4240799,   36.8949585,           0.
    560,    93.423996,   40.9943161,           0.
    561,   93.4240417,   45.0937271,           0.
    562,   93.4245148,   49.1931496,           0.
    563,   93.4243622,   53.2925758,           0.
    564,   93.4233932,   57.3920059,           0.
    565,    93.424118,   69.6902924,           0.
    566,   93.4232864,    73.789711,           0.
    567,   93.4238052,   86.0878067,           0.
    568,   93.4223251,   90.1867752,           0.
    569,   93.4176254,   94.2847824,           0.
    570,   93.4063339,   98.3807373,           0.
    571,   73.6172256,   107.409264,           0.
    572,   77.8808594,   67.9427567,           0.
    573,   77.8627548,    80.610527,           0.
    574,   77.8668671,   89.0358276,           0.
    575,   77.9340057,   97.4524612,           0.
    576,   77.8503647,   16.8130054,           0.
    577,    77.888855,   21.0487156,           0.
    578,   77.8953094,   25.2621498,           0.
    579,   77.8965225,   29.4719028,           0.
    580,   77.8966522,   33.6817398,           0.
    581,   77.8966293,   37.8918533,           0.
    582,    77.896431,   42.1021271,           0.
    583,   77.8654404,    50.565567,           0.
    584,    77.970932,   59.1507263,           0.
    585,   77.9345398,   12.5227995,           0.
    586,    77.925621,   46.2779579,           0.
    587,   77.9555664,    54.752243,           0.
    588,   78.0487289,   63.6208801,           0.
    589,   77.9200745,   84.8900299,           0.
    590,   77.9387894,    93.299324,           0.
    591,   77.9790039,   101.762543,           0.
    592,   77.8967209,   72.2191238,           0.
    593,   77.9252396,   76.4800415,           0.
    594,   89.7974014,   3.72151089,           0.
    595,   93.4365463,   3.38903165,           0.
    596,   83.2782516,   7.54825163,           0.
    597,   92.4722366,    7.5615201,           0.
    598,   89.7281876,   10.5901527,           0.
    599,   89.7507324,   51.3833237,           0.
    600,   89.7233505,   47.2910614,           0.
    601,   89.7243271,   26.7213402,           0.
    602,    89.706459,   30.8435898,           0.
    603,   89.7132187,   34.9520111,           0.
    604,   89.7143097,   39.0634613,           0.
    605,   89.6935959,   43.2004204,           0.
    606,   89.7756805,   55.5246086,           0.
    607,   89.9279861,   59.5312233,           0.
    608,   89.9276581,   63.4206657,           0.
    609,    89.772049,   67.4274292,           0.
    610,   89.7278366,   71.5487442,           0.
    611,    89.717659,   75.6668091,           0.
    612,   89.7155685,   79.7805786,           0.
    613,   89.7146759,   83.8928757,           0.
    614,   89.7133026,   88.0043259,           0.
    615,   89.7088852,   92.1149902,           0.
    616,   89.6925125,   96.2277298,           0.
    617,   90.0298233,   112.979103,           0.
    618,   89.7047424,    22.611208,           0.
    619,    89.621315,   100.387321,           0.
    620,   89.5719681,   14.2559605,           0.
    621,   90.0425491,   108.729675,           0.
    622,   89.6222153,   18.4507809,           0.
    623,   89.7468491,    104.63253,           0.
    624,   78.5104828,    7.7768774,           0.
    625,   82.7215729,   61.3936768,           0.
    626,    82.087265,    66.275589,           0.
    627,    82.119957,   56.5298653,           0.
    628,   81.9577713,   52.2038002,           0.
    629,   81.9359131,   70.6256943,           0.
    630,   81.9153137,   47.9907265,           0.
    631,   81.9147263,   74.8520279,           0.
    632,   81.9049606,   79.0292206,           0.
    633,   81.9111099,   43.8027611,           0.
    634,   81.9024734,    83.200531,           0.
    635,   81.9051208,   39.6332397,           0.
    636,   81.9033661,   87.3721008,           0.
    637,   81.9040451,   35.4614677,           0.
    638,   81.9075394,   91.5405121,           0.
    639,   81.8944244,   31.2948589,           0.
    640,    81.892395,   27.1228085,           0.
    641,   81.9040909,   22.9426289,           0.
    642,   81.8509979,   18.7016068,           0.
    643,    81.729866,   14.4681702,           0.
    644,   81.9245834,   95.6915665,           0.
    645,   81.7740936,   99.8230591,           0.
    646,   87.7272949,   7.46492863,           0.
    647,   82.9969559,   106.005005,           0.
    648,   87.2064056,   110.656235,           0.
    649,    85.590538,   11.6438503,           0.
    650,   85.4061356,   102.762688,           0.
    651,   85.7986984,   20.6392078,           0.
    652,   85.8174362,   24.8313675,           0.
    653,   85.7243958,   98.1499481,           0.
    654,    85.815506,   93.9335556,           0.
    655,   85.8307953,   89.7854156,           0.
    656,   85.8335266,   85.6452484,           0.
    657,   85.8347092,   81.5055237,           0.
    658,   85.8378754,   77.3639984,           0.
    659,   85.8481979,    73.208847,           0.
    660,   85.9032364,   69.0022125,           0.
    661,   86.2164764,   64.8104172,           0.
    662,   86.9994202,   61.4102364,           0.
    663,   86.2573318,   58.0220718,           0.
    664,   85.9686356,   53.8748894,           0.
    665,    85.875824,   49.6983833,           0.
    666,    85.842659,    45.549469,           0.
    667,   85.8338699,   41.4052277,           0.
    668,   85.8344345,   37.2610855,           0.
    669,   85.8221588,   33.1273384,           0.
    670,   85.8095322,   28.9902172,           0.
    671,    85.694046,     16.35993,           0.
    672,   86.4377823,   107.170677,           0.
    673,   81.4087372,   10.7919903,           0.
    674,   77.5158997,   3.47150087,           0.
    675,   81.3085709,   103.445946,           0.
    676,   57.5793762,   110.545212,           0.
    677,   54.2913437,   114.817871,           0.
    678,   50.9205666,   123.879227,           0.
    679,    66.726799,    23.273222,           0.
    680,   66.7264938,   27.5041065,           0.
    681,   66.7264252,   31.7349129,           0.
    682,   66.7263718,   35.9660645,           0.
    683,   66.7263412,   40.1973305,           0.
    684,    66.726326,   44.4286232,           0.
    685,    66.726326,   48.6599159,           0.
    686,    66.726326,   52.8912163,           0.
    687,    66.726326,   57.1225128,           0.
    688,   66.7264023,   61.3538094,           0.
    689,   66.7263184,   65.5851059,           0.
    690,   66.7262115,   69.8164062,           0.
    691,   66.7262802,   74.0476685,           0.
    692,   66.7254868,   78.2787781,           0.
    693,   66.7226028,   82.5093765,           0.
    694,   66.7173615,   86.7400589,           0.
    695,   66.7065353,   90.9754257,           0.
    696,   66.6621933,   95.2541046,           0.
    697,   66.5899658,   99.5934143,           0.
    698,   66.5780487,   103.960869,           0.
    699,   67.1253891,   107.521965,           0.
    700,   50.7011185,   119.111458,           0.
    701,   62.3548622,   107.182823,           0.
    702,   30.7548676,   123.518044,           0.
    703,   34.8575974,   123.510727,           0.
    704,   38.9985428,   123.461922,           0.
    705,   43.1964035,   123.372368,           0.
    706,   47.4314384,   123.339592,           0.
    707,    3.5342114,   14.3674116,           0.
    708,   3.55077934,   18.4502048,           0.
    709,   3.55365276,   22.5472393,           0.
    710,    3.5541544,   26.6463356,           0.
    711,   3.55424356,   30.7457218,           0.
    712,   3.55426025,   34.8451462,           0.
    713,   3.55426359,   38.9445763,           0.
    714,   3.55426431,   43.0440063,           0.
    715,   3.55426455,   47.1434326,           0.
    716,   3.55426455,   51.2428627,           0.
    717,   3.55426455,   55.3422928,           0.
    718,   3.55426478,   59.4417229,           0.
    719,   3.55426478,   63.5411491,           0.
    720,   3.55434251,   67.6405792,           0.
    721,    3.5542841,   71.7400055,           0.
    722,   3.55425763,   75.8394394,           0.
    723,   3.55479121,   79.9387665,           0.
    724,   3.55535126,   84.0380783,           0.
    725,   3.55539989,   88.1376343,           0.
    726,   3.55484152,   92.2373428,           0.
    727,   3.55384779,   96.3368912,           0.
    728,   3.55277777,   100.436241,           0.
    729,   3.55188155,   104.535568,           0.
    730,   3.55353355,    108.63488,           0.
    731,   3.58714008,    112.75679,           0.
    732,   3.69652557,   117.027428,           0.
    733,   3.70681548,   121.508522,           0.
    734,   64.7143402,   3.79427695,           0.
    735,   60.1908073,   3.75747395,           0.
    736,   55.9082146,   3.62616992,           0.
    737,   51.7572823,   3.59965396,           0.
    738,   47.6149406,   3.59431267,           0.
    739,   43.4740601,   3.59280014,           0.
    740,   39.3334274,   3.59170294,           0.
    741,   35.1928673,   3.59001756,           0.
    742,   31.0524063,   3.58808255,           0.
    743,   26.9120636,   3.58608842,           0.
    744,   22.7717724,   3.58437705,           0.
    745,   18.6314888,   3.58305025,           0.
    746,   14.3851786,   3.64434004,           0.
    747,   10.0037718,    3.7722156,           0.
    748,   5.49458647,   3.76941943,           0.
    749,   3.52736855,   10.3246126,           0.
    750,   3.27988601,   6.85383844,           0.
    751,   7.21244574,   114.809967,           0.
    752,   7.10909653,   106.583504,           0.
    753,   7.10834455,   102.485901,           0.
    754,   7.21745014,   16.4249077,           0.
    755,   7.12050247,   20.5226669,           0.
    756,   7.11343908,   24.6008759,           0.
    757,   7.11236954,   28.6967239,           0.
    758,   7.11221409,   32.7955513,           0.
    759,   7.11219406,   36.8948822,           0.
    760,   7.11218977,   40.9942932,           0.
    761,   7.11217356,   45.0937195,           0.
    762,   7.11207342,   49.1931496,           0.
    763,   7.11214018,   53.2925758,           0.
    764,   7.11215162,   57.3920059,           0.
    765,   7.11207008,    61.491436,           0.
    766,   7.11225748,   65.5908661,           0.
    767,   7.11217594,   73.7896194,           0.
    768,   7.11440277,   86.0876999,           0.
    769,   7.11419106,   90.1880951,           0.
    770,   7.11273575,   69.6902618,           0.
    771,   7.11327982,   77.8886871,           0.
    772,   7.11466503,   81.9878922,           0.
    773,    7.1127243,   94.2882233,           0.
    774,   7.11090136,   98.3875275,           0.
    775,   7.13773251,   110.680244,           0.
    776,    26.654438,   123.522346,           0.
    777,   36.9149666,   119.862434,           0.
    778,   41.0763359,   119.716972,           0.
    779,   45.4352493,   119.509155,           0.
    780,   18.4441261,   123.456291,           0.
    781,   22.5534954,   123.513901,           0.
    782,   14.3322201,   123.361458,           0.
    783,    10.260129,   123.365402,           0.
    784,   6.80324459,   123.706528,           0.
    785,   32.7919922,   119.917931,           0.
    786,   37.2616577,   7.18472385,           0.
    787,    53.836235,   7.21565199,           0.
    788,   45.5439949,   7.19078636,           0.
    789,   58.0510788,   7.34814119,           0.
    790,   49.6863098,   7.19853306,           0.
    791,   41.4027367,   7.18894482,           0.
    792,   33.1205826,   7.18027735,           0.
    793,    28.979969,   7.17512465,           0.
    794,   24.8384304,   7.17039537,           0.
    795,   20.6891937,    7.1672287,           0.
    796,   16.4290524,   7.20709848,           0.
    797,   12.1302309,   7.30018425,           0.
    798,   63.0301857,   88.8553696,           0.
    799,   62.8584442,   97.4245377,           0.
    800,    63.069294,   67.7007523,           0.
    801,   63.0630989,   80.3914413,           0.
    802,   66.7185059,   19.0372028,           0.
    803,    63.071064,   25.3898067,           0.
    804,   63.0704422,   29.6202335,           0.
    805,   63.0701523,    33.850563,           0.
    806,   63.0699692,   38.0816994,           0.
    807,   63.0699005,    42.312973,           0.
    808,   63.0698776,   46.5442696,           0.
    809,   63.0698509,   50.7755661,           0.
    810,   63.0697479,   55.0068626,           0.
    811,   63.0699158,   59.2381592,           0.
    812,   66.6450424,   10.5797625,           0.
    813,   66.6904602,   14.7949142,           0.
    814,   63.0702477,   63.4694557,           0.
    815,   62.6783409,   101.886909,           0.
    816,   62.9751282,   93.1140366,           0.
    817,   63.0696716,   71.9319229,           0.
    818,    63.068306,    76.162117,           0.
    819,   63.0506363,   84.6201096,           0.
    820,    7.7700634,   119.462143,           0.
    821,   7.42226171,   7.84092093,           0.
    822,   24.5981407,   119.958458,           0.
    823,   10.6742926,   51.2428627,           0.
    824,   10.6742916,   59.4417191,           0.
    825,   10.6747303,   63.5411415,           0.
    826,   10.6775427,   79.9374008,           0.
    827,   10.6751919,   55.3422928,           0.
    828,   10.6749144,   67.6405029,           0.
    829,   10.6753769,   71.7396851,           0.
    830,   10.6769953,    75.838501,           0.
    831,   10.6747074,   47.1434326,           0.
    832,   10.6748171,   43.0440063,           0.
    833,   10.6748419,   38.9445763,           0.
    834,   10.6748371,   34.8451653,           0.
    835,   10.6748247,   30.7458515,           0.
    836,   10.6749668,   26.6471214,           0.
    837,   10.6804247,   22.5814819,           0.
    838,   10.8287258,   18.5862331,           0.
    839,   10.6297255,   112.746178,           0.
    840,   10.6455965,   108.646225,           0.
    841,   10.6641035,   104.538811,           0.
    842,   10.6793985,   88.1384354,           0.
    843,   10.6709003,   100.439362,           0.
    844,   10.6757269,   96.3401489,           0.
    845,   10.6796799,   84.0373459,           0.
    846,   10.6792812,   92.2398148,           0.
    847,   20.5096798,   119.842064,           0.
    848,   12.2319527,   119.567146,           0.
    849,   16.3789883,   119.624039,           0.
    850,   38.8864479,   116.137978,           0.
    851,   34.7866859,   116.269081,           0.
    852,   7.25610018,   12.3020411,           0.
    853,   28.6917515,   119.942413,           0.
    854,   10.4125433,    116.39537,           0.
    855,   43.4727783,   10.7921839,           0.
    856,   47.6212082,   10.8005447,           0.
    857,   51.8316269,   10.8311739,           0.
    858,   14.1990862,   10.7193098,           0.
    859,   18.4976006,   10.7297983,           0.
    860,   22.7406292,   10.7492065,           0.
    861,   39.3293076,    10.786232,           0.
    862,   26.9008656,   10.7592983,           0.
    863,   31.0446873,   10.7688799,           0.
    864,    35.186451,   10.7782812,           0.
    865,   56.0554924,   10.8724318,           0.
    866,   62.7445679,   7.96532965,           0.
    867,   63.0526314,   21.1808186,           0.
    868,   59.4177246,    57.122509,           0.
    869,   62.9418983,   12.6005974,           0.
    870,   59.4176331,   65.5850677,           0.
    871,   59.4186935,   61.3537979,           0.
    872,   59.4177704,   69.8160782,           0.
    873,   59.4099312,   78.2726517,           0.
    874,    59.418129,   52.8912125,           0.
    875,   59.4160995,   74.0452499,           0.
    876,   59.4182472,   48.6599121,           0.
    877,   59.4182968,   44.4286079,           0.
    878,   59.4183807,   40.1972809,           0.
    879,   59.4187241,   35.9658852,           0.
    880,   59.4191475,   31.7364311,           0.
    881,    59.420784,   27.5063648,           0.
    882,   59.3948669,    82.496315,           0.
    883,   59.2064095,   95.1991501,           0.
    884,   59.3132172,   90.9573059,           0.
    885,   59.3646889,   86.7220535,           0.
    886,   62.9138298,   16.9123192,           0.
    887,   43.0329018,   115.911179,           0.
    888,   14.2030535,   115.424736,           0.
    889,   40.7713013,    112.37886,           0.
    890,   26.6284599,   116.371758,           0.
    891,   14.2484169,   81.9861298,           0.
    892,   14.2493925,   94.2926559,           0.
    893,   14.2442989,   98.3935928,           0.
    894,   14.2257881,   102.475899,           0.
    895,   14.2579556,   106.627808,           0.
    896,   14.1701822,   110.855064,           0.
    897,   22.5693417,   116.296188,           0.
    898,     14.24261,   69.6897507,           0.
    899,   14.2427607,   65.5906677,           0.
    900,   14.2426682,   61.4913826,           0.
    901,   14.2427282,   57.3919945,           0.
    902,   14.2427235,   53.2925758,           0.
    903,   14.2426529,   49.1931458,           0.
    904,   14.2446499,   73.7882309,           0.
    905,   14.2427349,   45.0937195,           0.
    906,   14.2427645,   40.9942856,           0.
    907,   14.2472095,   77.8866501,           0.
    908,   14.2427111,   36.8948479,           0.
    909,   14.2425537,    32.795414,           0.
    910,    14.242363,   28.6961002,           0.
    911,   14.2754421,   24.6163139,           0.
    912,   14.3592119,   20.6212025,           0.
    913,   18.5585155,   116.105049,           0.
    914,   14.2514248,   86.0876007,           0.
    915,   14.2528238,   90.1902084,           0.
    916,   36.7167587,   112.577507,           0.
    917,   11.4853458,   14.2678957,           0.
    918,   10.4986048,   10.4860706,           0.
    919,   54.0850716,   14.5297832,           0.
    920,   24.8391571,   14.3300457,           0.
    921,   20.5580635,   14.3555117,           0.
    922,   16.1969528,   14.2399902,           0.
    923,   28.9710827,   14.3509293,           0.
    924,   33.1090584,   14.3678436,           0.
    925,    49.815834,   14.5696497,           0.
    926,    45.576622,   14.4532118,           0.
    927,   37.2516556,   14.3824987,           0.
    928,   41.4037285,   14.4061441,           0.
    929,   30.7046871,    116.33239,           0.
    930,   59.7083588,   10.6898365,           0.
    931,     55.74757,   80.3724747,           0.
    932,   55.7172775,   84.5878677,           0.
    933,   59.4058533,    23.329771,           0.
    934,    55.762413,   76.1530838,           0.
    935,   55.7688141,   71.9284515,           0.
    936,   55.7710495,    67.699791,           0.
    937,   55.7717361,   63.4692307,           0.
    938,   55.7718353,   59.2381172,           0.
    939,   55.7718925,   55.0068512,           0.
    940,   55.7720222,   50.7755547,           0.
    941,   55.7720947,   46.5442429,           0.
    942,   55.7722244,   42.3128777,           0.
    943,   55.7727394,   38.0812645,           0.
    944,    55.773243,   33.8523674,           0.
    945,   55.7495804,   29.6192341,           0.
    946,   58.7218781,   14.6397161,           0.
    947,   55.6708145,   88.8084793,           0.
    948,   59.3162537,   19.1750298,           0.
    949,   55.5857162,    93.015358,           0.
    950,   66.9754105,   7.00665188,           0.
    951,   59.0056305,   99.4525452,           0.
    952,   47.2600555,   115.467384,           0.
    953,    38.582859,   108.848854,           0.
    954,   28.6285305,   112.760971,           0.
    955,   24.5881538,   112.747635,           0.
    956,   17.8232727,   79.9341507,           0.
    957,   17.8235645,   96.3494339,           0.
    958,   17.7766895,   100.440948,           0.
    959,   17.7381325,   104.522682,           0.
    960,   18.1684666,     108.9655,           0.
    961,   17.8174515,   71.7379761,           0.
    962,   17.8210354,   75.8356781,           0.
    963,   20.5944939,   112.680359,           0.
    964,   17.8167229,   67.6396866,           0.
    965,   17.8164215,   63.5408401,           0.
    966,   17.8163109,   59.4416313,           0.
    967,   17.8162823,   55.3422699,           0.
    968,   17.8162575,   51.2428551,           0.
    969,   17.8162556,   47.1434288,           0.
    970,   17.8162403,   43.0439911,           0.
    971,    17.816082,   38.9445038,           0.
    972,   17.8170204,   34.8428192,           0.
    973,   17.8239803,    30.730072,           0.
    974,   17.8510952,   26.6142159,           0.
    975,   17.8550816,   22.5814457,           0.
    976,   17.8281879,   84.0349655,           0.
    977,   17.8318291,   92.2434921,           0.
    978,   17.8325539,   88.1383209,           0.
    979,   14.2150297,   17.1944332,           0.
    980,   52.0624504,   18.6980209,           0.
    981,   22.6557293,   17.8800449,           0.
    982,   26.7487659,   17.9504852,           0.
    983,   18.1252632,   18.2576637,           0.
    984,   30.9382038,   17.9903069,           0.
    985,   47.5613594,   18.1267471,           0.
    986,   43.4410019,   18.0339489,           0.
    987,   35.1433716,   17.9865055,           0.
    988,   39.3030128,   18.0020714,           0.
    989,   32.6739273,   112.689011,           0.
    990,   52.0786743,   82.4559174,           0.
    991,   52.0325661,   86.6627121,           0.
    992,   52.1071625,   78.2491684,           0.
    993,   55.7310905,   25.4193153,           0.
    994,   51.9641457,   90.8623428,           0.
    995,   52.1216011,   74.0347595,           0.
    996,   52.1306152,   61.3535919,           0.
    997,   52.1279335,   69.8118744,           0.
    998,   52.1307602,   65.5837173,           0.
    999,   52.1312599,   57.1224327,           0.
   1000,   52.1314621,   52.8911819,           0.
   1001,   52.1315651,   48.6598778,           0.
   1002,   52.1317368,   44.4284668,           0.
   1003,     52.13237,   40.1966286,           0.
   1004,    52.132843,   35.9682121,           0.
   1005,   52.0874062,   31.7607861,           0.
   1006,   55.7629509,   21.2597637,           0.
   1007,   55.4134979,   97.1888885,           0.
   1008,   44.8468056,   112.057838,           0.
   1009,   58.7616501,   103.842674,           0.
   1010,    42.665554,   108.590805,           0.
   1011,   30.5208035,   109.045242,           0.
   1012,   48.8176842,   111.477417,           0.
   1013,   26.4351063,   109.065063,           0.
   1014,    22.440506,    109.16787,           0.
   1015,   21.4031162,   77.8818054,           0.
   1016,   21.3996315,   73.7848053,           0.
   1017,   21.4098091,   81.9808884,           0.
   1018,   21.3973083,   69.6876907,           0.
   1019,   21.5677319,   28.5138969,           0.
   1020,   21.4149933,    24.331604,           0.
   1021,    21.396225,   65.5897522,           0.
   1022,   21.3957634,   61.4910469,           0.
   1023,    21.395586,   57.3918877,           0.
   1024,   21.3955193,   53.2925415,           0.
   1025,   21.3954906,   49.1931343,           0.
   1026,   21.3954201,   45.0936737,           0.
   1027,   21.3951416,   40.9940948,           0.
   1028,   21.4011211,   36.8886337,           0.
   1029,   21.4597206,   32.7399368,           0.
   1030,   21.2151203,   102.674309,           0.
   1031,   21.4319725,   94.3218384,           0.
   1032,   21.4800892,   98.5620499,           0.
   1033,   21.4173088,   86.0841293,           0.
   1034,   21.4264545,   90.1974869,           0.
   1035,   17.1389427,   112.806145,           0.
   1036,   49.0012932,   21.4010582,           0.
   1037,   20.8887501,   20.9063148,           0.
   1038,   24.3499031,   21.4407482,           0.
   1039,   28.5942478,   21.6966457,           0.
   1040,   32.9478645,    21.636631,           0.
   1041,   45.4432907,   21.6106148,           0.
   1042,   34.5607681,   108.977135,           0.
   1043,   37.1818428,   21.6093502,           0.
   1044,   41.3356781,   21.6072731,           0.
   1045,   55.9897194,   17.6604633,           0.
   1046,   48.4481735,   80.3278275,           0.
   1047,   48.4039688,   84.5211945,           0.
   1048,   51.9862518,   27.5247726,           0.
   1049,   48.3421173,   88.7153702,           0.
   1050,   48.4739952,   76.1290665,           0.
   1051,   55.2295723,   101.533707,           0.
   1052,   48.4871521,   71.9176788,           0.
   1053,   48.4930573,   67.6956024,           0.
   1054,   48.4953461,   63.4677773,           0.
   1055,   48.4961777,   59.2376442,           0.
   1056,   48.4966049,   55.0066948,           0.
   1057,   48.4967995,   50.7754822,           0.
   1058,   48.4970093,   46.5440445,           0.
   1059,   48.4976883,   42.3120117,           0.
   1060,   48.5313148,   38.0864983,           0.
   1061,   48.5682945,   33.9070969,           0.
   1062,   51.8437805,   95.0209045,           0.
   1063,   52.0758858,   23.2685604,           0.
   1064,   32.3674545,   105.201706,           0.
   1065,   54.9788933,   106.388718,           0.
   1066,   40.5669632,   105.124359,           0.
   1067,   36.4364128,   105.173996,           0.
   1068,   28.1952896,   105.196091,           0.
   1069,   24.0965862,   105.555382,           0.
   1070,   24.9882393,   75.8296051,           0.
   1071,   24.9960747,   79.9260941,           0.
   1072,   24.9847832,   71.7340317,           0.
   1073,   24.9825249,   67.6375732,           0.
   1074,   25.7679043,   25.8243809,           0.
   1075,   24.9813557,   63.5398865,           0.
   1076,   24.9808216,   59.4412651,           0.
   1077,   24.9805984,   55.3421402,           0.
   1078,   24.9805069,   51.2428093,           0.
   1079,   24.9803925,   47.1433372,           0.
   1080,   24.9800262,   43.0436325,           0.
   1081,   24.9920425,   38.9303093,           0.
   1082,   25.1929073,   30.5321884,           0.
   1083,   25.0699024,   34.7351418,           0.
   1084,   25.0063553,   84.0271683,           0.
   1085,   25.5216351,   101.097389,           0.
   1086,   25.0677357,   96.3995285,           0.
   1087,   25.0265942,   92.2464981,           0.
   1088,   25.0178814,   88.1352386,           0.
   1089,   47.9232712,   25.2771225,           0.
   1090,   30.5837231,   25.4823036,           0.
   1091,   34.9308472,   25.4348392,           0.
   1092,   43.4621124,   25.2091637,           0.
   1093,   39.2713089,   25.3675365,           0.
   1094,   44.7419052,   82.3841934,           0.
   1095,   44.8171616,   78.2050629,           0.
   1096,   44.5829086,   86.5480652,           0.
   1097,   48.4903755,   29.7500782,           0.
   1098,   44.8460808,   74.0116425,           0.
   1099,   48.2354012,   92.9170914,           0.
   1100,   46.6635895,   108.243118,           0.
   1101,   51.5853806,   99.2560959,           0.
   1102,   44.8586731,   69.8014526,           0.
   1103,   44.8641129,   65.5795441,           0.
   1104,   44.8663902,   61.3518295,           0.
   1105,   44.8673477,   57.1218147,           0.
   1106,   44.8677711,   52.8909454,           0.
   1107,   44.8680649,   48.6595993,           0.
   1108,   44.8687401,   44.4274559,           0.
   1109,   44.8531075,   40.0792084,           0.
   1110,    45.067955,   35.8016891,           0.
   1111,   20.7317619,   106.177147,           0.
   1112,     34.27771,   101.421272,           0.
   1113,   44.7095299,   104.999008,           0.
   1114,   50.5098038,   107.579086,           0.
   1115,   51.3291054,   103.530945,           0.
   1116,   30.1545162,   101.313995,           0.
   1117,   38.4186172,   101.515404,           0.
   1118,   28.8017159,   77.9080276,           0.
   1119,   28.8351574,   73.8121948,           0.
   1120,   28.8596573,   69.7075882,           0.
   1121,   28.8182583,   82.0162125,           0.
   1122,    28.866621,    65.594017,           0.
   1123,   28.8681393,   61.4762077,           0.
   1124,   28.8684139,   57.3567162,           0.
   1125,   28.8684502,   53.2365761,           0.
   1126,   28.8684006,   49.1160622,           0.
   1127,   28.8681793,   44.9950829,           0.
   1128,   28.8312931,    40.861351,           0.
   1129,   28.6935654,   32.5135117,           0.
   1130,   28.7334576,   36.6826134,           0.
   1131,   28.7320461,   86.1129532,           0.
   1132,   28.6513615,   90.1867905,           0.
   1133,    28.312212,   98.0207214,           0.
   1134,   28.5844669,   94.3518906,           0.
   1135,   45.3416405,   28.2953129,           0.
   1136,   32.4929047,   29.7201176,           0.
   1137,   37.1029243,    29.226408,           0.
   1138,   41.6597099,   29.5078735,           0.
   1139,   40.9250526,   80.2343903,           0.
   1140,   40.6787987,   84.3588409,           0.
   1141,   41.0051308,   76.0645828,           0.
   1142,   45.2449722,   31.7986107,           0.
   1143,   44.4276733,    90.766983,           0.
   1144,   41.0409012,   71.8788834,           0.
   1145,   41.0578651,   67.6782684,           0.
   1146,   41.0646667,   63.4677658,           0.
   1147,   41.0672112,    59.252388,           0.
   1148,   41.0681686,   55.0349655,           0.
   1149,   41.0686188,   50.8165855,           0.
   1150,   41.0692062,   46.5972595,           0.
   1151,   48.0169296,   97.0465164,           0.
   1152,   40.9486084,   42.2277985,           0.
   1153,    40.721405,    37.295372,           0.
   1154,   28.5462017,   28.8145008,           0.
   1155,   36.3402901,   98.4385834,           0.
   1156,    48.116394,   105.158752,           0.
   1157,   42.6794243,   101.521851,           0.
   1158,   32.9353561,   75.9314117,           0.
   1159,   32.8488464,   80.0495224,           0.
   1160,   32.9720764,   71.8036652,           0.
   1161,   32.9914856,   67.6614609,           0.
   1162,   32.9987259,   63.5102272,           0.
   1163,   33.0010414,   59.3546524,           0.
   1164,   33.0017548,    55.197258,           0.
   1165,   33.0019836,   51.0390167,           0.
   1166,   33.0021324,   46.8799973,           0.
   1167,    32.887394,   42.7084389,           0.
   1168,   32.3472366,   34.3222237,           0.
   1169,    32.623188,    38.489151,           0.
   1170,   32.6726799,   84.1411591,           0.
   1171,   32.5251732,   88.2084961,           0.
   1172,   32.4566078,   92.4720917,           0.
   1173,   32.3589058,   97.2444458,           0.
   1174,   47.2928581,   101.436218,           0.
   1175,   36.7835121,   82.1901321,           0.
   1176,   35.3956642,   32.4738121,           0.
   1177,   36.9385109,    78.067894,           0.
   1178,   38.8930435,   33.0107307,           0.
   1179,   40.5025482,    88.516243,           0.
   1180,   37.0097847,   73.9186554,           0.
   1181,   52.8244438,   110.886627,           0.
   1182,   44.3584976,   94.9332123,           0.
   1183,    37.041687,   69.7530823,           0.
   1184,   37.0559845,   65.5755081,           0.
   1185,   37.0617104,    61.390789,           0.
   1186,   37.0638199,   57.2025223,           0.
   1187,   37.0646095,   53.0126038,           0.
   1188,   37.0650864,   48.8216171,           0.
   1189,   36.9625778,    44.594017,           0.
   1190,   36.7133102,   40.2243462,           0.
   1191,   36.1156425,   35.9692726,           0.
   1192,    36.589077,   86.2923965,           0.
   1193,   36.4865723,   90.4999542,           0.
   1194,   40.4651604,   97.4942703,           0.
   1195,   36.4278374,   94.8278809,           0.
   1196,   44.5625725,    98.486412,           0.
   1197,   40.4447136,   92.8397522,           0.
   1198,   58.4186974,   106.989853,           0.
   1199,   42.3174171,   33.4828529,           0.
   1200,   50.7789268,    114.35215,           0.
*Element, type=S3
  1, 252, 249, 232
  2, 208,  13,  14
  3, 227,  34, 226
  4, 264, 221, 240
  5, 211,   3,  26
  6, 212,  24, 210
  7, 213, 208,  14
  8, 214, 213,  15
  9, 215, 214,  16
 10, 216, 215,  17
 11, 217, 216,  18
 12, 236, 218, 220
 13, 218, 217,  19
 14, 219,   2,  21
 15, 240,  27,  28
 16, 220, 219,  21
 17,  28,  27,   4
 18, 221, 211,  26
 19,  40,  39,   5
 20, 222,  39,  40
 21, 266, 253, 222
 22, 245, 241, 224
 23, 255, 254, 237
 24, 272, 258, 271
 25, 226,  35, 225
 26, 228,  33, 227
 27, 247, 227, 242
 28, 248, 244, 230
 29, 230,  31, 229
 30, 264, 240, 231
 31,  45,   1,  13
 32, 208,  45,  13
 33, 250, 232,  44
 34, 232,  43,  44
 35, 234,  42, 233
 36, 266,  40,  41
 37, 250,  45, 208
 38, 213,  14,  15
 39, 209,  22,  23
 40, 212,  23,  24
 41, 210,  24,  25
 42, 211, 210,  25
 43, 211,  25,   3
 44, 221,  26,  27
 45, 229,  32, 228
 46, 212, 209,  23
 47, 214,  15,  16
 48, 223,  38, 222
 49, 215,  16,  17
 50, 224,  37, 223
 51, 216,  17,  18
 52, 225,  36, 224
 53, 217,  18,  19
 54, 236, 235, 217
 55, 218,  19,  20
 56, 274, 267, 268
 57, 219, 218,  20
 58, 220,  22, 209
 59, 219,  20,   2
 60, 220,  21,  22
 61, 247, 243, 228
 62, 220, 218, 219
 63, 240,  28,  29
 64, 264, 211, 221
 65, 254, 252, 237
 66, 222,  38,  39
 67, 271, 265, 255
 68, 223,  37,  38
 69, 238, 237, 214
 70, 224,  36,  37
 71, 239, 216, 235
 72, 225,  35,  36
 73, 246, 225, 241
 74, 226,  34,  35
 75, 275, 244, 248
 76, 227,  33,  34
 77, 243, 229, 228
 78, 228,  32,  33
 79, 248, 230, 229
 80, 229,  31,  32
 81, 244, 231, 230
 82, 230,  30,  31
 83, 231,  29,  30
 84, 231,  30, 230
 85, 233,  43, 232
 86, 252, 208, 213
 87, 265, 249, 254
 88, 233,  42,  43
 89, 266, 234, 253
 90, 234,  41,  42
 91, 235, 216, 217
 92, 236, 217, 218
 93, 268, 220, 209
 94, 273, 268, 209
 95, 237, 213, 214
 96, 238, 214, 215
 97, 239, 238, 215
 98, 256, 255, 238
 99, 239, 215, 216
100, 257, 256, 239
101, 240, 221,  27
102, 240,  29, 231
103, 241, 225, 224
104, 245, 224, 223
105, 242, 227, 226
106, 246, 242, 226
107, 247, 228, 227
108, 276, 275, 260
109, 275, 210, 244
110, 264, 244, 210
111, 253, 245, 223
112, 251, 234, 233
113, 246, 226, 225
114, 272, 271, 256
115, 274, 270, 267
116, 261, 260, 243
117, 248, 229, 243
118, 260, 248, 243
119, 249, 233, 232
120, 254, 249, 252
121, 250,  44,  45
122, 252, 250, 208
123, 269, 253, 251
124, 251, 233, 249
125, 252, 232, 250
126, 252, 213, 237
127, 253, 223, 222
128, 253, 234, 251
129, 255, 237, 238
130, 269, 265, 259
131, 256, 238, 239
132, 259, 258, 241
133, 257, 239, 235
134, 271, 258, 259
135, 267, 235, 236
136, 262, 246, 258
137, 258, 246, 241
138, 259, 241, 245
139, 269, 259, 245
140, 271, 259, 265
141, 261, 243, 247
142, 276, 212, 275
143, 263, 247, 242
144, 274, 268, 273
145, 270, 263, 262
146, 262, 242, 246
147, 263, 261, 247
148, 263, 242, 262
149, 264, 231, 244
150, 264, 210, 211
151, 265, 251, 249
152, 265, 254, 255
153, 266, 222,  40
154, 266,  41, 234
155, 267, 257, 235
156, 268, 267, 236
157, 268, 236, 220
158, 276, 273, 209
159, 269, 245, 253
160, 269, 251, 265
161, 272, 262, 258
162, 270, 257, 267
163, 271, 255, 256
164, 272, 256, 257
165, 272, 257, 270
166, 272, 270, 262
167, 273, 260, 261
168, 274, 273, 261
169, 274, 261, 263
170, 274, 263, 270
171, 275, 212, 210
172, 275, 248, 260
173, 276, 260, 273
174, 276, 209, 212
175, 297,  19, 296
176, 367, 364, 334
177, 299,  16, 298
178, 481, 473, 456
179, 317,  73,  74
180, 320, 282, 313
181,  13,   1,  46
182, 294,  46,  47
183, 383, 338, 373
184, 310, 308,  88
185, 332, 325, 289
186, 299,  17,  16
187, 296,  18, 295
188, 383, 373, 374
189,  61,   6,  62
190, 306,  62,  63
191, 343, 342, 304
192, 428, 405, 404
193, 326, 322,  58
194, 322,  57,  58
195, 328, 327, 286
196, 405, 379, 378
197, 287,  54, 284
198, 288,  53, 287
199, 289,  52, 288
200, 290,  51, 289
201, 291,  50, 290
202, 292,  49, 291
203, 293,  48, 292
204, 294,  47, 293
205,  74,  73,   7
206, 350, 340, 317
207, 340,  73, 317
208, 344, 341,  69
209, 345, 344,  70
210, 463, 447, 434
211, 341,  68,  69
212, 302,  67, 301
213, 303,  66, 302
214, 304,  65, 303
215, 305,  64, 304
216, 306,  63, 305
217, 352,  76, 318
218, 318,  76,  77
219, 319,  78, 280
220, 280,  78,  79
221, 281,  80, 277
222, 277,  80,  81
223, 321, 281, 316
224, 278,  82,  83
225, 314, 313, 278
226, 279, 278,  83
227, 283, 279,  84
228, 312,   8,  86
229, 311,   2,  20
230, 366, 327, 361
231, 282,  81,  82
232, 365, 363, 332
233, 279,  83,  84
234, 315, 314, 279
235, 283,  84,  85
236, 451, 408, 431
237, 345,  71, 300
238, 281, 280,  79
239, 281,  79,  80
240, 354, 353, 316
241, 282, 277,  81
242, 282,  82, 278
243, 312, 283,  85
244, 309,  86,  87
245, 284,  54,  55
246, 286,  55,  56
247, 285,  56,  57
248, 377, 347, 346
249, 286, 284,  55
250, 286,  56, 285
251, 356, 314, 355
252, 287,  53,  54
253, 332, 288, 323
254, 288,  52,  53
255, 310,  89, 307
256, 289,  51,  52
257, 335,  15,  14
258, 290,  50,  51
259, 374, 348, 333
260, 291,  49,  50
261, 335, 298,  15
262, 292,  48,  49
263, 348, 335, 337
264, 293,  47,  48
265, 337,  13, 294
266, 294,  13,  46
267, 311, 307,  90
268, 295,  18,  17
269, 370, 296, 336
270, 296,  19,  18
271, 311, 297, 307
272, 297,  20,  19
273, 298,  16,  15
274, 333, 292, 324
275, 324, 292, 291
276, 299, 295,  17
277, 300,  71,  72
278, 351, 318, 319
279, 301,  67,  68
280, 427, 406, 407
281, 346, 302, 301
282, 302,  66,  67
283, 360, 359, 326
284, 303,  65,  66
285, 329, 326,  59
286, 304,  64,  65
287, 342, 305, 304
288, 305,  63,  64
289, 330,  61, 306
290, 306,  61,  62
291, 367, 325, 363
292, 307,  89,  90
293, 308,  87,  88
294, 310,  88,  89
295, 312, 309, 283
296, 309,  87, 308
297, 468, 370, 408
298, 367, 334, 325
299, 311,  90,   2
300, 311,  20, 297
301, 312,  85,   8
302, 312,  86, 309
303, 313, 282, 278
304, 314, 278, 279
305, 315, 279, 283
306, 409, 315, 309
307, 315, 283, 309
308, 409, 355, 315
309, 316, 281, 277
310, 320, 316, 277
311, 317,  74,  75
312, 352,  75,  76
313, 319,  77,  78
314, 319, 318,  77
315, 358, 280, 321
316, 407, 381, 403
317, 320, 277, 282
318, 389, 388, 356
319, 412, 385, 391
320, 321, 280, 281
321, 322, 285,  57
322, 326,  58,  59
323, 323, 288, 287
324, 331, 287, 284
325, 339, 295, 299
326, 334, 291, 290
327, 325, 290, 289
328, 332, 289, 288
329, 329,  59,  60
330, 379, 343, 378
331, 327, 284, 286
332, 328, 286, 285
333, 369, 285, 322
334, 347, 302, 346
335, 330, 329,  60
336, 349, 306, 305
337, 330,  60,  61
338, 349, 330, 306
339, 331, 323, 287
340, 331, 284, 327
341, 415, 414, 388
342, 365, 332, 323
343, 373, 335, 348
344, 333, 293, 292
345, 334, 324, 291
346, 334, 290, 325
347, 337, 335,  14
348, 348, 294, 293
349, 372, 336, 339
350, 336, 296, 295
351, 337,  14,  13
352, 348, 337, 294
353, 338, 299, 298
354, 362, 333, 324
355, 339, 336, 295
356, 339, 299, 338
357, 340, 300,  72
358, 340,  72,  73
359, 341, 301,  68
360, 344,  69,  70
361, 360, 326, 329
362, 343, 304, 303
363, 347, 303, 302
364, 438, 418, 428
365, 390, 352, 318
366, 410, 350, 390
367, 345,  70,  71
368, 376, 300, 350
369, 375, 301, 341
370, 407, 406, 380
371, 378, 347, 377
372, 347, 343, 303
373, 348, 293, 333
374, 374, 373, 348
375, 349, 329, 330
376, 349, 305, 342
377, 350, 300, 340
378, 352, 350, 317
379, 358, 351, 319
380, 391, 385, 358
381, 352, 317,  75
382, 390, 318, 351
383, 353, 321, 316
384, 354, 316, 320
385, 357, 320, 313
386, 387, 386, 354
387, 355, 314, 315
388, 480, 478, 469
389, 388, 387, 357
390, 356, 313, 314
391, 357, 354, 320
392, 357, 313, 356
393, 358, 319, 280
394, 391, 321, 353
395, 384, 359, 360
396, 359, 322, 326
397, 360, 329, 349
398, 382, 349, 342
399, 361, 327, 328
400, 400, 328, 369
401, 364, 324, 334
402, 419, 397, 396
403, 430, 371, 383
404, 363, 325, 332
405, 396, 364, 367
406, 364, 362, 324
407, 368, 323, 331
408, 401, 365, 399
409, 366, 331, 327
410, 464, 463, 453
411, 441, 419, 423
412, 392, 372, 371
413, 368, 365, 323
414, 368, 331, 366
415, 369, 328, 285
416, 369, 322, 359
417, 370, 307, 297
418, 370, 297, 296
419, 372, 339, 371
420, 371, 339, 338
421, 431, 372, 392
422, 408, 336, 372
423, 373, 338, 298
424, 373, 298, 335
425, 374, 333, 362
426, 383, 374, 362
427, 375, 346, 301
428, 380, 341, 344
429, 381, 345, 376
430, 376, 345, 300
431, 402, 346, 375
432, 464, 448, 463
433, 384, 360, 382
434, 378, 343, 347
435, 384, 382, 379
436, 379, 342, 343
437, 380, 375, 341
438, 381, 380, 344
439, 381, 344, 345
440, 411, 403, 410
441, 382, 360, 349
442, 382, 342, 379
443, 397, 362, 364
444, 383, 371, 338
445, 442, 418, 395
446, 395, 359, 384
447, 385, 351, 358
448, 427, 407, 426
449, 386, 353, 354
450, 387, 354, 357
451, 388, 357, 356
452, 394, 366, 393
453, 389, 356, 355
454, 399, 368, 394
455, 432, 355, 409
456, 399, 365, 368
457, 411, 410, 390
458, 390, 350, 352
459, 391, 358, 321
460, 417, 353, 386
461, 430, 397, 419
462, 469, 431, 466
463, 393, 366, 361
464, 422, 361, 400
465, 414, 413, 387
466, 394, 368, 366
467, 442, 395, 384
468, 395, 369, 359
469, 398, 367, 363
470, 398, 396, 367
471, 397, 383, 362
472, 397, 364, 396
473, 401, 363, 365
474, 424, 398, 401
475, 474, 473, 472
476, 440, 420, 437
477, 400, 361, 328
478, 400, 369, 395
479, 424, 401, 421
480, 401, 398, 363
481, 402, 377, 346
482, 406, 375, 380
483, 403, 381, 376
484, 410, 403, 376
485, 404, 378, 377
486, 425, 377, 402
487, 405, 384, 379
488, 405, 378, 404
489, 447, 412, 434
490, 406, 402, 375
491, 407, 380, 381
492, 433, 411, 385
493, 479, 471, 310
494, 408, 370, 336
495, 409, 309, 308
496, 452, 409, 308
497, 410, 376, 350
498, 411, 390, 351
499, 411, 351, 385
500, 433, 426, 403
501, 417, 412, 391
502, 448, 427, 447
503, 413, 386, 387
504, 414, 387, 388
505, 415, 388, 389
506, 420, 394, 416
507, 450, 389, 432
508, 421, 399, 420
509, 416, 394, 393
510, 443, 393, 422
511, 417, 391, 353
512, 439, 386, 413
513, 442, 428, 418
514, 418, 400, 395
515, 430, 419, 392
516, 423, 396, 398
517, 436, 435, 414
518, 420, 399, 394
519, 424, 423, 398
520, 421, 401, 399
521, 422, 393, 361
522, 422, 400, 418
523, 462, 444, 458
524, 423, 419, 396
525, 444, 421, 440
526, 444, 424, 421
527, 425, 404, 377
528, 429, 402, 406
529, 426, 407, 403
530, 433, 403, 411
531, 434, 412, 417
532, 429, 406, 427
533, 446, 404, 425
534, 470, 428, 446
535, 449, 429, 448
536, 429, 425, 402
537, 430, 392, 371
538, 430, 383, 397
539, 431, 408, 372
540, 466, 419, 441
541, 432, 389, 355
542, 452, 432, 409
543, 433, 385, 412
544, 447, 433, 412
545, 439, 434, 417
546, 474, 472, 459
547, 435, 413, 414
548, 436, 414, 415
549, 480, 467, 478
550, 482, 457, 454
551, 437, 420, 416
552, 459, 416, 443
553, 470, 455, 438
554, 438, 422, 418
555, 439, 417, 386
556, 456, 453, 439
557, 445, 424, 444
558, 440, 421, 420
559, 466, 392, 419
560, 445, 423, 424
561, 442, 384, 405
562, 442, 405, 428
563, 443, 416, 393
564, 443, 422, 438
565, 458, 440, 457
566, 477, 476, 475
567, 461, 415, 450
568, 445, 441, 423
569, 446, 428, 404
570, 449, 425, 429
571, 447, 427, 426
572, 447, 426, 433
573, 448, 429, 427
574, 453, 434, 439
575, 465, 446, 449
576, 449, 446, 425
577, 450, 415, 389
578, 467, 432, 452
579, 468, 310, 307
580, 469, 466, 460
581, 471, 308, 310
582, 471, 452, 308
583, 456, 439, 413
584, 472, 457, 437
585, 454, 435, 436
586, 482, 436, 461
587, 455, 443, 438
588, 473, 465, 464
589, 456, 413, 435
590, 481, 454, 472
591, 457, 440, 437
592, 472, 437, 459
593, 482, 461, 476
594, 458, 444, 440
595, 459, 437, 416
596, 459, 443, 455
597, 460, 441, 445
598, 462, 445, 444
599, 461, 436, 415
600, 475, 461, 450
601, 462, 460, 445
602, 476, 462, 458
603, 463, 448, 447
604, 463, 434, 453
605, 464, 449, 448
606, 473, 464, 453
607, 470, 465, 455
608, 465, 449, 464
609, 466, 431, 392
610, 466, 441, 460
611, 467, 450, 432
612, 471, 467, 452
613, 468, 307, 370
614, 468, 408, 451
615, 480, 460, 477
616, 469, 451, 431
617, 470, 438, 428
618, 470, 446, 465
619, 479, 310, 468
620, 479, 478, 471
621, 481, 472, 473
622, 472, 454, 457
623, 474, 465, 473
624, 473, 453, 456
625, 474, 459, 455
626, 474, 455, 465
627, 480, 475, 467
628, 475, 450, 467
629, 482, 476, 458
630, 476, 461, 475
631, 477, 460, 462
632, 477, 462, 476
633, 478, 467, 471
634, 478, 451, 469
635, 479, 468, 451
636, 479, 451, 478
637, 480, 469, 460
638, 480, 477, 475
639, 481, 456, 435
640, 481, 435, 454
641, 482, 458, 457
642, 482, 454, 436
 643, 571,   9,  91
 644, 663, 625, 627
 645, 571, 543, 156
 646, 539,  27,  26
 647, 545, 484, 544
 648, 546, 485, 545
 649, 115,  10, 116
 650, 513, 115, 116
 651, 537, 118, 536
 652, 674, 624, 513
 653, 620, 598, 553
 654, 515, 113, 514
 655, 671, 651, 642
 656, 578, 517, 577
 657, 579, 518, 578
 658, 580, 519, 579
 659, 581, 520, 580
 660, 582, 521, 581
 661, 630, 628, 583
 662, 627, 625, 584
 663, 608, 607, 547
 664, 609, 608, 552
 665, 535, 528,  98
 666, 631, 592, 629
 667, 612, 611, 548
 668, 589, 529, 573
 669, 614, 613, 567
 670, 590, 531, 574
 671, 616, 615, 569
 672, 533,  93, 532
 673, 534,  92, 533
 674, 122, 121,  11
 675, 511, 122, 123
 676, 585, 576, 515
 677, 594, 119, 120
 678, 673, 624, 596
 679, 674, 116, 117
 680, 151,   4,  27
 681, 541, 539, 538
 682, 484, 150, 483
 683, 485, 149, 484
 684, 486, 148, 485
 685, 487, 147, 486
 686, 488, 146, 487
 687, 489, 145, 488
 688, 490, 144, 489
 689, 491, 143, 490
 690, 492, 142, 491
 691, 493, 141, 492
 692, 494, 140, 493
 693, 495, 139, 494
 694, 496, 138, 495
 695, 497, 137, 496
 696, 498, 136, 497
 697, 499, 135, 498
 698, 500, 134, 499
 699, 501, 133, 500
 700, 502, 132, 501
 701, 503, 131, 502
 702, 504, 130, 503
 703, 505, 129, 504
 704, 506, 128, 505
 705, 507, 127, 506
 706, 508, 126, 507
 707, 509, 125, 508
 708, 510, 124, 509
 709, 511, 123, 510
 710, 541, 538, 152
 711, 538,   3, 152
 712, 619, 616, 570
 713, 617, 541, 542
 714, 483, 150, 151
 715, 483, 151,  27
 716, 545, 544, 541
 717, 484, 149, 150
 718, 617, 546, 545
 719, 485, 148, 149
 720, 550, 486, 546
 721, 486, 147, 148
 722, 675, 647, 543
 723, 487, 146, 147
 724, 532,  94, 531
 725, 488, 145, 146
 726, 531,  95, 530
 727, 489, 144, 145
 728, 530,  96, 529
 729, 490, 143, 144
 730, 529,  97, 528
 731, 491, 142, 143
 732, 551, 548, 493
 733, 492, 141, 142
 734, 535,  99, 527
 735, 493, 140, 141
 736, 527, 100, 526
 737, 494, 139, 140
 738, 526, 101, 512
 739, 495, 138, 139
 740, 552, 547, 497
 741, 496, 137, 138
 742, 525, 103, 524
 743, 497, 136, 137
 744, 524, 104, 523
 745, 498, 135, 136
 746, 523, 105, 522
 747, 499, 134, 135
 748, 586, 522, 582
 749, 500, 133, 134
 750, 522, 106, 521
 751, 501, 132, 133
 752, 521, 107, 520
 753, 502, 131, 132
 754, 520, 108, 519
 755, 503, 130, 131
 756, 519, 109, 518
 757, 504, 129, 130
 758, 518, 110, 517
 759, 505, 128, 129
 760, 517, 111, 516
 761, 506, 127, 128
 762, 516, 112, 515
 763, 507, 126, 127
 764, 594, 536, 119
 765, 508, 125, 126
 766, 671, 649, 620
 767, 509, 124, 125
 768, 597, 510, 553
 769, 510, 123, 124
 770, 595, 121, 511
 771, 511, 121, 122
 772, 512, 101, 102
 773, 525, 102, 103
 774, 514, 114, 513
 775, 513, 114, 115
 776, 554, 553, 509
 777, 514, 113, 114
 778, 555, 554, 508
 779, 515, 112, 113
 780, 556, 555, 507
 781, 516, 111, 112
 782, 557, 556, 506
 783, 517, 110, 111
 784, 558, 557, 505
 785, 518, 109, 110
 786, 559, 558, 504
 787, 519, 108, 109
 788, 560, 559, 503
 789, 520, 107, 108
 790, 561, 560, 502
 791, 521, 106, 107
 792, 562, 561, 501
 793, 522, 105, 106
 794, 563, 562, 500
 795, 523, 104, 105
 796, 587, 524, 583
 797, 524, 103, 104
 798, 564, 498, 547
 799, 525, 512, 102
 800, 565, 552, 496
 801, 526, 100, 101
 802, 566, 494, 548
 803, 527,  99, 100
 804, 528,  97,  98
 805, 535,  98,  99
 806, 567, 551, 492
 807, 529,  96,  97
 808, 568, 567, 491
 809, 530,  95,  96
 810, 569, 568, 490
 811, 531,  94,  95
 812, 570, 488, 549
 813, 532,  93,  94
 814, 591, 533, 575
 815, 533,  92,  93
 816, 571, 534, 543
 817, 534,  91,  92
 818, 592, 527, 572
 819, 629, 572, 626
 820, 536, 118, 119
 821, 646, 597, 598
 822, 674, 537, 624
 823, 537, 117, 118
 824, 538,  26,   3
 825, 541, 152, 153
 826, 539, 483,  27
 827, 539,  26, 538
 828, 540, 154, 155
 829, 543, 540, 155
 830, 544, 539, 541
 831, 542, 541, 153
 832, 542, 153, 154
 833, 542, 154, 540
 834, 543, 155, 156
 835, 654, 653, 644
 836, 544, 484, 483
 837, 544, 483, 539
 838, 617, 545, 541
 839, 545, 485, 484
 840, 550, 549, 487
 841, 546, 486, 485
 842, 547, 498, 497
 843, 552, 497, 496
 844, 548, 494, 493
 845, 551, 493, 492
 846, 549, 488, 487
 847, 550, 487, 486
 848, 621, 546, 617
 849, 623, 550, 621
 850, 567, 492, 491
 851, 613, 612, 551
 852, 565, 496, 495
 853, 626, 588, 625
 854, 553, 510, 509
 855, 554, 509, 508
 856, 555, 508, 507
 857, 622, 555, 618
 858, 556, 507, 506
 859, 577, 516, 576
 860, 557, 506, 505
 861, 652, 640, 641
 862, 558, 505, 504
 863, 640, 639, 579
 864, 559, 504, 503
 865, 639, 637, 580
 866, 560, 503, 502
 867, 637, 635, 581
 868, 561, 502, 501
 869, 635, 633, 582
 870, 562, 501, 500
 871, 600, 562, 599
 872, 563, 500, 499
 873, 665, 664, 628
 874, 564, 563, 499
 875, 606, 599, 563
 876, 564, 499, 498
 877, 607, 606, 564
 878, 566, 565, 495
 879, 610, 609, 565
 880, 566, 495, 494
 881, 632, 593, 631
 882, 568, 491, 490
 883, 657, 656, 634
 884, 569, 490, 489
 885, 615, 614, 568
 886, 570, 569, 489
 887, 655, 654, 638
 888, 570, 489, 488
 889, 675, 650, 647
 890, 571, 156,   9
 891, 571,  91, 534
 892, 572, 527, 526
 893, 588, 526, 512
 894, 573, 529, 528
 895, 593, 528, 535
 896, 574, 531, 530
 897, 589, 574, 530
 898, 575, 533, 532
 899, 590, 575, 532
 900, 576, 516, 515
 901, 585, 515, 514
 902, 618, 556, 601
 903, 577, 517, 516
 904, 641, 640, 578
 905, 578, 518, 517
 906, 602, 601, 557
 907, 579, 519, 518
 908, 603, 602, 558
 909, 580, 520, 519
 910, 604, 603, 559
 911, 581, 521, 520
 912, 605, 561, 600
 913, 582, 522, 521
 914, 583, 524, 523
 915, 586, 583, 523
 916, 584, 512, 525
 917, 587, 584, 525
 918, 624, 585, 514
 919, 596, 537, 536
 920, 586, 523, 522
 921, 667, 666, 633
 922, 587, 525, 524
 923, 628, 627, 587
 924, 588, 572, 526
 925, 588, 512, 584
 926, 589, 530, 529
 927, 658, 657, 632
 928, 590, 532, 531
 929, 656, 655, 636
 930, 591, 543, 534
 931, 591, 534, 533
 932, 611, 610, 566
 933, 592, 535, 527
 934, 593, 573, 528
 935, 593, 535, 592
 936, 595, 594, 120
 937, 597, 595, 511
 938, 595, 120, 121
 939, 597, 511, 510
 940, 646, 594, 597
 941, 649, 646, 598
 942, 598, 597, 553
 943, 597, 594, 595
 944, 620, 553, 554
 945, 673, 649, 643
 946, 599, 562, 563
 947, 606, 563, 564
 948, 633, 630, 586
 949, 600, 561, 562
 950, 601, 556, 557
 951, 602, 557, 558
 952, 603, 558, 559
 953, 670, 640, 652
 954, 604, 559, 560
 955, 669, 668, 637
 956, 605, 604, 560
 957, 668, 667, 635
 958, 605, 560, 561
 959, 666, 665, 630
 960, 607, 564, 547
 961, 664, 663, 627
 962, 608, 547, 552
 963, 663, 662, 625
 964, 609, 552, 565
 965, 662, 661, 625
 966, 610, 565, 566
 967, 661, 660, 626
 968, 611, 566, 548
 969, 660, 659, 629
 970, 612, 548, 551
 971, 658, 632, 631
 972, 613, 551, 567
 973, 659, 658, 631
 974, 614, 567, 568
 975, 634, 573, 632
 976, 615, 568, 569
 977, 636, 589, 634
 978, 616, 569, 570
 979, 638, 574, 636
 980, 619, 570, 549
 981, 644, 590, 638
 982, 648, 542, 540
 983, 648, 621, 617
 984, 642, 641, 577
 985, 618, 555, 556
 986, 672, 648, 540
 987, 645, 575, 644
 988, 622, 620, 554
 989, 643, 642, 576
 990, 675, 543, 591
 991, 621, 550, 546
 992, 622, 554, 555
 993, 651, 641, 642
 994, 623, 619, 549
 995, 623, 549, 550
 996, 624, 514, 513
 997, 624, 537, 596
 998, 625, 588, 584
 999, 627, 584, 587
1000, 661, 626, 625
1001, 626, 572, 588
1002, 628, 587, 583
1003, 664, 627, 628
1004, 630, 583, 586
1005, 665, 628, 630
1006, 660, 629, 626
1007, 629, 592, 572
1008, 633, 586, 582
1009, 666, 630, 633
1010, 659, 631, 629
1011, 631, 593, 592
1012, 657, 634, 632
1013, 632, 573, 593
1014, 635, 582, 581
1015, 667, 633, 635
1016, 656, 636, 634
1017, 634, 589, 573
1018, 637, 581, 580
1019, 668, 635, 637
1020, 655, 638, 636
1021, 636, 574, 589
1022, 639, 580, 579
1023, 669, 637, 639
1024, 654, 644, 638
1025, 638, 590, 574
1026, 640, 579, 578
1027, 670, 639, 640
1028, 641, 578, 577
1029, 670, 669, 639
1030, 642, 577, 576
1031, 652, 651, 618
1032, 643, 576, 585
1033, 671, 642, 643
1034, 673, 643, 585
1035, 671, 643, 649
1036, 653, 645, 644
1037, 644, 575, 590
1038, 650, 619, 623
1039, 645, 591, 575
1040, 646, 596, 536
1041, 646, 536, 594
1042, 672, 647, 650
1043, 647, 540, 543
1044, 648, 617, 542
1045, 672, 540, 647
1046, 649, 596, 646
1047, 649, 598, 620
1048, 653, 650, 645
1049, 672, 650, 623
1050, 651, 622, 618
1051, 652, 618, 601
1052, 670, 601, 602
1053, 652, 641, 651
1054, 653, 616, 619
1055, 653, 619, 650
1056, 654, 615, 616
1057, 654, 616, 653
1058, 655, 614, 615
1059, 655, 615, 654
1060, 656, 613, 614
1061, 656, 614, 655
1062, 657, 612, 613
1063, 657, 613, 656
1064, 658, 611, 612
1065, 658, 612, 657
1066, 659, 610, 611
1067, 659, 611, 658
1068, 660, 609, 610
1069, 660, 610, 659
1070, 661, 608, 609
1071, 661, 609, 660
1072, 662, 607, 608
1073, 662, 608, 661
1074, 663, 606, 607
1075, 663, 607, 662
1076, 664, 599, 606
1077, 664, 606, 663
1078, 665, 600, 599
1079, 665, 599, 664
1080, 666, 605, 600
1081, 666, 600, 665
1082, 667, 604, 605
1083, 667, 605, 666
1084, 668, 603, 604
1085, 668, 604, 667
1086, 669, 602, 603
1087, 669, 603, 668
1088, 670, 652, 601
1089, 670, 602, 669
1090, 671, 620, 622
1091, 671, 622, 651
1092, 672, 623, 621
1093, 672, 621, 648
1094, 673, 585, 624
1095, 673, 596, 649
1096, 674, 513, 116
1097, 674, 117, 537
1098, 675, 591, 645
1099, 675, 645, 650
1100,  869,  866,  812
1101,  950,  115,  114
1102,  892,  844,  846
1103,  677,  676,  159
1104,  678,    8,   85
1105,  851,  850,  777
1106,  946,  865,  930
1107,  802,  111,  679
1108,  679,  111,  110
1109,  741,  199,  200
1110,  680,  679,  110
1111,  681,  680,  109
1112,  682,  681,  108
1113,  683,  682,  107
1114,  684,  683,  106
1115,  685,  684,  105
1116,  686,  685,  104
1117,  687,  686,  103
1118,  688,  687,  102
1119,  689,  688,  101
1120,  690,  689,  100
1121,  691,  690,   99
1122,  692,  691,   98
1123,  693,  692,   97
1124,  695,   95,   94
1125,  694,  693,   96
1126,  696,  695,   94
1127,  697,  696,   93
1128,  815,  698,  701
1129,  698,  697,   92
1130,  699,    9,  157
1131,  700,  160,  161
1132,  701,  699,  157
1133,   74,    7,  162
1134,  733,  162,  163
1135,  751,  732,  731
1136,  752,  730,  729
1137,  753,  729,  728
1138,  782,  780,   77
1139,  849,  782,  848
1140,  776,   80,   79
1141,  850,  778,  777
1142,  703,   81,  702
1143,  704,   82,  703
1144,  706,   85,   84
1145,  192,  191,   12
1146,  748,  192,  193
1147,  918,  821,  797
1148, 1044,  988,  986
1149,  708,  188,  707
1150,  709,  187,  708
1151,  710,  186,  709
1152,  711,  185,  710
1153,  712,  184,  711
1154,  713,  183,  712
1155,  714,  182,  713
1156,  715,  181,  714
1157,  716,  180,  715
1158,  717,  179,  716
1159,  718,  178,  717
1160,  719,  177,  718
1161,  720,  176,  719
1162,  721,  175,  720
1163,  722,  174,  721
1164,  723,  173,  722
1165,  724,  172,  723
1166,  725,  171,  724
1167,  726,  170,  725
1168,  727,  169,  726
1169,  728,  168,  727
1170,  729,  167,  728
1171,  730,  166,  729
1172,  731,  165,  730
1173,  732,  164,  731
1174,  733,  163,  732
1175,  207,   10,  115
1176,  734,  207,  115
1177,  735,  206,  734
1178,  735,  205,  206
1179,  789,  787,  736
1180,  737,  204,  736
1181,  737,  203,  204
1182,  738,  202,  203
1183,  739,  201,  202
1184,  740,  200,  201
1185,  742,  198,  199
1186,  744,  197,  743
1187,  745,  196,  744
1188,  746,  195,  745
1189,  747,  194,  746
1190,  748,  193,  747
1191,  676,  158,  159
1192,  677,  159,  160
1193,  700,  161,  678
1194,  785,  777,  703
1195,  678,  161,    8
1196,  706,   84,  705
1197,  680,  110,  109
1198,  791,  740,  739
1199,  681,  109,  108
1200,  754,  708,  707
1201,  682,  108,  107
1202,  755,  708,  754
1203,  683,  107,  106
1204,  756,  709,  755
1205,  684,  106,  105
1206,  757,  710,  756
1207,  685,  105,  104
1208,  758,  711,  757
1209,  686,  104,  103
1210,  759,  712,  758
1211,  687,  103,  102
1212,  760,  713,  759
1213,  688,  102,  101
1214,  761,  714,  760
1215,  689,  101,  100
1216,  762,  715,  761
1217,  690,  100,   99
1218,  763,  716,  762
1219,  691,   99,   98
1220,  764,  717,  763
1221,  692,   98,   97
1222,  765,  718,  764
1223,  693,   97,   96
1224,  766,  719,  765
1225,  694,   96,   95
1226,  767,  722,  721
1227,  695,  694,   95
1228,  768,  725,  724
1229,  696,   94,   93
1230, 1010, 1008,  889
1231,  697,   93,   92
1232,  816,  696,  799
1233,  698,   92,   91
1234,  815,  697,  698
1235,  699,  698,   91
1236,  701,  158,  676
1237,  699,   91,    9
1238,  701,  157,  158
1239,  705,   83,  704
1240,  700,  677,  160
1241,  815,  799,  697
1242,  701,  698,  699
1243,  702,   81,   80
1244,  769,  725,  768
1245,  777,  704,  703
1246,  703,   82,   81
1247,  778,  704,  777
1248,  704,   83,   82
1249,  779,  705,  778
1250,  705,   84,   83
1251,  706,  700,  678
1252,  706,  678,   85
1253,  707,  188,  189
1254,  749,  189,  190
1255,  838,  837,  755
1256,  708,  187,  188
1257,  837,  836,  756
1258,  709,  186,  187
1259,  836,  835,  757
1260,  710,  185,  186
1261,  835,  834,  758
1262,  711,  184,  185
1263,  834,  833,  759
1264,  712,  183,  184
1265,  833,  832,  760
1266,  713,  182,  183
1267,  832,  831,  761
1268,  714,  181,  182
1269,  831,  823,  762
1270,  715,  180,  181
1271,  827,  824,  764
1272,  716,  179,  180
1273,  811,  810,  687
1274,  717,  178,  179
1275,  900,  899,  825
1276,  718,  177,  178
1277,  825,  765,  824
1278,  719,  176,  177
1279,  770,  720,  766
1280,  720,  175,  176
1281,  818,  817,  691
1282,  721,  174,  175
1283,  771,  722,  767
1284,  722,  173,  174
1285,  882,  873,  801
1286,  723,  172,  173
1287,  819,  694,  798
1288,  724,  171,  172
1289,  884,  816,  883
1290,  725,  170,  171
1291,  769,  726,  725
1292,  726,  169,  170
1293,  753,  752,  729
1294,  727,  168,  169
1295,  840,  839,  775
1296,  728,  167,  168
1297,  848,  783,  820
1298,  729,  166,  167
1299,  775,  731,  730
1300,  730,  165,  166
1301,  783,  782,   76
1302,  731,  164,  165
1303,  820,  732,  751
1304,  732,  163,  164
1305,  784,   74,  733
1306,  733,   74,  162
1307,  734,  206,  207
1308,  812,  114,  113
1309,  813,  812,  113
1310,  736,  205,  735
1311,  789,  736,  735
1312,  736,  204,  205
1313,  790,  737,  787
1314,  738,  203,  737
1315,  790,  788,  738
1316,  739,  202,  738
1317,  788,  739,  738
1318,  740,  201,  739
1319,  926,  855,  856
1320,  741,  200,  740
1321,  786,  741,  740
1322,  742,  199,  741
1323,  792,  742,  741
1324,  743,  198,  742
1325,  794,  743,  793
1326,  743,  197,  198
1327,  795,  744,  794
1328,  744,  196,  197
1329,  796,  745,  795
1330,  745,  195,  196
1331,  852,  749,  821
1332,  746,  194,  195
1333,  821,  748,  747
1334,  747,  193,  194
1335,  750,  191,  748
1336,  748,  191,  192
1337,  749,  707,  189
1338,  750,  749,  190
1339,  750,  190,  191
1340,  821,  750,  748
1341,  895,  841,  894
1342,  782,   77,   76
1343,  774,  728,  727
1344,  847,  781,  780
1345,  773,  726,  769
1346,  890,  853,  822
1347,  852,  707,  749
1348,  804,  803,  680
1349,  805,  804,  681
1350,  755,  709,  708
1351,  806,  805,  682
1352,  756,  710,  709
1353,  807,  806,  683
1354,  757,  711,  710
1355,  808,  807,  684
1356,  758,  712,  711
1357,  809,  808,  685
1358,  759,  713,  712
1359,  810,  809,  686
1360,  760,  714,  713
1361,  814,  688,  689
1362,  761,  715,  714
1363,  814,  689,  800
1364,  762,  716,  715
1365,  827,  763,  823
1366,  763,  717,  716
1367,  818,  691,  692
1368,  764,  718,  717
1369,  818,  692,  801
1370,  765,  719,  718
1371,  770,  767,  721
1372,  766,  720,  719
1373,  770,  721,  720
1374,  949,  947,  884
1375,  772,  724,  723
1376,  845,  772,  826
1377,  843,  841,  753
1378,  846,  769,  842
1379,  828,  766,  825
1380,  829,  770,  828
1381,  771,  723,  722
1382,  904,  829,  898
1383,  772,  768,  724
1384,  772,  723,  771
1385,  844,  843,  774
1386,  773,  727,  726
1387,  774,  753,  728
1388,  774,  727,  773
1389,  775,  751,  731
1390,  775,  730,  752
1391,  776,  702,   80
1392,  781,   79,   78
1393,  887,  778,  850
1394,  785,  703,  702
1395,  779,  706,  705
1396,  778,  705,  704
1397,  952,  700,  779
1398,  779,  700,  706
1399,  780,   78,   77
1400,  913,  849,  888
1401,  781,  776,   79
1402,  781,   78,  780
1403,  783,   76,   75
1404,  888,  849,  848
1405,  784,  783,   75
1406,  820,  783,  784
1407,  784,   75,   74
1408,  820,  784,  733
1409,  853,  702,  776
1410,  954,  929,  890
1411,  792,  741,  786
1412,  856,  855,  788
1413,  787,  737,  736
1414,  803,  679,  680
1415,  857,  856,  790
1416,  791,  739,  788
1417,  866,  735,  734
1418,  813,  112,  802
1419,  790,  738,  737
1420,  865,  857,  787
1421,  856,  788,  790
1422,  791,  786,  740
1423,  863,  862,  793
1424,  793,  742,  792
1425,  911,  910,  836
1426,  793,  743,  742
1427,  860,  859,  795
1428,  794,  744,  743
1429,  912,  911,  837
1430,  795,  745,  744
1431,  922,  917,  858
1432,  796,  746,  745
1433,  797,  747,  746
1434,  797,  746,  796
1435,  798,  694,  695
1436,  816,  695,  696
1437,  799,  696,  697
1438, 1012,  952, 1008
1439,  800,  689,  690
1440,  817,  690,  691
1441,  801,  692,  693
1442,  819,  801,  693
1443,  802,  112,  111
1444,  867,  679,  803
1445,  804,  680,  681
1446,  864,  786,  861
1447,  805,  681,  682
1448,  881,  804,  880
1449,  806,  682,  683
1450,  880,  805,  879
1451,  807,  683,  684
1452,  879,  806,  878
1453,  808,  684,  685
1454,  878,  807,  877
1455,  809,  685,  686
1456,  877,  808,  876
1457,  810,  686,  687
1458,  876,  809,  874
1459,  811,  687,  688
1460,  874,  810,  868
1461,  814,  811,  688
1462,  901,  900,  824
1463,  950,  812,  866
1464,  813,  113,  112
1465,  946,  930,  869
1466,  946,  869,  886
1467,  937,  870,  936
1468,  871,  814,  870
1469, 1198, 1009,  701
1470,  951,  883,  799
1471,  976,  891,  956
1472,  816,  798,  695
1473,  936,  872,  935
1474,  817,  800,  690
1475,  992,  931,  990
1476, 1050,  992, 1046
1477,  819,  693,  694
1478,  845,  842,  768
1479,  820,  733,  732
1480,  854,  848,  820
1481,  821,  749,  750
1482,  821,  747,  797
1483,  822,  776,  781
1484,  897,  890,  822
1485,  823,  763,  762
1486,  831,  762,  761
1487,  824,  765,  764
1488,  827,  764,  763
1489,  899,  898,  828
1490,  825,  766,  765
1491,  826,  772,  771
1492,  830,  771,  767
1493,  939,  868,  938
1494,  902,  901,  827
1495,  872,  870,  800
1496,  828,  770,  766
1497,  875,  818,  873
1498,  829,  767,  770
1499,  830,  826,  771
1500,  830,  767,  829
1501,  832,  761,  760
1502,  940,  874,  939
1503,  833,  760,  759
1504,  941,  876,  940
1505,  834,  759,  758
1506,  942,  877,  941
1507,  835,  758,  757
1508,  943,  878,  942
1509,  836,  757,  756
1510,  944,  879,  943
1511,  837,  756,  755
1512, 1074, 1038, 1039
1513,  838,  755,  754
1514,  983,  979,  922
1515,  917,  754,  852
1516,  859,  858,  796
1517,  839,  751,  775
1518,  840,  775,  752
1519,  841,  752,  753
1520,  841,  840,  752
1521,  843,  753,  774
1522,  893,  844,  892
1523,  842,  769,  768
1524,  845,  768,  772
1525,  844,  774,  773
1526, 1011,  989,  954
1527,  846,  773,  769
1528,  846,  844,  773
1529,  932,  931,  882
1530,  914,  845,  891
1531,  915,  842,  914
1532,  889,  887,  850
1533,  847,  822,  781
1534,  888,  848,  854
1535,  848,  782,  783
1536,  854,  820,  751
1537,  849,  847,  780
1538,  849,  780,  782
1539,  916,  850,  851
1540,  851,  777,  785
1541,  929,  785,  853
1542,  994,  991,  947
1543,  918,  858,  917
1544,  852,  754,  707
1545,  853,  785,  702
1546,  853,  776,  822
1547,  854,  751,  839
1548,  888,  854,  839
1549,  861,  791,  855
1550,  855,  791,  788
1551,  857,  790,  787
1552,  925,  857,  919
1553,  865,  787,  789
1554,  986,  928,  926
1555,  858,  797,  796
1556,  859,  796,  795
1557,  860,  795,  794
1558,  862,  794,  793
1559,  863,  793,  792
1560,  920,  860,  862
1561,  974,  973,  910
1562,  861,  786,  791
1563,  862,  860,  794
1564,  864,  792,  786
1565,  864,  863,  792
1566,  923,  920,  862
1567,  928,  855,  926
1568,  973,  972,  909
1569,  930,  866,  869
1570,  886,  869,  813
1571,  866,  789,  735
1572,  950,  866,  734
1573,  867,  802,  679
1574,  933,  803,  881
1575,  868,  810,  811
1576,  871,  811,  814
1577,  869,  812,  813
1578,  886,  813,  802
1579,  870,  814,  800
1580,  872,  800,  817
1581,  938,  871,  937
1582,  871,  868,  811
1583,  875,  817,  818
1584,  935,  875,  934
1585,  873,  818,  801
1586,  882,  801,  819
1587,  903,  902,  823
1588,  874,  809,  810
1589,  995,  934,  992
1590,  875,  872,  817
1591,  905,  903,  831
1592,  876,  808,  809
1593,  906,  905,  832
1594,  877,  807,  808
1595,  908,  906,  833
1596,  878,  806,  807
1597,  909,  908,  834
1598,  879,  805,  806
1599,  910,  909,  835
1600,  880,  804,  805
1601, 1045, 1006,  980
1602,  881,  803,  804
1603,  885,  819,  798
1604, 1071, 1015, 1070
1605,  883,  816,  799
1606,  951,  799,  815
1607,  978,  914,  976
1608,  884,  798,  816
1609,  885,  882,  819
1610,  885,  798,  884
1611,  886,  802,  867
1612,  948,  946,  886
1613,  952,  779,  887
1614,  887,  779,  778
1615,  896,  839,  840
1616, 1064, 1042, 1011
1617,  957,  893,  892
1618, 1156, 1114, 1100
1619,  897,  822,  847
1620,  894,  843,  893
1621,  891,  845,  826
1622,  907,  826,  830
1623,  915,  846,  842
1624, 1174, 1115, 1156
1625,  958,  893,  957
1626,  893,  843,  844
1627,  960,  896,  895
1628,  894,  841,  843
1629,  955,  954,  890
1630,  895,  840,  841
1631,  896,  888,  839
1632,  896,  840,  895
1633,  913,  897,  847
1634, 1035,  960,  963
1635,  898,  829,  828
1636,  899,  828,  825
1637,  900,  825,  824
1638,  997,  935,  995
1639,  901,  824,  827
1640, 1053,  997, 1052
1641,  902,  827,  823
1642, 1022, 1021,  965
1643,  903,  823,  831
1644,  999,  938,  996
1645,  905,  831,  832
1646, 1000,  939,  999
1647,  934,  873,  931
1648,  904,  830,  829
1649,  906,  832,  833
1650, 1001,  940, 1000
1651,  908,  833,  834
1652, 1002,  941, 1001
1653,  907,  891,  826
1654,  907,  830,  904
1655,  909,  834,  835
1656, 1003,  942, 1002
1657,  910,  835,  836
1658, 1028, 1027,  971
1659,  911,  836,  837
1660,  975,  974,  911
1661,  912,  837,  838
1662, 1037,  983,  981
1663,  979,  917,  922
1664,  921,  860,  920
1665,  913,  847,  849
1666, 1035,  963,  913
1667,  947,  932,  885
1668,  914,  842,  845
1669,  978,  915,  914
1670,  915,  892,  846
1671,  916,  889,  850
1672,  989,  851,  929
1673,  917,  838,  754
1674,  918,  917,  852
1675,  918,  852,  821
1676,  918,  797,  858
1677,  919,  857,  865
1678, 1045,  946,  948
1679,  923,  862,  863
1680,  924,  863,  864
1681,  983,  975,  912
1682,  921,  859,  860
1683,  922,  858,  859
1684,  922,  859,  921
1685,  924,  923,  863
1686, 1020,  974,  975
1687,  927,  864,  861
1688, 1090, 1074, 1039
1689,  926,  856,  925
1690,  925,  856,  857
1691,  928,  927,  861
1692,  928,  861,  855
1693, 1004,  943, 1003
1694,  927,  924,  864
1695,  985,  925,  980
1696,  945,  880,  944
1697,  929,  851,  785
1698,  929,  853,  890
1699,  930,  865,  789
1700,  930,  789,  866
1701,  931,  873,  882
1702,  932,  882,  885
1703,  947,  885,  884
1704, 1017,  956, 1015
1705,  933,  867,  803
1706,  993,  881,  945
1707, 1095, 1046, 1094
1708,  934,  875,  873
1709,  964,  961,  898
1710,  935,  872,  875
1711,  965,  964,  899
1712,  936,  870,  872
1713,  966,  965,  900
1714,  937,  871,  870
1715,  967,  966,  901
1716,  938,  868,  871
1717,  968,  967,  902
1718,  939,  874,  868
1719,  969,  968,  903
1720,  940,  876,  874
1721,  970,  969,  905
1722,  941,  877,  876
1723,  971,  970,  906
1724,  942,  878,  877
1725,  972,  971,  908
1726,  943,  879,  878
1727, 1091, 1090, 1040
1728,  944,  880,  879
1729, 1063,  980, 1006
1730,  945,  881,  880
1731,  948,  886,  867
1732,  946,  919,  865
1733,  949,  884,  883
1734,  978,  977,  915
1735,  948,  867,  933
1736, 1006,  948,  933
1737, 1007,  883,  951
1738,  953,  889,  916
1739,  950,  734,  115
1740,  950,  114,  812
1741, 1009,  815,  701
1742, 1200, 1012, 1181
1743, 1200,  952, 1012
1744, 1008,  887,  889
1745, 1042,  916,  989
1746, 1068, 1064, 1011
1747,  955,  890,  897
1748, 1013, 1011,  954
1749,  963,  897,  913
1750,  959,  894,  958
1751,  956,  891,  907
1752,  962,  907,  904
1753,  977,  892,  915
1754, 1117, 1067, 1112
1755, 1111, 1069, 1014
1756,  958,  894,  893
1757, 1111, 1030, 1069
1758,  959,  895,  894
1759, 1014, 1013,  955
1760,  960,  895,  959
1761,  961,  904,  898
1762,  964,  898,  899
1763,  962,  956,  907
1764,  962,  904,  961
1765,  963,  955,  897
1766, 1035,  913,  888
1767,  965,  899,  900
1768, 1102, 1052, 1098
1769,  966,  900,  901
1770, 1021, 1018,  964
1771,  967,  901,  902
1772, 1023, 1022,  966
1773,  968,  902,  903
1774, 1055,  996, 1054
1775,  969,  903,  905
1776, 1056,  999, 1055
1777,  970,  905,  906
1778, 1057, 1000, 1056
1779,  971,  906,  908
1780, 1058, 1001, 1057
1781,  972,  908,  909
1782, 1059, 1002, 1058
1783,  973,  909,  910
1784,  984,  982,  923
1785,  974,  910,  911
1786, 1038, 1020, 1037
1787,  975,  911,  912
1788, 1020, 1019,  974
1789,  983,  912,  979
1790,  981,  921,  920
1791,  991,  990,  932
1792,  976,  914,  891
1793, 1088, 1033, 1084
1794,  977,  957,  892
1795, 1033,  976, 1017
1796, 1033,  978,  976
1797,  979,  912,  838
1798,  979,  838,  917
1799,  980,  925,  919
1800, 1063, 1006,  993
1801,  982,  920,  923
1802,  982,  981,  920
1803,  984,  923,  924
1804,  987,  924,  927
1805,  983,  922,  921
1806,  983,  921,  981
1807,  988,  928,  986
1808, 1074, 1020, 1038
1809,  986,  926,  985
1810,  985,  926,  925
1811,  988,  987,  927
1812,  988,  927,  928
1813, 1060, 1003, 1059
1814,  987,  984,  924
1815, 1041,  985, 1036
1816, 1005,  944, 1004
1817,  989,  916,  851
1818,  989,  929,  954
1819,  990,  931,  932
1820,  991,  932,  947
1821,  994,  947,  949
1822, 1034,  978, 1033
1823, 1016, 1015,  962
1824,  992,  934,  931
1825,  993,  933,  881
1826, 1048,  945, 1005
1827, 1062,  949, 1007
1828, 1116, 1112, 1064
1829, 1018, 1016,  961
1830,  995,  935,  934
1831,  996,  938,  937
1832,  998,  937,  936
1833,  997,  936,  935
1834, 1052,  995, 1050
1835,  998,  996,  937
1836,  998,  936,  997
1837, 1024, 1023,  967
1838,  999,  939,  938
1839, 1025, 1024,  968
1840, 1000,  940,  939
1841, 1026, 1025,  969
1842, 1001,  941,  940
1843, 1027, 1026,  970
1844, 1002,  942,  941
1845, 1029,  972,  973
1846, 1003,  943,  942
1847, 1044, 1043,  988
1848, 1004,  944,  943
1849, 1089, 1036, 1063
1850, 1005,  945,  944
1851, 1045,  980,  919
1852, 1006,  933,  993
1853, 1007,  949,  883
1854, 1051,  951, 1009
1855, 1008,  952,  887
1856, 1010,  889,  953
1857, 1009,  951,  815
1858, 1181, 1114, 1065
1859, 1173, 1112, 1116
1860, 1196, 1174, 1157
1861, 1068, 1011, 1013
1862, 1013,  954,  955
1863, 1181, 1012, 1114
1864, 1100, 1008, 1010
1865, 1014,  955,  963
1866, 1030,  959,  958
1867, 1014,  963,  960
1868, 1111,  960,  959
1869, 1015,  956,  962
1870, 1016,  962,  961
1871, 1018,  961,  964
1872, 1159, 1118, 1158
1873, 1047, 1046,  990
1874, 1017,  976,  956
1875, 1021,  964,  965
1876, 1098, 1050, 1095
1877, 1029,  973, 1019
1878, 1019,  973,  974
1879, 1037, 1020,  975
1880, 1038, 1037,  981
1881, 1022,  965,  966
1882, 1054,  998, 1053
1883, 1023,  966,  967
1884, 1103, 1053, 1102
1885, 1024,  967,  968
1886, 1104, 1054, 1103
1887, 1025,  968,  969
1888, 1105, 1055, 1104
1889, 1026,  969,  970
1890, 1106, 1056, 1105
1891, 1027,  970,  971
1892, 1107, 1057, 1106
1893, 1028,  971,  972
1894, 1108, 1058, 1107
1895, 1029, 1028,  972
1896, 1109, 1059, 1108
1897, 1082, 1019, 1074
1898, 1154, 1136, 1129
1899, 1032,  958,  957
1900, 1032,  957, 1031
1901, 1031,  957,  977
1902, 1034,  977,  978
1903, 1085, 1068, 1069
1904, 1032, 1030,  958
1905, 1084, 1017, 1071
1906, 1049, 1047,  991
1907, 1088, 1034, 1033
1908, 1034, 1031,  977
1909, 1035,  888,  896
1910, 1035,  896,  960
1911, 1036,  985,  980
1912, 1089, 1063, 1048
1913, 1037,  975,  983
1914, 1038,  981,  982
1915, 1039,  982,  984
1916, 1039, 1038,  982
1917, 1040,  984,  987
1918, 1040, 1039,  984
1919, 1043,  987,  988
1920, 1092, 1044, 1041
1921, 1044,  986, 1041
1922, 1041,  986,  985
1923, 1042,  953,  916
1924, 1042,  989, 1011
1925, 1110, 1060, 1109
1926, 1043, 1040,  987
1927, 1093, 1044, 1092
1928, 1061, 1004, 1060
1929, 1045,  919,  946
1930, 1045,  948, 1006
1931, 1046,  992,  990
1932, 1047,  990,  991
1933, 1049,  991,  994
1934, 1121, 1071, 1118
1935, 1048,  993,  945
1936, 1097, 1005, 1061
1937, 1099,  994, 1062
1938, 1087, 1086, 1031
1939, 1072, 1070, 1016
1940, 1050,  995,  992
1941, 1051, 1007,  951
1942, 1065, 1051, 1009
1943, 1073, 1072, 1018
1944, 1052,  997,  995
1945, 1075, 1073, 1021
1946, 1053,  998,  997
1947, 1076, 1075, 1022
1948, 1054,  996,  998
1949, 1077, 1076, 1023
1950, 1055,  999,  996
1951, 1078, 1077, 1024
1952, 1056, 1000,  999
1953, 1079, 1078, 1025
1954, 1057, 1001, 1000
1955, 1080, 1079, 1026
1956, 1058, 1002, 1001
1957, 1081, 1080, 1027
1958, 1059, 1003, 1002
1959, 1083, 1029, 1082
1960, 1060, 1004, 1003
1961, 1092, 1041, 1089
1962, 1061, 1005, 1004
1963, 1062,  994,  949
1964, 1101, 1007, 1051
1965, 1063, 1036,  980
1966, 1063,  993, 1048
1967, 1134, 1133, 1086
1968, 1067, 1042, 1064
1969, 1198, 1065, 1009
1970, 1156, 1115, 1114
1971, 1066, 1010,  953
1972, 1067, 1066,  953
1973, 1067,  953, 1042
1974, 1116, 1064, 1068
1975, 1069, 1068, 1013
1976, 1085, 1030, 1032
1977, 1069, 1013, 1014
1978, 1085, 1069, 1030
1979, 1070, 1015, 1016
1980, 1072, 1016, 1018
1981, 1180, 1177, 1158
1982, 1071, 1017, 1015
1983, 1073, 1018, 1021
1984, 1141, 1095, 1139
1985, 1075, 1021, 1022
1986, 1144, 1098, 1141
1987, 1074, 1019, 1020
1988, 1090, 1039, 1040
1989, 1076, 1022, 1023
1990, 1145, 1102, 1144
1991, 1077, 1023, 1024
1992, 1146, 1103, 1145
1993, 1078, 1024, 1025
1994, 1147, 1104, 1146
1995, 1079, 1025, 1026
1996, 1148, 1105, 1147
1997, 1080, 1026, 1027
1998, 1149, 1106, 1148
1999, 1081, 1027, 1028
2000, 1150, 1107, 1149
2001, 1083, 1028, 1029
2002, 1152, 1108, 1150
2003, 1082, 1029, 1019
2004, 1154, 1074, 1090
2005, 1190, 1189, 1167
2006, 1083, 1081, 1028
2007, 1096, 1094, 1047
2008, 1084, 1033, 1017
2009, 1086, 1032, 1031
2010, 1086, 1085, 1032
2011, 1087, 1031, 1034
2012, 1196, 1194, 1182
2013, 1088, 1087, 1034
2014, 1134, 1087, 1132
2015, 1177, 1175, 1159
2016, 1132, 1088, 1131
2017, 1089, 1041, 1036
2018, 1097, 1089, 1048
2019, 1091, 1040, 1043
2020, 1136, 1090, 1091
2021, 1093, 1043, 1044
2022, 1137, 1136, 1091
2023, 1135, 1089, 1097
2024, 1138, 1137, 1093
2025, 1138, 1092, 1135
2026, 1093, 1091, 1043
2027, 1094, 1046, 1047
2028, 1096, 1047, 1049
2029, 1119, 1118, 1070
2030, 1095, 1050, 1046
2031, 1143, 1049, 1099
2032, 1131, 1084, 1121
2033, 1097, 1048, 1005
2034, 1142, 1061, 1110
2035, 1120, 1119, 1072
2036, 1098, 1052, 1050
2037, 1099, 1049,  994
2038, 1151, 1062, 1101
2039, 1100, 1012, 1008
2040, 1113, 1010, 1066
2041, 1101, 1062, 1007
2042, 1115, 1051, 1065
2043, 1122, 1120, 1073
2044, 1102, 1053, 1052
2045, 1123, 1122, 1075
2046, 1103, 1054, 1053
2047, 1124, 1123, 1076
2048, 1104, 1055, 1054
2049, 1125, 1124, 1077
2050, 1105, 1056, 1055
2051, 1126, 1125, 1078
2052, 1106, 1057, 1056
2053, 1127, 1126, 1079
2054, 1107, 1058, 1057
2055, 1128, 1127, 1080
2056, 1108, 1059, 1058
2057, 1130, 1083, 1129
2058, 1109, 1060, 1059
2059, 1176, 1136, 1137
2060, 1110, 1061, 1060
2061, 1111, 1014,  960
2062, 1111,  959, 1030
2063, 1112, 1067, 1064
2064, 1173, 1116, 1133
2065, 1113, 1100, 1010
2066, 1157, 1066, 1117
2067, 1181, 1065,  676
2068, 1114, 1012, 1100
2069, 1115, 1101, 1051
2070, 1115, 1065, 1114
2071, 1116, 1068, 1085
2072, 1133, 1085, 1086
2073, 1197, 1182, 1194
2074, 1117, 1066, 1067
2075, 1118, 1071, 1070
2076, 1119, 1070, 1072
2077, 1120, 1072, 1073
2078, 1180, 1141, 1177
2079, 1122, 1073, 1075
2080, 1161, 1160, 1120
2081, 1140, 1139, 1094
2082, 1121, 1084, 1071
2083, 1123, 1075, 1076
2084, 1183, 1144, 1180
2085, 1124, 1076, 1077
2086, 1184, 1145, 1183
2087, 1125, 1077, 1078
2088, 1185, 1146, 1184
2089, 1126, 1078, 1079
2090, 1186, 1147, 1185
2091, 1127, 1079, 1080
2092, 1187, 1186, 1164
2093, 1128, 1080, 1081
2094, 1188, 1187, 1165
2095, 1130, 1081, 1083
2096, 1189, 1188, 1166
2097, 1129, 1083, 1082
2098, 1154, 1129, 1082
2099, 1153, 1109, 1152
2100, 1130, 1128, 1081
2101, 1171, 1131, 1170
2102, 1131, 1088, 1084
2103, 1172, 1132, 1171
2104, 1132, 1087, 1088
2105, 1133, 1116, 1085
2106, 1134, 1086, 1087
2107, 1197, 1193, 1179
2108, 1173, 1155, 1112
2109, 1135, 1092, 1089
2110, 1142, 1097, 1061
2111, 1137, 1091, 1093
2112, 1176, 1168, 1136
2113, 1138, 1093, 1092
2114, 1191, 1153, 1190
2115, 1142, 1138, 1135
2116, 1199, 1178, 1138
2117, 1139, 1095, 1094
2118, 1140, 1094, 1096
2119, 1179, 1096, 1143
2120, 1170, 1121, 1159
2121, 1177, 1139, 1175
2122, 1141, 1098, 1095
2123, 1142, 1135, 1097
2124, 1199, 1153, 1178
2125, 1143, 1096, 1049
2126, 1182, 1099, 1151
2127, 1160, 1158, 1119
2128, 1144, 1102, 1098
2129, 1162, 1161, 1122
2130, 1145, 1103, 1102
2131, 1163, 1162, 1123
2132, 1146, 1104, 1103
2133, 1164, 1163, 1124
2134, 1147, 1105, 1104
2135, 1165, 1164, 1125
2136, 1148, 1106, 1105
2137, 1166, 1165, 1126
2138, 1149, 1107, 1106
2139, 1167, 1166, 1127
2140, 1150, 1108, 1107
2141, 1151, 1099, 1062
2142, 1174, 1101, 1115
2143, 1169, 1130, 1168
2144, 1152, 1109, 1108
2145, 1191, 1190, 1169
2146, 1153, 1110, 1109
2147, 1154, 1082, 1074
2148, 1154, 1090, 1136
2149, 1155, 1117, 1112
2150, 1193, 1171, 1192
2151, 1156, 1100, 1113
2152, 1174, 1156, 1113
2153, 1157, 1113, 1066
2154, 1194, 1117, 1155
2155, 1158, 1118, 1119
2156, 1160, 1119, 1120
2157, 1175, 1170, 1159
2158, 1159, 1121, 1118
2159, 1161, 1120, 1122
2160, 1183, 1180, 1160
2161, 1162, 1122, 1123
2162, 1184, 1183, 1161
2163, 1163, 1123, 1124
2164, 1185, 1184, 1162
2165, 1164, 1124, 1125
2166, 1186, 1185, 1163
2167, 1165, 1125, 1126
2168, 1187, 1164, 1165
2169, 1166, 1126, 1127
2170, 1188, 1165, 1166
2171, 1167, 1127, 1128
2172, 1189, 1166, 1167
2173, 1169, 1128, 1130
2174, 1190, 1167, 1169
2175, 1168, 1130, 1129
2176, 1168, 1129, 1136
2177, 1191, 1169, 1168
2178, 1169, 1167, 1128
2179, 1192, 1170, 1175
2180, 1170, 1131, 1121
2181, 1193, 1192, 1179
2182, 1171, 1132, 1131
2183, 1195, 1173, 1172
2184, 1172, 1134, 1132
2185, 1173, 1133, 1134
2186, 1173, 1134, 1172
2187, 1174, 1113, 1157
2188, 1174, 1151, 1101
2189, 1175, 1139, 1140
2190, 1192, 1175, 1140
2191, 1178, 1176, 1137
2192, 1191, 1178, 1153
2193, 1177, 1159, 1158
2194, 1177, 1141, 1139
2195, 1178, 1137, 1138
2196, 1199, 1138, 1142
2197, 1179, 1140, 1096
2198, 1197, 1194, 1195
2199, 1180, 1158, 1160
2200, 1180, 1144, 1141
2201, 1181,  676,  677
2202, 1200, 1181,  677
2203, 1182, 1143, 1099
2204, 1196, 1182, 1151
2205, 1183, 1160, 1161
2206, 1183, 1145, 1144
2207, 1184, 1161, 1162
2208, 1184, 1146, 1145
2209, 1185, 1162, 1163
2210, 1185, 1147, 1146
2211, 1186, 1163, 1164
2212, 1186, 1148, 1147
2213, 1187, 1149, 1148
2214, 1187, 1148, 1186
2215, 1188, 1150, 1149
2216, 1188, 1149, 1187
2217, 1189, 1152, 1150
2218, 1189, 1150, 1188
2219, 1190, 1153, 1152
2220, 1190, 1152, 1189
2221, 1191, 1168, 1176
2222, 1191, 1176, 1178
2223, 1192, 1140, 1179
2224, 1192, 1171, 1170
2225, 1197, 1195, 1193
2226, 1193, 1172, 1171
2227, 1194, 1157, 1117
2228, 1195, 1194, 1155
2229, 1195, 1155, 1173
2230, 1195, 1172, 1193
2231, 1196, 1151, 1174
2232, 1196, 1157, 1194
2233, 1197, 1179, 1143
2234, 1197, 1143, 1182
2235, 1198,  701,  676
2236, 1198,  676, 1065
2237, 1199, 1142, 1110
2238, 1199, 1110, 1153
2239, 1200,  677,  700
2240, 1200,  700,  952
*Orientation, name=Ori-1
1., 0., 0., 0., 1., 0.
3, 0.
** Region: (CompositeLayup-1-1: Generated From Layup)
*Elset, elset=CompositeLayup-1-1, generate
    1,  2240,     1
** Section: CompositeLayup-1-1
*Shell Section, elset=CompositeLayup-1-1, composite, orientation=Ori-1, layup=CompositeLayup-1, symmetric
0.25, 3, CFRP, 0., Ply-1
0.25, 3, CFRP, 45., Ply-2
0.25, 3, CFRP, 90., Ply-3
0.25, 3, CFRP, -45., Ply-4
*End Part
**  
**
** ASSEMBLY
**
*Assembly, name=Assembly
**  
*Instance, name=Plate-1, part=PLATE
*End Instance
**  
*Nset, nset=Set-1, instance=Plate-1
   6,   7,  12,  62,  63,  64,  65,  66,  67,  68,  69,  70,  71,  72,  73, 162
 163, 164, 165, 166, 167, 168, 169, 170, 171, 172, 173, 174, 175, 176, 177, 178
 179, 180, 181, 182, 183, 184, 185, 186, 187, 188, 189, 190, 191
*Elset, elset=Set-1, instance=Plate-1
  189,  190,  205,  211,  277,  279,  282,  284,  286,  288,  358,  360,  367, 1133, 1134, 1145
 1253, 1254, 1256, 1258, 1260, 1262, 1264, 1266, 1268, 1270, 1272, 1274, 1276, 1278, 1280, 1282
 1284, 1286, 1288, 1290, 1292, 1294, 1296, 1298, 1300, 1302, 1304, 1339
*Nset, nset=Set-2, instance=Plate-1
   4,   5,  11,  28,  29,  30,  31,  32,  33,  34,  35,  36,  37,  38,  39, 122
 123, 124, 125, 126, 127, 128, 129, 130, 131, 132, 133, 134, 135, 136, 137, 138
 139, 140, 141, 142, 143, 144, 145, 146, 147, 148, 149, 150, 151
*Elset, elset=Set-2, instance=Plate-1
  17,  19,  63,  66,  68,  70,  72,  74,  76,  78,  80,  82,  83, 674, 675, 680
 714, 717, 719, 721, 723, 725, 727, 729, 731, 733, 735, 737, 739, 741, 743, 745
 747, 749, 751, 753, 755, 757, 759, 761, 763, 765, 767, 769
*End Assembly
** 
** MATERIALS
** 
*Material, name=CFRP
*Elastic, type=ENGINEERING CONSTANTS
150000.,9000.,9000., 0.34, 0.34,  0.4,5000.,5000.
5000.,
** ----------------------------------------------------------------
** 
** STEP: Step-1
** 
*Step, name=Step-1, nlgeom=NO
*Static
1., 1., 1e-05, 1.
** 
** BOUNDARY CONDITIONS
** 
** Name: BC-1 Type: Symmetry/Antisymmetry/Encastre
*Boundary
Set-1, ENCASTRE
** Name: DISPLACEMENT Type: Displacement/Rotation
*Boundary
Set-2, 1, 1, 1.63158
** 
** OUTPUT REQUESTS
** 
*Restart, write, frequency=0
** 
** FIELD OUTPUT: F-Output-1
** 
*Output, field
*Element Output, position=NODES, directions=YES
E, 
** 
** HISTORY OUTPUT: H-Output-1
** 
*Output, history, variable=PRESELECT
*End Step
