*Heading
 Elastic fabric composite plate with hole
** Job name: Plate_20 Model name: Model-1
** Generated by: Abaqus/CAE 2024.HF3
*Preprint, echo=NO, model=NO, history=NO, contact=NO
**
** PARTS
**
*Part, name=PLATE
*Node
      1,   50.6241837,   115.601868,           0.
      2,   50.6241837,    48.167202,           0.
      3,   62.1841316,   36.6072578,           0.
      4,   159.865845,   36.6072578,           0.
      5,   159.865845,   115.601868,           0.
      6,           0.,   115.601868,           0.
      7,           0.,   36.6072578,           0.
      8,   39.0642395,   36.6072578,           0.
      9,   50.6241837,   25.0473118,           0.
     10,   50.6241837,           0.,           0.
     11,   159.865845,           0.,           0.
     12,           0.,           0.,           0.
     13,   50.6241837,   111.387199,           0.
     14,   50.6241837,   107.172531,           0.
     15,   50.6241837,   102.957863,           0.
     16,   50.6241837,   98.7432022,           0.
     17,   50.6241837,   94.5285339,           0.
     18,   50.6241837,   90.3138657,           0.
     19,   50.6241837,   86.0991974,           0.
     20,   50.6241837,   81.8845367,           0.
     21,   50.6241837,   77.6698685,           0.
     22,   50.6241837,   73.4552002,           0.
     23,   50.6241837,   69.2405319,           0.
     24,   50.6241837,   65.0258713,           0.
     25,   50.6241837,    60.811203,           0.
     26,   50.6241837,   56.5965347,           0.
     27,   50.6241837,   52.3818703,           0.
     28,   55.0479851,   47.2872543,           0.
     29,   58.7983017,   44.7813721,           0.
     30,    61.304184,   41.0310555,           0.
     31,     66.43116,   36.6072578,           0.
     32,   70.6781921,   36.6072578,           0.
     33,   74.9252243,   36.6072578,           0.
     34,   79.1722565,   36.6072578,           0.
     35,   83.4192886,   36.6072578,           0.
     36,   87.6663208,   36.6072578,           0.
     37,   91.9133453,   36.6072578,           0.
     38,   96.1603775,   36.6072578,           0.
     39,    100.40741,   36.6072578,           0.
     40,   104.654442,   36.6072578,           0.
     41,   108.901474,   36.6072578,           0.
     42,   113.148506,   36.6072578,           0.
     43,   117.395538,   36.6072578,           0.
     44,    121.64257,   36.6072578,           0.
     45,   125.889595,   36.6072578,           0.
     46,   130.136627,   36.6072578,           0.
     47,   134.383667,   36.6072578,           0.
     48,   138.630692,   36.6072578,           0.
     49,   142.877716,   36.6072578,           0.
     50,   147.124756,   36.6072578,           0.
     51,    151.37178,   36.6072578,           0.
     52,    155.61882,   36.6072578,           0.
     53,   159.865845,   40.7648697,           0.
     54,   159.865845,   44.9224777,           0.
     55,   159.865845,   49.0800896,           0.
     56,   159.865845,   53.2377014,           0.
     57,   159.865845,   57.3953133,           0.
     58,   159.865845,   61.5529213,           0.
     59,   159.865845,   65.7105331,           0.
     60,   159.865845,   69.8681412,           0.
     61,   159.865845,   74.0257568,           0.
     62,   159.865845,   78.1833649,           0.
     63,   159.865845,   82.3409805,           0.
     64,   159.865845,   86.4985886,           0.
     65,   159.865845,   90.6561966,           0.
     66,   159.865845,   94.8138123,           0.
     67,   159.865845,   98.9714203,           0.
     68,   159.865845,   103.129028,           0.
     69,   159.865845,   107.286644,           0.
     70,   159.865845,   111.444252,           0.
     71,   155.664246,   115.601868,           0.
     72,   151.462646,   115.601868,           0.
     73,   147.261047,   115.601868,           0.
     74,   143.059433,   115.601868,           0.
     75,   138.857834,   115.601868,           0.
     76,   134.656235,   115.601868,           0.
     77,   130.454636,   115.601868,           0.
     78,   126.253029,   115.601868,           0.
     79,    122.05143,   115.601868,           0.
     80,   117.849823,   115.601868,           0.
     81,   113.648224,   115.601868,           0.
     82,   109.446617,   115.601868,           0.
     83,   105.245018,   115.601868,           0.
     84,   101.043411,   115.601868,           0.
     85,   96.8418121,   115.601868,           0.
     86,    92.640213,   115.601868,           0.
     87,   88.4386063,   115.601868,           0.
     88,   84.2370071,   115.601868,           0.
     89,   80.0354004,   115.601868,           0.
     90,   75.8338013,   115.601868,           0.
     91,   71.6321945,   115.601868,           0.
     92,   67.4305954,   115.601868,           0.
     93,   63.2289925,   115.601868,           0.
     94,   59.0273895,   115.601868,           0.
     95,   54.8257866,   115.601868,           0.
     96,   46.4055023,   115.601868,           0.
     97,    42.186821,   115.601868,           0.
     98,   37.9681396,   115.601868,           0.
     99,   33.7494583,   115.601868,           0.
    100,   29.5307751,   115.601868,           0.
    101,   25.3120918,   115.601868,           0.
    102,   21.0934105,   115.601868,           0.
    103,   16.8747292,   115.601868,           0.
    104,   12.6560459,   115.601868,           0.
    105,   8.43736458,   115.601868,           0.
    106,   4.21868229,   115.601868,           0.
    107,           0.,   111.444252,           0.
    108,           0.,   107.286644,           0.
    109,           0.,   103.129028,           0.
    110,           0.,   98.9714203,           0.
    111,           0.,   94.8138123,           0.
    112,           0.,   90.6561966,           0.
    113,           0.,   86.4985886,           0.
    114,           0.,   82.3409805,           0.
    115,           0.,   78.1833649,           0.
    116,           0.,   74.0257568,           0.
    117,           0.,   69.8681412,           0.
    118,           0.,   65.7105331,           0.
    119,           0.,   61.5529213,           0.
    120,           0.,   57.3953133,           0.
    121,           0.,   53.2377014,           0.
    122,           0.,   49.0800896,           0.
    123,           0.,   44.9224777,           0.
    124,           0.,   40.7648697,           0.
    125,   4.34047127,   36.6072578,           0.
    126,   8.68094254,   36.6072578,           0.
    127,   13.0214138,   36.6072578,           0.
    128,   17.3618851,   36.6072578,           0.
    129,   21.7023563,   36.6072578,           0.
    130,   26.0428276,   36.6072578,           0.
    131,    30.383297,   36.6072578,           0.
    132,   34.7237701,   36.6072578,           0.
    133,   39.9441872,   41.0310555,           0.
    134,   42.4500694,   44.7813721,           0.
    135,    46.200386,   47.2872543,           0.
    136,   50.6241837,   20.8727589,           0.
    137,   50.6241837,   16.6982079,           0.
    138,   50.6241837,   12.5236559,           0.
    139,   50.6241837,   8.34910393,           0.
    140,   50.6241837,   4.17455196,           0.
    141,   54.8257866,           0.,           0.
    142,   59.0273895,           0.,           0.
    143,   63.2289925,           0.,           0.
    144,   67.4305954,           0.,           0.
    145,   71.6321945,           0.,           0.
    146,   75.8338013,           0.,           0.
    147,   80.0354004,           0.,           0.
    148,   84.2370071,           0.,           0.
    149,   88.4386063,           0.,           0.
    150,    92.640213,           0.,           0.
    151,   96.8418121,           0.,           0.
    152,   101.043411,           0.,           0.
    153,   105.245018,           0.,           0.
    154,   109.446617,           0.,           0.
    155,   113.648224,           0.,           0.
    156,   117.849823,           0.,           0.
    157,    122.05143,           0.,           0.
    158,   126.253029,           0.,           0.
    159,   130.454636,           0.,           0.
    160,   134.656235,           0.,           0.
    161,   138.857834,           0.,           0.
    162,   143.059433,           0.,           0.
    163,   147.261047,           0.,           0.
    164,   151.462646,           0.,           0.
    165,   155.664246,           0.,           0.
    166,   159.865845,   4.06747293,           0.
    167,   159.865845,   8.13494587,           0.
    168,   159.865845,   12.2024193,           0.
    169,   159.865845,   16.2698917,           0.
    170,   159.865845,   20.3373642,           0.
    171,   159.865845,   24.4048386,           0.
    172,   159.865845,    28.472311,           0.
    173,   159.865845,   32.5397835,           0.
    174,    61.304184,   32.1834564,           0.
    175,   58.7983017,   28.4331417,           0.
    176,   55.0479851,   25.9272594,           0.
    177,    46.200386,   25.9272594,           0.
    178,   42.4500694,   28.4331417,           0.
    179,   39.9441872,   32.1834564,           0.
    180,           0.,   32.5397835,           0.
    181,           0.,    28.472311,           0.
    182,           0.,   24.4048386,           0.
    183,           0.,   20.3373642,           0.
    184,           0.,   16.2698917,           0.
    185,           0.,   12.2024193,           0.
    186,           0.,   8.13494587,           0.
    187,           0.,   4.06747293,           0.
    188,   4.21868229,           0.,           0.
    189,   8.43736458,           0.,           0.
    190,   12.6560459,           0.,           0.
    191,   16.8747292,           0.,           0.
    192,   21.0934105,           0.,           0.
    193,   25.3120918,           0.,           0.
    194,   29.5307751,           0.,           0.
    195,   33.7494583,           0.,           0.
    196,   37.9681396,           0.,           0.
    197,    42.186821,           0.,           0.
    198,   46.4055023,           0.,           0.
    199,   62.7122765,   45.5577965,           0.
    200,   64.7317352,   40.7750931,           0.
    201,   106.778008,   40.2834358,           0.
    202,   54.4649277,   109.959465,           0.
    203,   54.2752762,   79.7780609,           0.
    204,   54.2776451,   75.5640259,           0.
    205,   54.2824059,   71.3509598,           0.
    206,    54.291317,   67.1437225,           0.
    207,    54.304451,   62.9572334,           0.
    208,   54.3257637,   58.8225517,           0.
    209,   58.6987076,   48.7355843,           0.
    210,   54.4117966,   54.7354622,           0.
    211,   54.6163177,   50.7088966,           0.
    212,   123.765968,   40.2815742,           0.
    213,   119.518951,   40.2822647,           0.
    214,   115.272034,   40.2827873,           0.
    215,    111.02507,   40.2830696,           0.
    216,    102.53096,   40.2835464,           0.
    217,   98.2839813,   40.2837067,           0.
    218,    94.037178,    40.284256,           0.
    219,   89.7908707,   40.2859383,           0.
    220,   85.5454559,   40.2894325,           0.
    221,   81.3006516,   40.2948036,           0.
    222,   77.0711746,   40.2970352,           0.
    223,   72.9012527,   40.3312111,           0.
    224,   68.7854309,    40.468708,           0.
    225,   156.260727,   80.2632065,           0.
    226,   156.260147,   76.1054993,           0.
    227,   156.259445,   71.9476013,           0.
    228,   156.258423,   67.7899017,           0.
    229,   156.257004,   63.6324348,           0.
    230,   156.254349,   59.4753876,           0.
    231,   156.241272,   55.3169861,           0.
    232,   156.195511,   51.1306801,           0.
    233,   156.064667,   46.8100891,           0.
    234,      156.028,   42.2549629,           0.
    235,   90.5390549,    111.96183,           0.
    236,   94.7407455,    111.96167,           0.
    237,    98.942482,   111.961586,           0.
    238,    103.14418,   111.961563,           0.
    239,   107.345848,   111.961601,           0.
    240,   111.547554,   111.961884,           0.
    241,   115.749298,   111.962479,           0.
    242,   119.951019,   111.963333,           0.
    243,   124.152641,   111.964317,           0.
    244,   128.354248,   111.965355,           0.
    245,   132.555893,   111.966431,           0.
    246,   136.757431,   111.966942,           0.
    247,   140.962479,   111.958412,           0.
    248,   145.208267,   111.921158,           0.
    249,   149.595718,   111.811028,           0.
    250,   154.196487,   111.805084,           0.
    251,    156.26059,    84.420578,           0.
    252,   152.640427,   61.5565987,           0.
    253,   156.229889,   92.7311935,           0.
    254,   156.252121,    88.576561,           0.
    255,   152.652145,    78.186058,           0.
    256,   152.649033,   69.8701401,           0.
    257,   152.592041,   53.2430229,           0.
    258,   152.484833,   49.0446854,           0.
    259,    152.62323,   57.4024467,           0.
    260,   152.645035,   65.7130432,           0.
    261,   152.650345,   74.0283737,           0.
    262,   156.160706,   96.8877335,           0.
    263,   156.106613,   101.048317,           0.
    264,   156.437195,   108.678688,           0.
    265,   86.3374329,   111.961884,           0.
    266,   134.657959,   108.332893,           0.
    267,   143.094101,   108.319046,           0.
    268,   126.254463,   108.328239,           0.
    269,   57.6255989,   112.226379,           0.
    270,    92.639389,    108.32074,           0.
    271,   101.043198,   108.320435,           0.
    272,   77.9340973,   111.962799,           0.
    273,   82.1358032,   111.962051,           0.
    274,   96.8412247,   108.320366,           0.
    275,   113.649002,   108.321968,           0.
    276,   117.851074,   108.323631,           0.
    277,   105.245056,   108.320412,           0.
    278,   109.447014,   108.320824,           0.
    279,    122.05294,   108.325829,           0.
    280,   147.378571,   108.249023,           0.
    281,   138.867233,   108.333038,           0.
    282,   130.456314,   108.330849,           0.
    283,   57.9302711,   77.6745453,           0.
    284,   57.9647217,   56.8940201,           0.
    285,   54.2758446,   88.2055283,           0.
    286,   54.2747154,   83.9923019,           0.
    287,   57.9689827,   60.9260902,           0.
    288,   57.9383392,   73.4633255,           0.
    289,   57.9533501,   69.2608261,           0.
    290,   57.9666176,    65.076683,           0.
    291,   128.013138,   40.2817268,           0.
    292,   132.260803,   40.2908325,           0.
    293,   100.407669,   43.9592018,           0.
    294,   113.148682,   43.9576759,           0.
    295,   79.2117767,   43.9822617,           0.
    296,   140.770752,   40.3826828,           0.
    297,   149.261642,   40.3919868,           0.
    298,    121.64283,   43.9548073,           0.
    299,    91.915802,   43.9626198,           0.
    300,   87.6725693,   43.9681625,           0.
    301,   136.507416,    40.324955,           0.
    302,   83.4367371,   43.9760399,           0.
    303,    104.65464,    43.958683,           0.
    304,   96.1614685,   43.9601669,           0.
    305,   75.0552979,   44.0068588,           0.
    306,   70.9907532,   44.1249733,           0.
    307,   145.037384,   40.4201584,           0.
    308,   152.836548,   40.0475769,           0.
    309,   108.901733,   43.9580536,           0.
    310,   117.395653,   43.9562645,           0.
    311,   151.873413,   44.3335991,           0.
    312,   152.147354,   107.696007,           0.
    313,   54.4939384,   105.371933,           0.
    314,   152.647888,   86.4988861,           0.
    315,   156.118866,   105.167984,           0.
    316,   152.502045,   94.7833405,           0.
    317,   152.601089,   90.6449966,           0.
    318,   152.300064,   98.9660263,           0.
    319,   149.036316,    71.952301,           0.
    320,   149.038437,   76.1102371,           0.
    321,   149.031784,   67.7945404,           0.
    322,   149.021179,   63.6371994,           0.
    323,   148.957138,   55.2972374,           0.
    324,   148.976364,   59.4642372,           0.
    325,   148.951462,   51.1239166,           0.
    326,   152.651413,   82.3430099,           0.
    327,   149.155701,   47.4584541,           0.
    328,   84.2360764,   108.321297,           0.
    329,   73.7286911,   111.965843,           0.
    330,   65.3272171,   111.973145,           0.
    331,   69.5228271,   111.970589,           0.
    332,   61.1777802,   111.960442,           0.
    333,   80.0333557,   108.321289,           0.
    334,   107.346428,   104.678528,           0.
    335,   103.144104,   104.677994,           0.
    336,   111.548996,   104.679802,           0.
    337,   98.9417419,    104.67794,           0.
    338,   94.7395782,   104.678131,           0.
    339,   124.155762,    104.68969,           0.
    340,   115.751633,   104.682228,           0.
    341,   128.358917,   104.693207,           0.
    342,   132.566437,   104.694038,           0.
    343,   141.040756,   104.712494,           0.
    344,   119.954025,   104.685608,           0.
    345,   136.799225,   104.689445,           0.
    346,   145.309402,    104.76091,           0.
    347,    88.437645,   108.320862,           0.
    348,   57.9264946,   81.8877258,           0.
    349,     54.28405,   92.4183044,           0.
    350,   54.3265343,   96.6568222,           0.
    351,   61.5918503,   75.5781021,           0.
    352,    61.609539,   71.3755264,           0.
    353,   61.6304092,   67.1831741,           0.
    354,   61.5371132,   58.7276268,           0.
    355,   57.9262314,   86.0983887,           0.
    356,   61.6236954,   62.9530563,           0.
    357,   125.889801,    43.954464,           0.
    358,   147.243118,   44.2304688,           0.
    359,   142.919037,   44.2483215,           0.
    360,   102.531586,   47.6330452,           0.
    361,   138.611435,   44.0857544,           0.
    362,   134.369095,   44.0026436,           0.
    363,   98.2855301,   47.6342354,           0.
    364,   89.7994766,   47.6435394,           0.
    365,   94.0416412,   47.6374359,           0.
    366,   106.778595,   47.6320572,           0.
    367,    111.02549,   47.6311455,           0.
    368,   115.272491,   47.6295357,           0.
    369,   119.520287,   47.6266403,           0.
    370,   85.5645599,   47.6543999,           0.
    371,   73.0684891,   47.7561836,           0.
    372,   77.1606903,   47.7090874,           0.
    373,   81.3466721,   47.6742096,           0.
    374,    130.13208,   43.9666023,           0.
    375,   149.028976,   105.004791,           0.
    376,   58.2642136,    52.881237,           0.
    377,   67.0226364,    44.468277,           0.
    378,   54.4084091,   100.959137,           0.
    379,   62.6992912,   51.0690079,           0.
    380,   65.7465744,   48.0734825,           0.
    381,   58.6835861,   108.022598,           0.
    382,   63.2235031,   108.355537,           0.
    383,   145.193802,   48.4635429,           0.
    384,   148.044083,   101.133652,           0.
    385,   149.037445,   84.4193726,           0.
    386,   145.263977,   53.0857048,           0.
    387,   145.400177,   65.7227554,           0.
    388,   148.995392,   88.5545883,           0.
    389,   145.412811,   69.8802795,           0.
    390,   145.343704,   61.5656319,           0.
    391,     148.8992,   92.6567078,           0.
    392,   148.720627,   96.7155304,           0.
    393,   145.217163,    57.347641,           0.
    394,   145.419022,   74.0366898,           0.
    395,      152.291,   103.169464,           0.
    396,   149.038971,   80.2661972,           0.
    397,   65.2983246,   65.0371094,           0.
    398,   86.3359833,   104.679161,           0.
    399,   122.058327,   101.048927,           0.
    400,   82.1328506,   104.677483,           0.
    401,   71.6047821,   108.323181,           0.
    402,   139.012619,   100.999008,           0.
    403,   67.3864059,   108.341049,           0.
    404,   105.245537,   101.034584,           0.
    405,   101.042488,   101.034073,           0.
    406,   109.448936,   101.035957,           0.
    407,   96.8398209,   101.034088,           0.
    408,   126.262657,   101.053864,           0.
    409,   134.710297,   101.045692,           0.
    410,   130.478012,   101.055504,           0.
    411,   143.359406,   101.122047,           0.
    412,   117.855827,   101.043259,           0.
    413,   113.652603,   101.038857,           0.
    414,   75.8222198,   108.318565,           0.
    415,   90.5376511,   104.678452,           0.
    416,   65.2612381,   73.4932022,           0.
    417,    65.283226,   69.2859879,           0.
    418,   57.9376678,   90.3037186,           0.
    419,   61.5779037,   83.9944992,           0.
    420,   61.5829468,   79.7873917,           0.
    421,   58.0051384,   94.5192337,           0.
    422,   65.2526703,   60.6173973,           0.
    423,   87.6914673,   51.3281059,           0.
    424,   83.4633484,   51.3516808,           0.
    425,    123.76786,   47.6258888,           0.
    426,   96.1662827,   51.3097267,           0.
    427,    100.41021,   51.3066635,           0.
    428,   113.149689,   51.3014526,           0.
    429,   140.643005,   47.8464622,           0.
    430,   136.459396,   47.7193832,           0.
    431,   91.9271393,   51.3165283,           0.
    432,   104.656075,   51.3048401,           0.
    433,    108.90274,   51.3031158,           0.
    434,   117.398064,   51.2976913,           0.
    435,   132.244461,   47.6664658,           0.
    436,   75.0690536,   51.5375061,           0.
    437,   128.010803,   47.6391792,           0.
    438,   79.2602539,   51.4213905,           0.
    439,   58.1990776,   98.8224258,           0.
    440,   58.2986755,    103.21682,           0.
    441,   145.407379,   82.3438721,           0.
    442,   141.756042,   63.6881371,           0.
    443,   141.103958,   55.1036835,           0.
    444,   141.661346,   59.5827637,           0.
    445,   141.784164,   67.8238525,           0.
    446,     145.3591,   86.4828415,           0.
    447,   145.304749,   90.5846786,           0.
    448,   141.793991,   71.9701843,           0.
    449,   145.225906,   94.6175079,           0.
    450,   145.419037,   78.1914825,           0.
    451,    61.788269,   96.5234528,           0.
    452,   68.9514236,   67.1694794,           0.
    453,   68.9426422,   62.8067589,           0.
    454,    88.436264,   101.035736,           0.
    455,   124.166252,   97.4131012,           0.
    456,   73.6863861,   104.650269,           0.
    457,   84.2397461,   101.034103,           0.
    458,   69.4219894,   104.670769,           0.
    459,    128.40387,    97.397934,           0.
    460,   119.962341,   97.4053345,           0.
    461,   107.348289,   97.3904114,           0.
    462,   103.143913,   97.3889694,           0.
    463,   98.9403687,   97.3885117,           0.
    464,   141.423889,   97.0338593,           0.
    465,   136.880371,   97.4451599,           0.
    466,   132.686356,   97.4059296,           0.
    467,   77.9194641,   104.664993,           0.
    468,   111.553261,   97.3934784,           0.
    469,   68.9274902,   71.4098892,           0.
    470,   115.758179,   97.3985519,           0.
    471,   92.6376343,   101.034454,           0.
    472,   65.2321777,   81.8983002,           0.
    473,   61.5877838,   88.1910019,           0.
    474,   61.6429749,   92.3655701,           0.
    475,   65.2442017,   77.6958771,           0.
    476,   81.3614426,   55.0923882,           0.
    477,   85.5805283,   55.0323944,           0.
    478,   89.8159637,   55.0014839,           0.
    479,    77.223877,   55.2112999,           0.
    480,   121.645256,   51.2971611,           0.
    481,   94.0518875,   54.9871864,           0.
    482,   130.123764,   51.3442078,           0.
    483,   138.539062,   51.3768539,           0.
    484,   98.2914581,     54.98032,           0.
    485,   102.534966,   54.9767799,           0.
    486,   106.780464,   54.9744301,           0.
    487,   111.027283,   54.9717598,           0.
    488,   134.355286,    51.372612,           0.
    489,   115.276306,    54.967617,           0.
    490,   65.1051865,      55.6945,           0.
    491,   125.883652,   51.3129501,           0.
    492,   61.1141052,   55.0532799,           0.
    493,   71.0316849,   51.4769783,           0.
    494,   62.4786072,   101.057472,           0.
    495,   65.2018127,   104.756035,           0.
    496,   61.5772362,   105.081696,           0.
    497,   142.148758,    51.175251,           0.
    498,   141.761719,   80.2804718,           0.
    499,    65.298172,   94.3886642,           0.
    500,   138.391281,   58.1098557,           0.
    501,   138.187775,   61.6540375,           0.
    502,   138.179886,   65.7304688,           0.
    503,   141.678329,   84.4612427,           0.
    504,   138.164017,    69.862381,           0.
    505,   141.653397,   88.6246643,           0.
    506,   141.698563,   92.6837311,           0.
    507,   145.354782,   98.1245193,           0.
    508,   141.791382,   76.1217499,           0.
    509,   72.6973267,   64.9758453,           0.
    510,   65.1655502,    97.971344,           0.
    511,   72.6397934,   69.3222733,           0.
    512,   90.5373535,   97.3909225,           0.
    513,    75.807724,   100.954826,           0.
    514,   86.3535233,   97.3911667,           0.
    515,    126.38195,   93.6550751,           0.
    516,   122.120163,   93.6946564,           0.
    517,   71.4847107,   100.892075,           0.
    518,   105.246857,   93.7429581,           0.
    519,   68.8878937,   79.8138428,           0.
    520,   101.041809,   93.7415466,           0.
    521,   130.791061,   93.5816116,           0.
    522,   138.611542,   94.3805084,           0.
    523,     135.1017,   93.8524246,           0.
    524,   117.882645,   93.7317963,           0.
    525,   109.453682,   93.7454605,           0.
    526,   80.0400391,   100.999359,           0.
    527,   113.664841,   93.7433624,           0.
    528,   94.7378616,    97.388855,           0.
    529,   65.2284851,    86.095047,           0.
    530,    65.240509,   90.2670059,           0.
    531,   68.9075851,   75.6148605,           0.
    532,   83.4508057,    58.735218,           0.
    533,   79.2931442,   58.7823105,           0.
    534,   87.6894302,   58.6927567,           0.
    535,   68.9392624,   58.3334122,           0.
    536,   91.9341507,   58.6672859,           0.
    537,   119.525528,   54.9655952,           0.
    538,    96.174324,    58.654644,           0.
    539,   132.255035,    55.092907,           0.
    540,   100.415627,   58.6482277,           0.
    541,   127.992256,   54.9992294,           0.
    542,   104.659294,   58.6445351,           0.
    543,   108.905304,   58.6411362,           0.
    544,   113.155685,    58.637001,           0.
    545,   123.765755,   54.9713516,           0.
    546,   72.7913666,   55.7577782,           0.
    547,   69.0907745,   96.8276443,           0.
    548,   138.126007,   78.2194519,           0.
    549,   134.685699,    63.547554,           0.
    550,   134.536575,   59.1247673,           0.
    551,   138.014786,   82.4346313,           0.
    552,   134.556839,   67.6421051,           0.
    553,   137.870514,    86.740448,           0.
    554,   68.8022003,   92.3370438,           0.
    555,   76.4408569,   67.2407303,           0.
    556,   138.156235,    74.033577,           0.
    557,   72.5482483,   77.7670593,           0.
    558,   77.9725647,   97.2151947,           0.
    559,   92.6355438,   93.7393646,           0.
    560,   88.4350586,   93.7097092,           0.
    561,   73.6994781,    97.152565,           0.
    562,   128.774216,   89.7304077,           0.
    563,   124.357559,   89.8121567,           0.
    564,   103.144249,   90.0939789,           0.
    565,   133.660889,   89.4002304,           0.
    566,   120.019402,   89.9977646,           0.
    567,   107.352997,   90.0956192,           0.
    568,   67.1405716,   101.029221,           0.
    569,   85.5256577,   62.3373642,           0.
    570,   81.3314056,    62.321312,           0.
    571,   115.779984,   90.0700226,           0.
    572,   82.1889496,   97.3474197,           0.
    573,   111.564041,   90.0907745,           0.
    574,   96.8380508,   93.7407913,           0.
    575,   68.8246536,   88.2061005,           0.
    576,   68.8567505,   84.0187454,           0.
    577,   72.5937042,   73.5583649,           0.
    578,   89.7901459,   62.3269768,           0.
    579,   72.6351471,   60.5223541,           0.
    580,   136.530197,   55.0301132,           0.
    581,   94.0486374,   62.3223877,           0.
    582,   117.417175,   58.6410675,           0.
    583,   75.7412567,   58.5813904,           0.
    584,   98.2953873,   62.3174286,           0.
    585,   130.086243,   58.6425514,           0.
    586,   102.538872,    62.313282,           0.
    587,   106.787926,   62.3068886,           0.
    588,   69.0018768,   54.5383377,           0.
    589,   111.048996,   62.2966309,           0.
    590,   125.937843,   58.6505699,           0.
    591,   121.698349,   58.6668587,           0.
    592,   67.1235657,   51.4492683,           0.
    593,   134.461395,   76.1330185,           0.
    594,   131.086914,    65.246048,           0.
    595,   134.369873,   80.3991318,           0.
    596,   134.227585,   84.6652908,           0.
    597,   76.2272568,   75.7805481,           0.
    598,   72.2958527,    90.376358,           0.
    599,   138.099442,   90.9469986,           0.
    600,   134.483414,   71.8643341,           0.
    601,   83.3230209,   65.8495255,           0.
    602,   80.1987076,   93.6553955,           0.
    603,   94.7353363,   90.1043625,           0.
    604,   75.8151245,   93.0500031,           0.
    605,   90.5661392,    90.012619,           0.
    606,     87.57724,   65.9436417,           0.
    607,   126.753258,    85.477272,           0.
    608,   130.812744,   86.3843994,           0.
    609,   122.118713,   86.1971588,           0.
    610,   105.293495,   86.4813461,           0.
    611,   72.4064865,   86.2288437,           0.
    612,   117.902359,   86.3592758,           0.
    613,   84.2666168,   93.6867371,           0.
    614,   109.472298,   86.4798431,           0.
    615,   113.679276,   86.4326248,           0.
    616,   98.9343491,   90.0973434,           0.
    617,   76.3930511,   71.5281372,           0.
    618,   72.4977493,    82.020134,           0.
    619,   76.8274307,   62.5657845,           0.
    620,   91.8799362,    65.981102,           0.
    621,   115.331841,   62.3314896,           0.
    622,   96.1616058,   65.9551239,           0.
    623,    100.37825,   65.9340286,           0.
    624,   104.593971,   65.9500351,           0.
    625,   128.233856,   62.2465172,           0.
    626,   108.886406,   65.9278641,           0.
    627,   124.002838,   62.4874191,           0.
    628,   119.648674,   62.4255676,           0.
    629,   131.725861,   61.7614899,           0.
    630,   71.9406891,   93.9487228,           0.
    631,   130.734985,   73.9541321,           0.
    632,   130.675613,   78.3434525,           0.
    633,   130.625122,   82.6663284,           0.
    634,   79.9058533,   73.8695679,           0.
    635,   85.2207336,   69.5115662,           0.
    636,   75.7866287,    88.555603,           0.
    637,   130.760544,   69.5137024,           0.
    638,   76.0171432,   84.3662415,           0.
    639,   82.1165314,   89.9933701,           0.
    640,    96.851059,   86.5240326,           0.
    641,   92.7989655,   86.5590591,           0.
    642,   89.5914536,   69.6854553,           0.
    643,   123.685425,   82.7370605,           0.
    644,   80.5907974,   69.4309845,           0.
    645,   120.000061,   82.6075592,           0.
    646,   76.1476517,   80.0758514,           0.
    647,   107.480553,   83.0736465,           0.
    648,   86.3185043,   89.8026886,           0.
    649,   115.768036,   82.7565536,           0.
    650,   111.567375,    82.943428,           0.
    651,   101.100044,   86.4797668,           0.
    652,   79.7027054,   65.4816666,           0.
    653,   93.9936905,   69.5559235,           0.
    654,   113.191605,   65.9488983,           0.
    655,   98.1563416,   69.3608551,           0.
    656,    102.19529,   69.4704208,           0.
    657,    106.51593,   69.5850143,           0.
    658,   126.679428,   66.7432251,           0.
    659,   121.897141,   66.3346405,           0.
    660,   117.514732,    66.172821,           0.
    661,   126.881447,   80.6699066,           0.
    662,   126.864037,   76.1377182,           0.
    663,    79.779129,   82.4709625,           0.
    664,   87.0381393,   73.6827087,           0.
    665,   79.3773804,   86.8627319,           0.
    666,   83.9446487,   85.2479553,           0.
    667,   78.6588745,   90.4234161,           0.
    668,   99.1450348,   82.8843613,           0.
    669,   94.8912964,   83.1926804,           0.
    670,   91.8391266,    73.233429,           0.
    671,    79.795311,   78.0450516,           0.
    672,   122.550568,   78.5389557,           0.
    673,    88.797493,   86.0831146,           0.
    674,   117.763367,   79.0084534,           0.
    675,   109.417274,   79.7664871,           0.
    676,   113.519821,   79.4101791,           0.
    677,   103.468826,   82.9754944,           0.
    678,   96.1572113,   72.7499008,           0.
    679,   110.948761,   69.4768677,           0.
    680,   99.7807388,   72.1660309,           0.
    681,   103.551239,   73.6470413,           0.
    682,   119.646538,   70.4550858,           0.
    683,   115.153946,   69.5937729,           0.
    684,   123.698807,   69.7587357,           0.
    685,     126.9953,   71.6200333,           0.
    686,   83.4988861,   80.1308365,           0.
    687,   89.9788818,   77.1067886,           0.
    688,   88.0361557,   81.4131165,           0.
    689,   96.9375992,   79.5135422,           0.
    690,   83.2900162,   75.9780045,           0.
    691,   102.070946,   78.8144379,           0.
    692,    94.365715,   76.3984756,           0.
    693,   91.4009781,   83.4882965,           0.
    694,   119.181091,   75.0246353,           0.
    695,   105.847969,   80.3067932,           0.
    696,   111.152382,   76.2894897,           0.
    697,   115.206451,   75.8736191,           0.
    698,   108.673721,   73.1148224,           0.
    699,   123.156059,   73.5891953,           0.
    700,   69.1639481,   47.8915253,           0.
    701,   83.2091064,   72.4945679,           0.
    702,   92.6017685,   80.1854858,           0.
    703,   98.8105774,   75.5482407,           0.
    704,   106.785591,   76.9898453,           0.
    705,   112.947586,   72.8451538,           0.
    706,   116.427124,   72.7584534,           0.
    707,   86.3684158,   77.6622925,           0.
    708,   46.6691246,   50.6822815,           0.
    709,   46.9736137,   71.3488388,           0.
    710,   42.5773773,   48.8008614,           0.
    711,   38.4781075,   45.6948547,           0.
    712,    46.975338,   92.4206772,           0.
    713,   46.9758987,   88.2061691,           0.
    714,   46.9762764,   83.9917221,           0.
    715,   46.9763565,   79.7771606,           0.
    716,   46.9754906,   75.5628204,           0.
    717,   46.9673462,   67.1368484,           0.
    718,   46.9557381,   62.9288254,           0.
    719,   46.9441376,   58.7468719,           0.
    720,   46.8752403,   54.7016411,           0.
    721,    23.203371,    111.95163,           0.
    722,   27.4216976,   111.950607,           0.
    723,   31.6400394,   111.947701,           0.
    724,    35.882164,   111.912712,           0.
    725,   40.2777481,   111.800652,           0.
    726,   44.8892136,   111.791161,           0.
    727,   3.86773896,   42.2890663,           0.
    728,   3.63671613,   51.1427803,           0.
    729,   3.61821461,   55.3122749,           0.
    730,   3.61270881,   59.4736557,           0.
    731,   3.60881877,   63.6322975,           0.
    732,   3.60600281,   67.7898712,           0.
    733,   3.60419989,   71.9471893,           0.
    734,    3.6035347,     76.10466,           0.
    735,   3.60335851,   80.2621918,           0.
    736,   3.60355091,   84.4197159,           0.
    737,   3.60402131,   88.5772781,           0.
    738,   3.60523725,   92.7347641,           0.
    739,   3.60872293,   96.8918915,           0.
    740,   3.64559174,   101.069527,           0.
    741,   3.76848054,   105.394707,           0.
    742,   3.79450274,   109.939812,           0.
    743,   23.8697662,    40.368042,           0.
    744,   28.1638222,   40.3804436,           0.
    745,   32.3613586,   40.5292282,           0.
    746,   36.4463692,   40.8483353,           0.
    747,   3.80881882,   46.8105888,           0.
    748,   7.22789001,   61.5556641,           0.
    749,   7.27338505,    53.188343,           0.
    750,   7.21306992,   69.8699341,           0.
    751,   7.21040297,   74.0265656,           0.
    752,   7.33827686,    103.14064,           0.
    753,   7.25281477,   98.9625549,           0.
    754,   7.20926714,   78.1835632,           0.
    755,   7.20937872,   82.3407593,           0.
    756,   7.22070646,    65.713829,           0.
    757,   7.21048164,   86.4980087,           0.
    758,   7.24319029,   57.3864174,           0.
    759,   7.21270704,   90.6552505,           0.
    760,   7.22194099,   94.8110657,           0.
    761,   46.8999557,    96.646904,           0.
    762,   43.3286972,   77.6705017,           0.
    763,   43.3132401,   56.9284286,           0.
    764,   43.3285217,   90.3123474,           0.
    765,   46.7994804,   100.872154,           0.
    766,   43.3299561,   81.8844681,           0.
    767,   43.2899208,   60.9289474,           0.
    768,   46.8014488,   105.056419,           0.
    769,   47.1515045,   108.609184,           0.
    770,    43.295517,   65.0623703,           0.
    771,   43.3137665,   69.2531967,           0.
    772,    43.324173,   73.4593201,           0.
    773,   43.3298645,   86.0982819,           0.
    774,   18.9636288,   111.881195,           0.
    775,   37.9957733,   108.186241,           0.
    776,   25.3122215,   108.302307,           0.
    777,   14.7092857,   111.782631,           0.
    778,   10.5155592,    111.79763,           0.
    779,   6.97624874,   112.163269,           0.
    780,   33.7449532,   108.264931,           0.
    781,    29.527792,   108.293045,           0.
    782,   15.1361303,   40.3881607,           0.
    783,    19.514225,   40.3655243,           0.
    784,   10.8049555,   40.3688774,           0.
    785,   25.9261723,   44.1568451,           0.
    786,   30.0298939,   44.2901878,           0.
    787,   7.92802572,   107.841255,           0.
    788,   42.7841682,   107.614388,           0.
    789,   10.8181877,   80.2619476,           0.
    790,   10.8197079,   76.1058884,           0.
    791,   10.8634834,   55.2679329,           0.
    792,   10.8284779,   92.7319031,           0.
    793,   10.8196201,   84.4185028,           0.
    794,   10.8238449,   71.9510651,           0.
    795,    10.823473,   88.5750732,           0.
    796,   10.8532991,   96.8766403,           0.
    797,   10.8332243,   67.7971954,           0.
    798,   10.8566704,   101.029678,           0.
    799,   10.8521805,   59.4779053,           0.
    800,   10.8467016,    63.641655,           0.
    801,   10.6499157,   104.711853,           0.
    802,   7.42500639,   48.9676666,           0.
    803,   43.1995087,   94.5177689,           0.
    804,   21.1055012,   108.182503,           0.
    805,   42.8957405,   103.028625,           0.
    806,    39.666153,   71.3646927,           0.
    807,   39.6845894,     79.77845,           0.
    808,   39.6785164,   75.5697174,           0.
    809,   39.6857185,   83.9905701,           0.
    810,   39.6845245,   88.2034073,           0.
    811,   39.6367149,    67.174469,           0.
    812,    39.615078,   63.0298843,           0.
    813,   42.9633675,   98.7649155,           0.
    814,   39.6800919,   58.8826332,           0.
    815,    12.536603,   107.954384,           0.
    816,   35.8736954,   104.675835,           0.
    817,   31.6534882,   104.668343,           0.
    818,    27.425087,    104.65966,           0.
    819,   16.8467922,   107.971466,           0.
    820,   39.6307793,   104.897758,           0.
    821,   42.9878731,   52.9705086,           0.
    822,   21.6530056,   44.1213188,           0.
    823,   12.8101568,   44.1638069,           0.
    824,   27.8479748,   47.9526291,           0.
    825,   17.2292919,   44.2106972,           0.
    826,   34.0546799,   44.6591606,           0.
    827,   8.08908653,   44.2984238,           0.
    828,   38.4337082,   51.3133469,           0.
    829,   35.3013878,   48.3132973,           0.
    830,   14.5971909,   103.717484,           0.
    831,   38.6388206,   101.003143,           0.
    832,   14.4666376,   65.7318649,           0.
    833,   14.5225153,   99.1058273,           0.
    834,   14.4486599,    69.882103,           0.
    835,   14.5898161,    94.888588,           0.
    836,   14.4319735,   82.3393707,           0.
    837,   14.4384813,   74.0326385,           0.
    838,   14.4385672,   86.4962616,           0.
    839,   14.4341402,   78.1852188,           0.
    840,    14.487092,   90.6743317,           0.
    841,    14.452239,   61.6079979,           0.
    842,   14.5327015,   57.4139824,           0.
    843,   35.9506836,       65.125,           0.
    844,   10.9116621,   51.0602837,           0.
    845,   35.9942474,   69.2951813,           0.
    846,   35.9077301,   60.8288078,           0.
    847,   39.5731621,   92.3984299,           0.
    848,   23.2655296,   104.566544,           0.
    849,   36.0432701,     86.09478,           0.
    850,   36.0433426,   81.8847046,           0.
    851,   36.0224266,   73.4809494,           0.
    852,   36.0369644,    77.679863,           0.
    853,   39.3487663,   96.5342636,           0.
    854,   33.9278488,   101.050598,           0.
    855,    29.609396,   100.915466,           0.
    856,   19.1254787,   104.387131,           0.
    857,     19.39048,   47.9273071,           0.
    858,    14.720973,   48.4635735,           0.
    859,   23.6521511,   47.8953362,           0.
    860,    7.1566391,   40.0341759,           0.
    861,    18.067503,   67.7934875,           0.
    862,   18.0532093,   71.9456482,           0.
    863,   18.0429096,   63.7010651,           0.
    864,   18.6957245,   97.1500397,           0.
    865,   18.0550556,   84.4169312,           0.
    866,   18.0515118,   80.2625122,           0.
    867,   18.0530663,   76.1071854,           0.
    868,   18.1536312,   92.6615448,           0.
    869,   18.0777359,   88.5466843,           0.
    870,   32.2510681,    63.007164,           0.
    871,   18.1159153,   59.6548843,           0.
    872,   32.3349686,   67.2659912,           0.
    873,   10.7913771,   47.3907509,           0.
    874,   32.3828697,   71.4657211,           0.
    875,    14.544095,   53.1314354,           0.
    876,   35.9716682,   90.2965393,           0.
    877,    25.366312,    100.90815,           0.
    878,   32.4220695,   79.8488007,           0.
    879,   32.4171333,   75.6782913,           0.
    880,   32.4254379,   84.0517731,           0.
    881,   35.8461838,   94.4234085,           0.
    882,   32.0208168,   96.8519669,           0.
    883,   21.2225018,   100.880424,           0.
    884,   35.9703751,   55.9321976,           0.
    885,   21.4005928,   51.5339622,           0.
    886,   17.7468624,   51.2632027,           0.
    887,   25.6947212,   51.7217064,           0.
    888,    31.808073,   48.1169586,           0.
    889,   17.6326828,    101.04818,           0.
    890,   18.7292156,   55.2085648,           0.
    891,   33.8718834,   51.6902657,           0.
    892,   28.7193985,   65.2887268,           0.
    893,   21.6580505,   69.8207855,           0.
    894,   21.6322765,   65.6919937,           0.
    895,   21.6534576,   73.9735947,           0.
    896,   28.7886353,     69.53302,           0.
    897,   21.3959446,   94.1537628,           0.
    898,   21.6593971,   82.2967606,           0.
    899,   21.6539993,    78.127388,           0.
    900,   21.5043774,   61.6648521,           0.
    901,   21.6540489,   86.4260635,           0.
    902,   21.6251736,   90.5701141,           0.
    903,   28.8169498,   73.7246475,           0.
    904,   32.4004059,    88.240921,           0.
    905,   28.8321686,   77.9074402,           0.
    906,   28.8327579,   82.0750351,           0.
    907,   27.4358864,    97.183342,           0.
    908,   35.9564857,   97.9726791,           0.
    909,   32.3689537,   92.3716354,           0.
    910,   32.1031151,   58.5709419,           0.
    911,   23.3222046,   55.3286858,           0.
    912,   21.2728519,   58.2220612,           0.
    913,   25.1999016,   67.5983734,           0.
    914,   25.2279568,    71.771637,           0.
    915,   25.0537586,   63.3946953,           0.
    916,   25.2400589,    75.941597,           0.
    917,   25.2445812,   80.1046982,           0.
    918,   25.2380733,   84.2657623,           0.
    919,   25.2694912,   93.1509781,           0.
    920,   25.2379436,   88.5064392,           0.
    921,   28.8272572,   86.2580566,           0.
    922,   23.2309761,   97.2377853,           0.
    923,   28.8749619,   90.4227676,           0.
    924,   28.4764881,   60.9225388,           0.
    925,   28.0009766,   56.0375671,           0.
    926,   31.9575386,   54.7861176,           0.
    927,   29.1940212,   93.9961395,           0.
    928,   24.6051102,    59.261734,           0.
    929,   29.8635292,   51.7175407,           0.
    930,   40.0770569,   55.2054214,           0.
    931,   59.0791092,    23.922945,           0.
    932,    132.55571,   3.63991165,           0.
    933,    102.53093,   32.9316978,           0.
    934,   62.8381767,   27.8082695,           0.
    935,    54.381424,   10.4482193,           0.
    936,   54.3077354,   14.5351114,           0.
    937,   54.2415009,   18.5183468,           0.
    938,   140.979645,   3.65595245,           0.
    939,   149.218979,   32.9435806,           0.
    940,   152.807678,   33.2608795,           0.
    941,   144.997742,   32.9411774,           0.
    942,   140.754181,    32.936367,           0.
    943,   136.761017,   3.64164281,           0.
    944,   136.507462,   32.9340591,           0.
    945,     132.2603,   32.9328461,           0.
    946,   119.950623,   3.64124346,           0.
    947,   119.519058,    32.931839,           0.
    948,   107.345818,   3.64131474,           0.
    949,   106.777962,   32.9320297,           0.
    950,   94.7410202,   3.64133072,           0.
    951,   86.3381119,   3.64247513,           0.
    952,   85.5431824,    32.930439,           0.
    953,   73.7333984,   3.65068936,           0.
    954,     69.53125,   3.65240717,           0.
    955,    65.315033,   3.68100715,           0.
    956,   60.9440422,   3.78624654,           0.
    957,   56.3409996,   3.78895783,           0.
    958,    156.27388,   22.3724232,           0.
    959,   156.322662,   18.2937546,           0.
    960,   156.285614,   14.2176523,           0.
    961,   156.152191,   9.99721146,           0.
    962,   156.108582,   5.55088282,           0.
    963,   128.353958,   3.64098501,           0.
    964,    124.15226,   3.64148068,           0.
    965,   128.013168,   32.9323349,           0.
    966,   123.766106,   32.9322815,           0.
    967,   115.749023,   3.64142394,           0.
    968,   111.547424,   3.64155197,           0.
    969,   115.272026,    32.932003,           0.
    970,   111.024994,   32.9322052,           0.
    971,   103.144218,   3.64150333,           0.
    972,   98.9426117,   3.64156675,           0.
    973,   98.2838974,   32.9319267,           0.
    974,   90.5395355,   3.64197659,           0.
    975,   94.0368652,   32.9320488,           0.
    976,   89.7899094,   32.9317665,           0.
    977,   82.1367569,     3.644768,           0.
    978,   77.9353256,   3.64828849,           0.
    979,   81.2968597,   32.9271889,           0.
    980,   77.0504456,   32.9212151,           0.
    981,   72.8518524,   32.9104195,           0.
    982,   68.7636948,    32.773098,           0.
    983,    64.773613,   32.4612846,           0.
    984,   156.081894,   26.6199417,           0.
    985,   152.619476,   12.1090584,           0.
    986,   156.022385,   31.0883636,           0.
    987,   152.752594,   20.3042011,           0.
    988,   152.729553,   16.2028866,           0.
    989,   57.9678497,   16.4745102,           0.
    990,   54.0802116,   6.93821716,           0.
    991,   58.0582085,   12.3455238,           0.
    992,   54.5124054,   22.3888702,           0.
    993,   145.217102,   3.67633438,           0.
    994,   138.866379,    7.2980938,           0.
    995,   130.455734,   7.28295088,           0.
    996,   67.3767929,   7.33808231,           0.
    997,    149.40564,   3.67936897,           0.
    998,   96.8418579,   7.28519249,           0.
    999,   80.0387344,   7.29764509,           0.
   1000,   75.8343811,   7.30900526,           0.
   1001,   122.051445,   7.28503466,           0.
   1002,   113.648224,   7.28500462,           0.
   1003,   109.446617,   7.28539944,           0.
   1004,   101.043419,   7.28534555,           0.
   1005,   88.4397125,   7.28713799,           0.
   1006,   71.6029968,   7.33160686,           0.
   1007,   63.0844612,   7.37895632,           0.
   1008,   152.937027,   3.36576509,           0.
   1009,   117.849831,   7.28550196,           0.
   1010,   105.245018,   7.28567982,           0.
   1011,   92.6406403,   7.28623486,           0.
   1012,   84.2395401,   7.29192209,           0.
   1013,   126.253433,   7.28485918,           0.
   1014,   134.660202,   7.28423977,           0.
   1015,   142.956528,   29.1541061,           0.
   1016,   130.137039,   29.2602558,           0.
   1017,   79.1854782,   29.2363014,           0.
   1018,    147.31044,   29.1449833,           0.
   1019,   121.642624,   29.2591419,           0.
   1020,   113.148514,   29.2589912,           0.
   1021,    100.40741,   29.2588005,           0.
   1022,   87.6676483,   29.2563457,           0.
   1023,   91.9136963,   29.2585392,           0.
   1024,   117.395569,   29.2594223,           0.
   1025,   151.918716,   29.0415077,           0.
   1026,   83.4247589,   29.2497406,           0.
   1027,   138.645706,   29.2473793,           0.
   1028,   134.386993,   29.2598629,           0.
   1029,   104.654442,   29.2591648,           0.
   1030,   125.889786,   29.2600212,           0.
   1031,   108.901474,   29.2596016,           0.
   1032,   96.1604538,   29.2593803,           0.
   1033,   75.0191345,    29.189003,           0.
   1034,   70.9795532,   29.0461464,           0.
   1035,   151.993286,   7.50049782,           0.
   1036,   58.3220711,   7.89285183,           0.
   1037,   57.5135727,   20.0995808,           0.
   1038,   149.310867,   10.4964218,           0.
   1039,   149.137848,   14.1110964,           0.
   1040,   149.121002,   18.2410526,           0.
   1041,   152.596741,   24.4323921,           0.
   1042,   61.7942085,   14.1997042,           0.
   1043,   143.132004,   7.39955187,           0.
   1044,   115.749023,   10.9320784,           0.
   1045,   103.144218,   10.9321346,           0.
   1046,   124.152756,   10.9315929,           0.
   1047,   111.547424,   10.9324846,           0.
   1048,   98.9427109,   10.9326067,           0.
   1049,   90.5415192,   10.9344416,           0.
   1050,   119.950722,   10.9325294,           0.
   1051,   128.355988,   10.9299717,           0.
   1052,   94.7418213,   10.9336834,           0.
   1053,   107.345818,    10.932806,           0.
   1054,   69.2962646,   11.1919775,           0.
   1055,   86.3428421,   10.9397774,           0.
   1056,   132.553391,   10.9282074,           0.
   1057,   82.1450272,   10.9501524,           0.
   1058,   77.9418182,   10.9674644,           0.
   1059,   136.711319,    10.934597,           0.
   1060,   73.6663513,   11.0527487,           0.
   1061,   64.9080734,   11.0532303,           0.
   1062,   147.414291,   7.37687111,           0.
   1063,   89.8916092,   25.5844898,           0.
   1064,    115.33683,    25.586134,           0.
   1065,   102.604958,   25.5863285,           0.
   1066,   98.3835297,   25.5859795,           0.
   1067,   111.106415,   25.5860252,           0.
   1068,   94.1715546,   25.5851936,           0.
   1069,   106.879303,    25.585825,           0.
   1070,   119.592056,    25.585844,           0.
   1071,   123.830002,    25.586235,           0.
   1072,   128.066147,   25.5869064,           0.
   1073,   85.6625671,   25.5794659,           0.
   1074,   132.304718,   25.5891304,           0.
   1075,   136.536285,   25.5943737,           0.
   1076,   140.757782,    25.511673,           0.
   1077,   81.4377213,    25.565897,           0.
   1078,   145.326187,   24.9516315,           0.
   1079,   73.1310349,   25.4205723,           0.
   1080,   77.2786102,   25.5311222,           0.
   1081,   149.274551,   25.9835529,           0.
   1082,   61.2334023,   10.5740538,           0.
   1083,   67.0367966,   28.7608662,           0.
   1084,   145.381454,   11.5377665,           0.
   1085,   65.7767639,    25.297966,           0.
   1086,    61.830658,   19.2941303,           0.
   1087,   145.448532,   16.1314106,           0.
   1088,   149.081314,   22.3779869,           0.
   1089,   88.3810806,   14.5910988,           0.
   1090,   84.1759872,   14.6009722,           0.
   1091,   75.7224655,   14.6867676,           0.
   1092,   117.813942,   14.5855007,           0.
   1093,   105.197472,    14.585495,           0.
   1094,   92.5704346,   14.5886316,           0.
   1095,   100.984955,   14.5864296,           0.
   1096,   109.399307,   14.5861349,           0.
   1097,   113.594833,   14.5871563,           0.
   1098,   96.7676849,   14.5881453,           0.
   1099,   122.013535,   14.5859156,           0.
   1100,   126.218742,   14.5845537,           0.
   1101,    79.954628,    14.622859,           0.
   1102,   140.839371,   11.0026426,           0.
   1103,   130.409561,   14.5854969,           0.
   1104,   134.560349,   14.5854082,           0.
   1105,   66.5551758,   15.7373266,           0.
   1106,   71.4167633,   14.8841276,           0.
   1107,   83.7911987,   21.9104385,           0.
   1108,    79.601387,   21.9027863,           0.
   1109,   88.0106506,   21.9134426,           0.
   1110,   100.688377,   21.9136581,           0.
   1111,   92.2436371,   21.9141731,           0.
   1112,   96.4755478,   21.9144211,           0.
   1113,    104.91655,   21.9140472,           0.
   1114,   109.151833,   21.9137707,           0.
   1115,   113.372551,   21.9140701,           0.
   1116,   126.053833,   21.9132843,           0.
   1117,   117.602646,   21.9139385,           0.
   1118,   121.831284,    21.914259,           0.
   1119,   130.265076,     21.91712,           0.
   1120,   134.466736,   21.9254627,           0.
   1121,   138.665298,    21.963644,           0.
   1122,   75.4094086,   21.8576069,           0.
   1123,   142.301178,   22.2069073,           0.
   1124,    145.43634,   20.3602467,           0.
   1125,    63.258812,   23.5149174,           0.
   1126,   142.332001,   14.2958412,           0.
   1127,   81.9058609,   18.2597713,           0.
   1128,   86.1041641,   18.2535229,           0.
   1129,   77.6724396,   18.2779751,           0.
   1130,   90.3109665,   18.2510815,           0.
   1131,     98.74086,   18.2488632,           0.
   1132,   107.177147,   18.2479401,           0.
   1133,   94.5181885,    18.250885,           0.
   1134,   102.950897,   18.2494068,           0.
   1135,   111.388344,   18.2487545,           0.
   1136,   115.603691,   18.2487793,           0.
   1137,    119.82074,   18.2485638,           0.
   1138,    124.03476,    18.247942,           0.
   1139,   128.236023,   18.2498474,           0.
   1140,   132.423431,   18.2536507,           0.
   1141,    73.547226,   18.2808113,           0.
   1142,   138.730942,   14.5549259,           0.
   1143,   136.697769,   18.2559319,           0.
   1144,   141.373154,   18.2527008,           0.
   1145,   71.2928238,   21.7189159,           0.
   1146,   69.1643906,   25.2492905,           0.
   1147,   69.9162674,   18.3744907,           0.
   1148,   66.8278427,   21.3124332,           0.
   1149,   46.8235474,   10.2735014,           0.
   1150,   38.5519409,    28.573616,           0.
   1151,   36.4786644,   32.5934639,           0.
   1152,   46.8094406,   5.69285679,           0.
   1153,   46.9251251,   14.6544161,           0.
   1154,    41.830925,   24.5141792,           0.
   1155,   46.9243011,     18.80406,           0.
   1156,   46.6265068,   22.6656952,           0.
   1157,   23.8658028,   32.8514671,           0.
   1158,   28.1664886,   32.8211098,           0.
   1159,   32.3376694,   32.7303085,           0.
   1160,   3.76990557,   5.55917931,           0.
   1161,    3.7199862,   9.98503113,           0.
   1162,   3.58489943,   14.2008572,           0.
   1163,   3.55690169,   18.2955246,           0.
   1164,   3.59639287,    22.377634,           0.
   1165,    3.7609241,   26.5866489,           0.
   1166,   3.84123063,   31.0350552,           0.
   1167,   40.0762749,   3.76102567,           0.
   1168,   35.8767128,   3.72169113,           0.
   1169,   31.6455231,   3.68244934,           0.
   1170,   27.4215374,   3.66695952,           0.
   1171,   23.2013683,   3.65914226,           0.
   1172,   18.9822731,   3.65107799,           0.
   1173,   14.7226448,   3.68360281,           0.
   1174,   10.5146341,   3.67444396,           0.
   1175,   7.15256023,   20.2831573,           0.
   1176,   7.26109314,   12.0954199,           0.
   1177,   7.17092466,   16.1873665,           0.
   1178,   7.29495907,   24.3393955,           0.
   1179,   43.0499458,   17.0758286,           0.
   1180,   42.9740791,   12.6290331,           0.
   1181,   29.5325871,   7.34896946,           0.
   1182,   25.3066444,   7.32988358,           0.
   1183,   16.7622223,   7.41824102,           0.
   1184,   38.0006943,   7.43152189,           0.
   1185,   43.6248322,   3.44988489,           0.
   1186,   33.7729416,   7.38684654,           0.
   1187,   21.0569801,   7.34771061,           0.
   1188,    12.465333,   7.39957523,           0.
   1189,    19.477356,   32.8021355,           0.
   1190,    10.735425,   32.8153229,           0.
   1191,   15.0723438,   32.7621193,           0.
   1192,   30.1071129,     28.95541,           0.
   1193,   7.11314774,   33.2004356,           0.
   1194,   25.9314156,   29.0487118,           0.
   1195,   7.99956846,   28.9366531,           0.
   1196,   7.88504553,   7.52448845,           0.
   1197,   42.5727005,   7.72391081,           0.
   1198,   10.6801977,   25.8058205,           0.
   1199,   10.6939039,   14.1208639,           0.
   1200,   10.6872492,   18.1922855,           0.
   1201,   10.8013878,   22.2578201,           0.
   1202,   38.5744247,   14.9721079,           0.
   1203,   39.6122818,   10.7724314,           0.
   1204,   31.6782169,   11.0636644,           0.
   1205,   35.9223518,   11.0733891,           0.
   1206,   27.4156876,   11.0198641,           0.
   1207,   23.1384583,   11.0103378,           0.
   1208,   14.3783236,   11.5768528,           0.
   1209,   18.9014702,   11.0586691,           0.
   1210,   43.4792252,   20.6856308,           0.
   1211,   6.96512651,   3.35162234,           0.
   1212,   21.6217937,   29.0194206,           0.
   1213,   12.7245092,   28.9786129,           0.
   1214,   27.9082527,   25.3002777,           0.
   1215,   17.1824932,   28.9133987,           0.
   1216,   34.3467293,   28.7912941,           0.
   1217,   39.0027885,   20.1946335,           0.
   1218,   36.6522484,   24.7586517,           0.
   1219,   14.6627035,   24.7811794,           0.
   1220,   14.2635326,   16.1138783,           0.
   1221,   14.3682442,   20.2709618,           0.
   1222,   10.5367393,   10.5434399,           0.
   1223,   17.3493137,   14.3201504,           0.
   1224,   29.6219883,    14.667182,           0.
   1225,   25.2982807,   14.6298599,           0.
   1226,   21.0228138,   14.5784369,           0.
   1227,    23.659914,   25.3405609,           0.
   1228,   19.3112278,   25.3143101,           0.
   1229,   23.2127399,   18.1793022,           0.
   1230,   27.5811195,   18.1724644,           0.
   1231,   33.8566322,   14.6644716,           0.
   1232,   25.5702915,   21.7311974,           0.
   1233,   21.2581272,   21.8076649,           0.
   1234,   17.5862236,   22.0768776,           0.
   1235,   18.4372845,   18.1924667,           0.
   1236,   29.8477001,   21.6516666,           0.
   1237,   31.7477837,    18.082674,           0.
   1238,   34.1411934,   21.2984619,           0.
   1239,   35.4645653,   17.8424702,           0.
   1240,   32.1672058,   25.1259613,           0.
*Element, type=S3
   1, 381, 202, 313
   2, 269,  95, 202
   3, 200, 199,  30
   4, 200,   3,  31
   5, 270, 236, 235
   6, 202,  13,  14
   7, 403, 331, 330
   8, 349,  18, 285
   9, 285,  18,  19
  10, 286,  20, 203
  11, 203,  20,  21
  12, 265,  87,  88
  13, 204, 203,  21
  14, 205, 204,  22
  15, 206, 205,  23
  16, 221,  35, 220
  17, 208, 207,  25
  18, 284, 208, 210
  19, 209,  29, 199
  20, 376, 211, 209
  21, 211,   2,  28
  22,  52,   4,  53
  23, 234,  53,  54
  24, 258, 232, 257
  25, 259, 230, 252
  26, 252, 230, 229
  27, 260, 229, 228
  28, 259, 257, 231
  29, 301,  48, 296
  30, 291,  45,  46
  31, 242,  80, 241
  32, 213,  44, 212
  33, 214,  43, 213
  34, 271, 238, 237
  35, 216,  40, 201
  36, 217,  39, 216
  37, 218,  38, 217
  38, 457, 454, 398
  39, 218,  37,  38
  40, 220,  36, 219
  41, 222,  34, 221
  42, 223,  33, 222
  43, 223,  32,  33
  44,  71,  70,   5
  45, 250,  71,  72
  46, 267, 248, 247
  47, 266, 246, 245
  48, 342, 282, 341
  49, 317, 254, 253
  50, 262,  66,  67
  51, 318, 262, 263
  52, 251,  63,  64
  53, 226,  62, 225
  54, 227,  61, 226
  55, 228,  60, 227
  56, 229,  59, 228
  57, 230,  58, 229
  58, 231,  57, 230
  59, 232,  56, 231
  60, 233,  55, 232
  61, 234,  54, 233
  62,  95,   1,  13
  63, 202,  95,  13
  64, 313, 202,  14
  65, 332, 330,  93
  66, 439, 350, 421
  67, 494, 439, 451
  68, 329,  90,  91
  69, 496, 495, 382
  70, 630, 598, 604
  71, 265, 235,  87
  72, 236,  86, 235
  73, 274, 236, 270
  74, 237,  85, 236
  75, 238,  84, 237
  76, 239,  83, 238
  77, 275, 241, 240
  78, 241,  81, 240
  79, 243,  79, 242
  80, 244,  78, 243
  81, 245,  77, 244
  82, 246,  76, 245
  83, 247,  75, 246
  84, 248,  74, 247
  85, 249,  73, 248
  86, 250,  72, 249
  87, 207, 206,  24
  88, 199,  29,  30
  89, 200,  30,   3
  90, 224,  31,  32
  91, 201,  40,  41
  92, 215,  41,  42
  93, 313,  14,  15
  94, 378,  16, 350
  95, 204,  21,  22
  96, 283, 203, 204
  97, 205,  22,  23
  98, 289, 288, 205
  99, 206,  23,  24
 100, 365, 304, 363
 101, 207,  24,  25
 102, 422, 356, 354
 103, 208,  25,  26
 104, 295, 222, 221
 105, 210,  26,  27
 106, 376, 284, 210
 107, 209,  28,  29
 108, 492, 284, 376
 109, 210, 208,  26
 110, 211, 210,  27
 111, 211,  27,   2
 112, 211,  28, 209
 113, 212,  44,  45
 114, 326, 225, 251
 115, 240,  82, 239
 116, 213,  43,  44
 117, 215,  42, 214
 118, 214,  42,  43
 119, 336, 278, 334
 120, 215, 201,  41
 121, 309, 201, 215
 122, 216,  39,  40
 123, 304, 217, 293
 124, 217,  38,  39
 125, 557, 519, 531
 126, 219,  37, 218
 127, 352, 351, 288
 128, 219,  36,  37
 129, 287, 207, 208
 130, 220,  35,  36
 131, 380, 379, 199
 132, 221,  34,  35
 133, 305, 222, 295
 134, 222,  33,  34
 135, 306, 223, 305
 136, 224,  32, 223
 137, 377, 200, 224
 138, 224, 200,  31
 139, 225,  62,  63
 140, 276, 241, 275
 141, 261, 226, 255
 142, 226,  61,  62
 143, 261, 256, 227
 144, 227,  60,  61
 145, 292, 291,  46
 146, 228,  59,  60
 147, 307,  50, 297
 148, 229,  58,  59
 149, 359, 307, 358
 150, 230,  57,  58
 151, 257, 232, 231
 152, 231,  56,  57
 153, 308, 297,  51
 154, 232,  55,  56
 155, 311, 233, 258
 156, 233,  54,  55
 157, 308,  52, 234
 158, 234,  52,  53
 159, 235,  86,  87
 160, 575, 530, 529
 161, 274, 271, 237
 162, 236,  85,  86
 163, 278, 239, 277
 164, 237,  84,  85
 165, 277, 238, 271
 166, 238,  83,  84
 167, 277, 239, 238
 168, 239,  82,  83
 169, 413, 340, 336
 170, 240,  81,  82
 171, 488, 435, 430
 172, 241,  80,  81
 173, 515, 459, 455
 174, 242,  79,  80
 175, 282, 244, 268
 176, 243,  78,  79
 177, 345, 343, 281
 178, 244,  77,  78
 179, 262, 253,  66
 180, 245,  76,  77
 181, 263, 262,  67
 182, 246,  75,  76
 183, 345, 266, 342
 184, 247,  74,  75
 185, 315,  68,  69
 186, 248,  73,  74
 187, 280, 248, 267
 188, 249,  72,  73
 189, 264,  70, 250
 190, 250,  70,  71
 191, 251, 225,  63
 192, 254,  64,  65
 193, 256, 228, 227
 194, 580, 483, 443
 195, 253,  65,  66
 196, 281, 246, 266
 197, 254, 251,  64
 198, 254,  65, 253
 199, 497, 483, 429
 200, 255, 226, 225
 201, 321, 256, 319
 202, 261, 227, 226
 203, 307,  49,  50
 204, 259, 231, 230
 205, 358, 311, 327
 206, 258, 233, 232
 207, 322, 260, 321
 208, 324, 252, 322
 209, 260, 252, 229
 210, 260, 228, 256
 211, 320, 319, 261
 212, 319, 256, 261
 213, 263,  67,  68
 214, 411, 346, 343
 215, 315,  69, 264
 216, 312, 250, 249
 217, 264,  69,  70
 218, 312, 249, 280
 219, 273,  88,  89
 220, 333, 273, 272
 221, 282, 245, 244
 222, 268, 244, 243
 223, 318, 316, 262
 224, 281, 267, 247
 225, 279, 243, 242
 226, 276, 242, 241
 227, 332,  94, 269
 228, 269,  94,  95
 229, 347, 235, 265
 230, 309, 215, 294
 231, 274, 237, 236
 232, 310, 213, 298
 233, 272,  89,  90
 234, 333, 328, 273
 235, 273, 265,  88
 236, 273,  89, 272
 237, 338, 337, 274
 238, 337, 335, 271
 239, 278, 240, 239
 240, 340, 275, 336
 241, 629, 550, 549
 242, 340, 276, 275
 243, 309, 303, 201
 244, 335, 334, 277
 245, 406, 334, 404
 246, 278, 275, 240
 247, 279, 268, 243
 248, 279, 242, 276
 249, 375, 312, 280
 250, 280, 249, 248
 251, 281, 247, 246
 252, 410, 409, 342
 253, 388, 385, 314
 254, 282, 266, 245
 255, 288, 204, 205
 256, 351, 283, 288
 257, 287, 208, 284
 258, 373, 302, 370
 259, 286, 285,  19
 260, 348, 286, 203
 261, 286,  19,  20
 262, 348, 203, 283
 263, 353, 352, 289
 264, 290, 207, 287
 265, 288, 283, 204
 266, 289, 205, 206
 267, 290, 289, 206
 268, 592, 379, 380
 269, 290, 206, 207
 270, 492, 376, 379
 271, 291, 212,  45
 272, 292,  46,  47
 273, 301,  47,  48
 274, 444, 390, 442
 275, 293, 217, 216
 276, 303, 216, 201
 277, 294, 215, 214
 278, 310, 214, 213
 279, 302, 221, 220
 280, 300, 219, 299
 281, 296,  48,  49
 282, 325, 257, 323
 283, 297,  50,  51
 284, 311, 308, 234
 285, 298, 213, 212
 286, 357, 212, 291
 287, 299, 219, 218
 288, 304, 299, 218
 289, 453, 397, 422
 290, 300, 220, 219
 291, 323, 257, 259
 292, 301, 292,  47
 293, 302, 295, 221
 294, 302, 220, 300
 295, 405, 404, 335
 296, 303, 293, 216
 297, 304, 218, 217
 298, 363, 293, 360
 299, 371, 306, 305
 300, 305, 223, 222
 301, 700, 380, 377
 302, 306, 224, 223
 303, 383, 359, 358
 304, 307, 296,  49
 305, 308,  51,  52
 306, 311, 234, 233
 307, 367, 366, 309
 308, 366, 360, 303
 309, 369, 368, 310
 310, 310, 294, 214
 311, 327, 258, 325
 312, 311, 297, 308
 313, 395, 312, 375
 314, 312, 264, 250
 315, 350,  17, 349
 316, 381, 332, 269
 317, 385, 326, 314
 318, 314, 251, 254
 319, 315, 263,  68
 320, 315, 264, 312
 321, 316, 253, 262
 322, 343, 267, 281
 323, 317, 314, 254
 324, 317, 253, 316
 325, 395, 375, 384
 326, 346, 267, 343
 327, 320, 261, 255
 328, 389, 387, 321
 329, 396, 255, 326
 330, 341, 268, 339
 331, 390, 322, 387
 332, 321, 260, 256
 333, 443, 386, 393
 334, 322, 252, 260
 335, 429, 359, 383
 336, 324, 323, 259
 337, 324, 259, 252
 338, 387, 322, 321
 339, 383, 327, 325
 340, 325, 258, 257
 341, 326, 255, 225
 342, 326, 251, 314
 343, 383, 358, 327
 344, 327, 311, 258
 345, 398, 347, 328
 346, 328, 265, 273
 347, 329, 272,  90
 348, 331,  91,  92
 349, 330,  92,  93
 350, 403, 401, 331
 351, 331, 329,  91
 352, 331,  92, 330
 353, 332,  93,  94
 354, 381, 269, 202
 355, 414, 272, 329
 356, 400, 398, 328
 357, 334, 278, 277
 358, 335, 277, 271
 359, 337, 271, 274
 360, 433, 366, 367
 361, 368, 367, 294
 362, 336, 275, 278
 363, 338, 274, 270
 364, 427, 426, 363
 365, 415, 270, 347
 366, 481, 478, 431
 367, 339, 268, 279
 368, 344, 279, 276
 369, 413, 336, 406
 370, 516, 515, 455
 371, 410, 342, 341
 372, 341, 282, 268
 373, 391, 388, 317
 374, 342, 266, 282
 375, 395, 384, 318
 376, 345, 281, 266
 377, 344, 339, 279
 378, 344, 276, 340
 379, 466, 410, 459
 380, 447, 446, 388
 381, 384, 375, 346
 382, 346, 280, 267
 383, 347, 270, 235
 384, 347, 265, 328
 385, 355, 286, 348
 386, 420, 283, 351
 387, 349,  17,  18
 388, 418, 285, 355
 389, 510, 451, 499
 390, 350,  16,  17
 391, 352, 288, 289
 392, 417, 416, 352
 393, 353, 289, 290
 394, 370, 300, 364
 395, 356, 290, 287
 396, 570, 533, 532
 397, 354, 287, 284
 398, 422, 397, 356
 399, 474, 421, 418
 400, 355, 285, 286
 401, 356, 353, 290
 402, 356, 287, 354
 403, 357, 298, 212
 404, 374, 291, 292
 405, 358, 307, 297
 406, 358, 297, 311
 407, 361, 296, 359
 408, 359, 296, 307
 409, 360, 293, 303
 410, 366, 303, 309
 411, 362, 301, 361
 412, 361, 301, 296
 413, 497, 443, 483
 414, 362, 292, 301
 415, 407, 405, 337
 416, 363, 304, 293
 417, 364, 300, 299
 418, 365, 364, 299
 419, 365, 299, 304
 420, 463, 462, 405
 421, 367, 309, 294
 422, 433, 367, 428
 423, 368, 294, 310
 424, 433, 432, 366
 425, 369, 310, 298
 426, 413, 412, 340
 427, 425, 298, 357
 428, 434, 428, 368
 429, 438, 373, 424
 430, 370, 302, 300
 431, 372, 305, 295
 432, 372, 371, 305
 433, 373, 372, 295
 434, 583, 546, 479
 435, 373, 295, 302
 436, 424, 370, 423
 437, 374, 357, 291
 438, 374, 292, 362
 439, 395, 318, 263
 440, 375, 280, 346
 441, 376, 210, 211
 442, 379, 376, 209
 443, 377, 199, 200
 444, 377, 224, 306
 445, 378, 313,  15
 446, 378,  15,  16
 447, 379, 209, 199
 448, 380, 199, 377
 449, 700, 377, 306
 450, 700, 493, 592
 451, 440, 378, 439
 452, 382, 332, 381
 453, 403, 330, 382
 454, 382, 330, 332
 455, 386, 325, 323
 456, 386, 383, 325
 457, 449, 447, 391
 458, 392, 318, 384
 459, 441, 396, 385
 460, 388, 314, 317
 461, 393, 323, 324
 462, 448, 389, 394
 463, 389, 321, 319
 464, 394, 319, 320
 465, 391, 317, 316
 466, 402, 343, 345
 467, 394, 389, 319
 468, 504, 502, 445
 469, 442, 390, 387
 470, 390, 324, 322
 471, 392, 391, 316
 472, 507, 464, 449
 473, 392, 316, 318
 474, 507, 449, 392
 475, 393, 386, 323
 476, 393, 324, 390
 477, 450, 320, 396
 478, 408, 339, 399
 479, 395, 263, 315
 480, 395, 315, 312
 481, 396, 320, 255
 482, 396, 326, 385
 483, 417, 353, 397
 484, 397, 353, 356
 485, 454, 415, 398
 486, 400, 328, 333
 487, 399, 339, 344
 488, 412, 344, 340
 489, 467, 333, 414
 490, 419, 355, 348
 491, 456, 414, 401
 492, 401, 329, 331
 493, 409, 345, 342
 494, 410, 341, 408
 495, 530, 474, 473
 496, 421, 349, 418
 497, 404, 334, 335
 498, 405, 335, 337
 499, 407, 337, 338
 500, 462, 461, 404
 501, 525, 461, 518
 502, 406, 336, 334
 503, 471, 338, 415
 504, 478, 477, 423
 505, 672, 643, 645
 506, 408, 341, 339
 507, 446, 441, 385
 508, 409, 402, 345
 509, 503, 498, 441
 510, 459, 408, 455
 511, 411, 384, 346
 512, 411, 343, 402
 513, 460, 455, 399
 514, 412, 399, 344
 515, 468, 406, 461
 516, 468, 413, 406
 517, 414, 333, 272
 518, 414, 329, 401
 519, 415, 338, 270
 520, 415, 347, 398
 521, 416, 351, 352
 522, 423, 370, 364
 523, 417, 352, 353
 524, 453, 452, 397
 525, 418, 349, 285
 526, 473, 355, 419
 527, 420, 419, 348
 528, 475, 472, 420
 529, 420, 348, 283
 530, 475, 351, 416
 531, 451, 439, 421
 532, 421, 350, 349
 533, 490, 422, 354
 534, 436, 371, 372
 535, 431, 364, 365
 536, 514, 512, 454
 537, 476, 438, 424
 538, 424, 373, 370
 539, 425, 369, 298
 540, 437, 357, 374
 541, 426, 365, 363
 542, 427, 363, 360
 543, 432, 360, 366
 544, 540, 538, 484
 545, 428, 367, 368
 546, 434, 368, 369
 547, 430, 361, 429
 548, 429, 361, 359
 549, 435, 362, 430
 550, 430, 362, 361
 551, 431, 423, 364
 552, 431, 365, 426
 553, 485, 484, 427
 554, 432, 427, 360
 555, 487, 486, 433
 556, 486, 485, 432
 557, 480, 369, 425
 558, 445, 442, 387
 559, 580, 443, 500
 560, 435, 374, 362
 561, 588, 546, 535
 562, 438, 436, 372
 563, 437, 425, 357
 564, 437, 374, 435
 565, 438, 372, 373
 566, 533, 476, 532
 567, 496, 381, 440
 568, 439, 378, 350
 569, 440, 381, 313
 570, 440, 313, 378
 571, 498, 450, 441
 572, 446, 385, 388
 573, 550, 500, 501
 574, 445, 387, 389
 575, 497, 429, 383
 576, 444, 443, 393
 577, 444, 393, 390
 578, 549, 501, 502
 579, 448, 445, 389
 580, 585, 539, 550
 581, 447, 388, 391
 582, 465, 464, 402
 583, 449, 391, 392
 584, 506, 505, 447
 585, 508, 394, 450
 586, 455, 408, 399
 587, 507, 392, 384
 588, 464, 411, 402
 589, 450, 394, 320
 590, 450, 396, 441
 591, 499, 451, 474
 592, 458, 456, 401
 593, 469, 417, 452
 594, 452, 417, 397
 595, 535, 422, 490
 596, 479, 438, 476
 597, 512, 471, 454
 598, 457, 398, 400
 599, 460, 399, 412
 600, 552, 549, 502
 601, 517, 456, 458
 602, 458, 401, 403
 603, 526, 400, 467
 604, 598, 554, 575
 605, 510, 494, 451
 606, 568, 547, 517
 607, 505, 503, 446
 608, 459, 410, 408
 609, 470, 412, 413
 610, 489, 487, 428
 611, 461, 406, 404
 612, 462, 404, 405
 613, 463, 405, 407
 614, 484, 481, 426
 615, 528, 407, 471
 616, 520, 518, 462
 617, 465, 402, 409
 618, 466, 409, 410
 619, 466, 465, 409
 620, 523, 522, 465
 621, 553, 551, 503
 622, 521, 459, 515
 623, 467, 400, 333
 624, 467, 414, 456
 625, 525, 468, 461
 626, 470, 413, 468
 627, 469, 416, 417
 628, 532, 476, 477
 629, 524, 516, 460
 630, 470, 460, 412
 631, 471, 407, 338
 632, 471, 415, 454
 633, 472, 419, 420
 634, 531, 519, 475
 635, 473, 418, 355
 636, 529, 419, 472
 637, 474, 451, 421
 638, 474, 418, 473
 639, 475, 420, 351
 640, 531, 416, 469
 641, 477, 424, 423
 642, 477, 476, 424
 643, 478, 423, 431
 644, 534, 532, 477
 645, 481, 431, 426
 646, 536, 534, 478
 647, 588, 535, 490
 648, 479, 436, 438
 649, 480, 434, 369
 650, 491, 425, 437
 651, 484, 426, 427
 652, 578, 569, 534
 653, 482, 437, 435
 654, 580, 539, 488
 655, 483, 430, 429
 656, 500, 443, 444
 657, 485, 427, 432
 658, 584, 581, 538
 659, 486, 432, 433
 660, 542, 540, 485
 661, 487, 433, 428
 662, 543, 542, 486
 663, 489, 428, 434
 664, 527, 468, 525
 665, 488, 482, 435
 666, 488, 430, 483
 667, 537, 434, 480
 668, 566, 563, 516
 669, 492, 490, 354
 670, 592, 493, 588
 671, 491, 480, 425
 672, 491, 437, 482
 673, 492, 354, 284
 674, 492, 379, 490
 675, 493, 371, 436
 676, 546, 436, 479
 677, 496, 494, 495
 678, 494, 440, 439
 679, 495, 458, 403
 680, 495, 403, 382
 681, 496, 382, 381
 682, 496, 440, 494
 683, 497, 383, 386
 684, 497, 386, 443
 685, 548, 508, 498
 686, 503, 441, 446
 687, 554, 547, 499
 688, 517, 513, 456
 689, 501, 444, 442
 690, 501, 500, 444
 691, 502, 442, 445
 692, 502, 501, 442
 693, 504, 445, 448
 694, 590, 545, 541
 695, 505, 446, 447
 696, 596, 595, 551
 697, 556, 448, 508
 698, 659, 627, 658
 699, 506, 447, 449
 700, 523, 466, 521
 701, 506, 449, 464
 702, 522, 464, 465
 703, 507, 384, 411
 704, 507, 411, 464
 705, 508, 448, 394
 706, 508, 450, 498
 707, 511, 452, 509
 708, 509, 452, 453
 709, 568, 495, 494
 710, 568, 494, 510
 711, 601, 570, 569
 712, 511, 469, 452
 713, 559, 528, 512
 714, 514, 454, 457
 715, 561, 513, 517
 716, 513, 467, 456
 717, 572, 457, 526
 718, 644, 634, 617
 719, 551, 548, 498
 720, 516, 455, 460
 721, 524, 460, 470
 722, 629, 625, 585
 723, 568, 517, 458
 724, 547, 510, 499
 725, 518, 461, 462
 726, 520, 462, 463
 727, 519, 472, 475
 728, 577, 557, 531
 729, 574, 463, 528
 730, 538, 536, 481
 731, 599, 506, 522
 732, 521, 466, 459
 733, 522, 506, 464
 734, 523, 465, 466
 735, 562, 521, 515
 736, 599, 553, 505
 737, 527, 470, 468
 738, 544, 543, 487
 739, 567, 518, 564
 740, 573, 525, 567
 741, 526, 457, 400
 742, 526, 467, 513
 743, 573, 571, 527
 744, 527, 524, 470
 745, 528, 463, 407
 746, 528, 471, 512
 747, 529, 473, 419
 748, 576, 472, 519
 749, 530, 499, 474
 750, 530, 473, 529
 751, 531, 475, 416
 752, 577, 469, 511
 753, 619, 509, 579
 754, 534, 477, 478
 755, 619, 579, 583
 756, 533, 479, 476
 757, 536, 478, 481
 758, 605, 603, 559
 759, 579, 535, 546
 760, 535, 453, 422
 761, 538, 481, 484
 762, 581, 578, 536
 763, 537, 489, 434
 764, 545, 480, 491
 765, 540, 484, 485
 766, 620, 606, 578
 767, 541, 482, 539
 768, 539, 482, 488
 769, 542, 485, 486
 770, 586, 584, 540
 771, 545, 491, 541
 772, 541, 491, 482
 773, 543, 486, 487
 774, 587, 586, 542
 775, 544, 487, 489
 776, 624, 623, 586
 777, 582, 489, 537
 778, 573, 527, 525
 779, 629, 594, 625
 780, 545, 537, 480
 781, 546, 493, 436
 782, 583, 579, 546
 783, 561, 558, 513
 784, 554, 499, 530
 785, 593, 556, 548
 786, 551, 498, 503
 787, 552, 502, 504
 788, 600, 504, 556
 789, 580, 550, 539
 790, 550, 501, 549
 791, 553, 503, 505
 792, 661, 607, 643
 793, 633, 596, 608
 794, 563, 562, 515
 795, 599, 505, 506
 796, 565, 523, 521
 797, 575, 554, 530
 798, 611, 575, 576
 799, 560, 559, 512
 800, 555, 511, 509
 801, 556, 504, 448
 802, 556, 508, 548
 803, 617, 597, 577
 804, 636, 598, 611
 805, 604, 602, 558
 806, 558, 526, 513
 807, 603, 574, 559
 808, 560, 512, 514
 809, 613, 514, 572
 810, 665, 636, 638
 811, 561, 517, 547
 812, 630, 547, 554
 813, 595, 593, 548
 814, 563, 515, 516
 815, 566, 516, 524
 816, 609, 607, 563
 817, 564, 518, 520
 818, 616, 520, 574
 819, 599, 565, 553
 820, 565, 521, 562
 821, 571, 524, 527
 822, 627, 591, 590
 823, 589, 587, 543
 824, 567, 525, 518
 825, 568, 458, 495
 826, 568, 510, 547
 827, 569, 532, 534
 828, 578, 534, 536
 829, 652, 619, 570
 830, 570, 532, 569
 831, 612, 609, 566
 832, 571, 566, 524
 833, 572, 514, 457
 834, 572, 526, 558
 835, 614, 567, 610
 836, 615, 573, 614
 837, 574, 520, 463
 838, 574, 528, 559
 839, 576, 575, 529
 840, 611, 598, 575
 841, 576, 529, 472
 842, 618, 519, 557
 843, 577, 531, 469
 844, 617, 511, 555
 845, 581, 536, 538
 846, 678, 670, 653
 847, 579, 509, 453
 848, 579, 453, 535
 849, 580, 488, 483
 850, 580, 500, 550
 851, 584, 538, 540
 852, 622, 620, 581
 853, 582, 544, 489
 854, 591, 537, 545
 855, 583, 479, 533
 856, 619, 583, 533
 857, 586, 540, 542
 858, 653, 642, 620
 859, 590, 541, 585
 860, 585, 541, 539
 861, 587, 542, 543
 862, 623, 622, 584
 863, 589, 543, 544
 864, 626, 624, 587
 865, 592, 588, 490
 866, 588, 493, 546
 867, 621, 544, 582
 868, 657, 656, 624
 869, 594, 549, 552
 870, 591, 545, 590
 871, 661, 633, 607
 872, 591, 582, 537
 873, 592, 490, 379
 874, 700, 592, 380
 875, 631, 600, 593
 876, 595, 548, 551
 877, 658, 625, 594
 878, 637, 552, 600
 879, 596, 551, 553
 880, 607, 562, 563
 881, 596, 553, 565
 882, 608, 565, 562
 883, 597, 557, 577
 884, 652, 601, 644
 885, 638, 636, 611
 886, 630, 604, 561
 887, 599, 522, 523
 888, 599, 523, 565
 889, 600, 552, 504
 890, 600, 556, 593
 891, 606, 569, 578
 892, 701, 644, 635
 893, 667, 639, 602
 894, 602, 572, 558
 895, 640, 616, 603
 896, 605, 559, 560
 897, 604, 558, 561
 898, 636, 604, 598
 899, 648, 560, 613
 900, 690, 686, 671
 901, 606, 601, 569
 902, 620, 578, 581
 903, 632, 631, 593
 904, 609, 563, 566
 905, 608, 596, 565
 906, 608, 562, 607
 907, 612, 566, 571
 908, 660, 628, 659
 909, 610, 567, 564
 910, 651, 564, 616
 911, 618, 611, 576
 912, 663, 638, 646
 913, 615, 571, 573
 914, 649, 645, 612
 915, 613, 560, 514
 916, 613, 572, 602
 917, 650, 614, 647
 918, 614, 573, 567
 919, 699, 682, 684
 920, 615, 612, 571
 921, 616, 564, 520
 922, 616, 574, 603
 923, 617, 577, 511
 924, 652, 644, 555
 925, 618, 576, 519
 926, 646, 557, 597
 927, 619, 533, 570
 928, 619, 555, 509
 929, 622, 581, 584
 930, 641, 640, 603
 931, 621, 589, 544
 932, 628, 582, 591
 933, 623, 584, 586
 934, 655, 653, 622
 935, 624, 586, 587
 936, 677, 651, 668
 937, 626, 587, 589
 938, 656, 655, 623
 939, 627, 590, 625
 940, 625, 590, 585
 941, 654, 589, 621
 942, 650, 649, 615
 943, 658, 594, 637
 944, 628, 591, 627
 945, 645, 643, 609
 946, 628, 621, 582
 947, 629, 585, 550
 948, 629, 549, 594
 949, 630, 561, 547
 950, 630, 554, 598
 951, 685, 631, 662
 952, 632, 593, 595
 953, 633, 632, 595
 954, 643, 607, 609
 955, 633, 595, 596
 956, 633, 608, 607
 957, 634, 597, 617
 958, 635, 601, 606
 959, 642, 606, 620
 960, 701, 664, 690
 961, 667, 604, 636
 962, 638, 611, 618
 963, 637, 594, 552
 964, 637, 600, 631
 965, 646, 638, 618
 966, 666, 639, 665
 967, 666, 665, 663
 968, 639, 613, 602
 969, 680, 678, 655
 970, 641, 603, 605
 971, 673, 605, 648
 972, 670, 642, 653
 973, 642, 635, 606
 974, 653, 620, 622
 975, 645, 609, 612
 976, 672, 662, 661
 977, 644, 617, 555
 978, 644, 601, 635
 979, 649, 612, 615
 980, 699, 672, 694
 981, 646, 618, 557
 982, 671, 597, 634
 983, 647, 614, 610
 984, 677, 610, 651
 985, 648, 605, 560
 986, 648, 613, 639
 987, 650, 615, 614
 988, 676, 650, 675
 989, 705, 698, 679
 990, 706, 694, 697
 991, 651, 610, 564
 992, 651, 616, 640
 993, 652, 555, 619
 994, 652, 570, 601
 995, 655, 622, 623
 996, 669, 668, 640
 997, 654, 626, 589
 998, 660, 621, 628
 999, 656, 623, 624
1000, 703, 678, 680
1001, 657, 624, 626
1002, 703, 681, 691
1003, 679, 626, 654
1004, 704, 696, 675
1005, 672, 661, 643
1006, 658, 627, 625
1007, 674, 672, 645
1008, 659, 628, 627
1009, 683, 660, 682
1010, 660, 654, 621
1011, 662, 632, 661
1012, 661, 632, 633
1013, 685, 684, 658
1014, 662, 631, 632
1015, 671, 663, 646
1016, 686, 666, 663
1017, 702, 693, 688
1018, 664, 635, 642
1019, 667, 665, 639
1020, 665, 638, 663
1021, 688, 666, 686
1022, 666, 648, 639
1023, 667, 602, 604
1024, 667, 636, 665
1025, 668, 651, 640
1026, 669, 640, 641
1027, 693, 641, 673
1028, 702, 689, 669
1029, 670, 664, 642
1030, 678, 653, 655
1031, 671, 646, 597
1032, 690, 671, 634
1033, 674, 645, 649
1034, 699, 684, 685
1035, 673, 641, 605
1036, 673, 648, 666
1037, 676, 649, 650
1038, 706, 705, 683
1039, 675, 650, 647
1040, 695, 647, 677
1041, 705, 679, 683
1042, 676, 674, 649
1043, 704, 691, 681
1044, 677, 647, 610
1045, 680, 655, 656
1046, 703, 692, 678
1047, 679, 657, 626
1048, 683, 654, 660
1049, 681, 680, 656
1050, 703, 691, 689
1051, 681, 656, 657
1052, 695, 677, 691
1053, 682, 660, 659
1054, 684, 682, 659
1055, 705, 697, 696
1056, 683, 679, 654
1057, 684, 659, 658
1058, 685, 658, 637
1059, 685, 637, 631
1060, 699, 694, 682
1061, 686, 663, 671
1062, 707, 690, 664
1063, 687, 664, 670
1064, 702, 688, 687
1065, 688, 673, 666
1066, 707, 688, 686
1067, 689, 668, 669
1068, 702, 669, 693
1069, 701, 690, 634
1070, 707, 664, 687
1071, 691, 677, 668
1072, 691, 668, 689
1073, 692, 687, 670
1074, 692, 670, 678
1075, 693, 669, 641
1076, 693, 673, 688
1077, 694, 672, 674
1078, 697, 694, 674
1079, 704, 698, 696
1080, 695, 675, 647
1081, 696, 676, 675
1082, 704, 675, 695
1083, 697, 674, 676
1084, 697, 676, 696
1085, 698, 681, 657
1086, 698, 657, 679
1087, 699, 685, 662
1088, 699, 662, 672
1089, 700, 306, 371
1090, 700, 371, 493
1091, 701, 634, 644
1092, 701, 635, 664
1093, 702, 687, 692
1094, 702, 692, 689
1095, 703, 689, 692
1096, 703, 680, 681
1097, 704, 695, 691
1098, 704, 681, 698
1099, 705, 696, 698
1100, 706, 683, 682
1101, 706, 682, 694
1102, 706, 697, 705
1103, 707, 687, 688
1104, 707, 686, 690
1105, 708,   2,  27
1106, 750, 733, 732
1107, 710, 135, 708
1108, 860, 125, 126
1109, 930, 821, 763
1110, 748, 731, 730
1111,  13,   1,  96
1112, 726,  96,  97
1113, 781, 723, 722
1114, 831, 805, 820
1115, 765, 761,  16
1116, 761,  17,  16
1117, 737, 113, 736
1118, 713,  18, 712
1119, 714,  19, 713
1120, 715,  20, 714
1121, 751, 733, 750
1122, 717,  23, 709
1123, 718,  24, 717
1124, 719,  25, 718
1125, 720,  27,  26
1126, 107, 106,   6
1127, 742, 107, 108
1128, 752, 741, 740
1129, 760, 739, 738
1130, 815, 787, 801
1131, 774, 102, 103
1132, 722, 101, 721
1133, 723, 100, 722
1134, 724,  99, 723
1135, 725,  98, 724
1136, 726,  97, 725
1137, 125, 124,   7
1138, 727, 124, 125
1139, 747, 728, 122
1140, 747, 122, 123
1141, 749, 729, 728
1142, 729, 121, 728
1143, 719,  26,  25
1144, 731, 119, 730
1145, 733, 117, 732
1146, 811, 771, 806
1147, 754, 734, 751
1148, 755, 735, 754
1149, 736, 114, 735
1150, 738, 112, 737
1151, 739, 111, 738
1152, 740, 110, 739
1153, 741, 109, 740
1154, 742, 108, 741
1155, 823, 784, 782
1156, 782, 127, 128
1157, 783, 129, 743
1158, 743, 129, 130
1159, 744, 743, 130
1160, 746, 745, 132
1161, 826, 746, 711
1162, 746,   8, 133
1163, 708, 135,   2
1164, 756, 731, 748
1165, 709,  23,  22
1166, 716,  22,  21
1167, 730, 120, 729
1168, 710, 134, 135
1169, 711, 133, 134
1170, 711, 134, 710
1171, 712,  18,  17
1172, 776, 722, 721
1173, 735, 115, 734
1174, 713,  19,  18
1175, 734, 116, 733
1176, 714,  20,  19
1177, 790, 789, 754
1178, 715,  21,  20
1179, 716, 709,  22
1180, 716,  21, 715
1181, 732, 118, 731
1182, 717,  24,  23
1183, 767, 719, 718
1184, 718,  25,  24
1185, 763, 720, 719
1186, 720,  26, 719
1187, 821, 708, 720
1188, 720, 708,  27
1189, 721, 101, 102
1190, 757, 736, 755
1191, 781, 722, 776
1192, 722, 100, 101
1193, 805, 768, 788
1194, 723,  99, 100
1195, 768, 765,  15
1196, 724,  98,  99
1197, 775, 725, 724
1198, 725,  97,  98
1199, 769,  13, 726
1200, 726,  13,  96
1201, 727, 123, 124
1202, 784, 127, 782
1203, 728, 121, 122
1204, 860, 827, 727
1205, 758, 729, 749
1206, 729, 120, 121
1207, 814, 767, 812
1208, 730, 119, 120
1209, 797, 794, 750
1210, 731, 118, 119
1211, 771, 770, 717
1212, 732, 117, 118
1213, 794, 790, 751
1214, 733, 116, 117
1215, 867, 837, 862
1216, 734, 115, 116
1217, 809, 807, 766
1218, 735, 114, 115
1219, 781, 780, 723
1220, 736, 113, 114
1221, 838, 793, 836
1222, 737, 112, 113
1223, 753, 752, 740
1224, 738, 111, 112
1225, 777, 774, 103
1226, 739, 110, 111
1227, 778, 777, 104
1228, 740, 109, 110
1229, 787, 741, 752
1230, 741, 108, 109
1231, 779, 106, 742
1232, 742, 106, 107
1233, 744, 130, 131
1234, 858, 823, 825
1235, 745, 744, 131
1236, 786, 744, 745
1237, 745, 131, 132
1238, 786, 785, 744
1239, 746, 132,   8
1240, 746, 133, 711
1241, 747, 123, 727
1242, 890, 886, 885
1243, 758, 730, 729
1244, 770, 767, 718
1245, 802, 728, 747
1246, 844, 749, 802
1247, 756, 750, 732
1248, 772, 716, 762
1249, 810, 809, 773
1250, 751, 734, 733
1251, 753, 740, 739
1252, 798, 753, 796
1253, 759, 737, 757
1254, 830, 815, 801
1255, 773, 713, 764
1256, 754, 735, 734
1257, 793, 755, 789
1258, 755, 736, 735
1259, 756, 732, 731
1260, 842, 841, 799
1261, 897, 864, 868
1262, 757, 737, 736
1263, 888, 826, 829
1264, 758, 748, 730
1265, 923, 920, 921
1266, 759, 738, 737
1267, 760, 753, 739
1268, 760, 738, 759
1269, 761, 712,  17
1270, 765,  16,  15
1271, 762, 716, 715
1272, 766, 715, 714
1273, 930, 828, 821
1274, 767, 763, 719
1275, 764, 713, 712
1276, 803, 712, 761
1277, 768,  15,  14
1278, 820, 788, 775
1279, 766, 762, 715
1280, 773, 766, 714
1281, 770, 718, 717
1282, 863, 861, 832
1283, 769, 768,  14
1284, 788, 726, 725
1285, 769,  14,  13
1286, 788, 769, 726
1287, 771, 717, 709
1288, 812, 770, 811
1289, 772, 771, 709
1290, 837, 794, 834
1291, 772, 709, 716
1292, 914, 896, 903
1293, 773, 714, 713
1294, 927, 919, 923
1295, 774, 721, 102
1296, 777, 103, 104
1297, 831, 820, 816
1298, 780, 724, 723
1299, 804, 721, 774
1300, 796, 760, 792
1301, 778, 104, 105
1302, 889, 864, 883
1303, 779, 778, 105
1304, 787, 778, 779
1305, 779, 105, 106
1306, 787, 779, 742
1307, 817, 816, 780
1308, 780, 775, 724
1309, 908, 882, 881
1310, 854, 816, 817
1311, 783, 782, 128
1312, 825, 783, 822
1313, 783, 128, 129
1314, 822, 743, 785
1315, 860, 784, 827
1316, 784, 126, 127
1317, 785, 743, 744
1318, 891, 828, 884
1319, 826, 786, 745
1320, 930, 884, 828
1321, 787, 742, 741
1322, 801, 752, 798
1323, 788, 768, 769
1324, 788, 725, 775
1325, 789, 755, 754
1326, 790, 754, 751
1327, 794, 751, 750
1328, 852, 807, 850
1329, 799, 758, 791
1330, 791, 758, 749
1331, 792, 760, 759
1332, 795, 759, 757
1333, 793, 757, 755
1334, 850, 809, 849
1335, 797, 750, 756
1336, 834, 797, 832
1337, 795, 792, 759
1338, 795, 757, 793
1339, 830, 819, 815
1340, 796, 753, 760
1341, 800, 756, 748
1342, 872, 870, 843
1343, 856, 819, 830
1344, 798, 752, 753
1345, 799, 748, 758
1346, 871, 863, 841
1347, 800, 797, 756
1348, 800, 748, 799
1349, 830, 801, 798
1350, 801, 787, 752
1351, 802, 749, 728
1352, 827, 802, 747
1353, 803, 764, 712
1354, 813, 761, 765
1355, 804, 776, 721
1356, 819, 774, 777
1357, 805, 765, 768
1358, 816, 775, 780
1359, 806, 771, 772
1360, 808, 772, 762
1361, 807, 762, 766
1362, 809, 766, 773
1363, 808, 806, 772
1364, 808, 762, 807
1365, 810, 773, 764
1366, 880, 878, 850
1367, 847, 764, 803
1368, 818, 817, 781
1369, 845, 843, 811
1370, 811, 770, 771
1371, 841, 832, 800
1372, 812, 767, 770
1373, 813, 803, 761
1374, 813, 765, 805
1375, 900, 894, 863
1376, 814, 763, 767
1377, 815, 777, 778
1378, 815, 778, 787
1379, 831, 813, 805
1380, 817, 780, 781
1381, 818, 781, 776
1382, 881, 876, 847
1383, 848, 776, 804
1384, 835, 833, 796
1385, 819, 804, 774
1386, 819, 777, 815
1387, 820, 805, 788
1388, 820, 775, 816
1389, 821, 710, 708
1390, 821, 720, 763
1391, 822, 783, 743
1392, 859, 785, 824
1393, 873, 827, 823
1394, 825, 823, 782
1395, 890, 875, 886
1396, 824, 785, 786
1397, 825, 782, 783
1398, 886, 858, 857
1399, 826, 745, 746
1400, 829, 711, 828
1401, 827, 747, 727
1402, 827, 784, 823
1403, 828, 711, 710
1404, 828, 710, 821
1405, 888, 786, 826
1406, 829, 826, 711
1407, 833, 798, 796
1408, 833, 830, 798
1409, 908, 881, 853
1410, 853, 813, 831
1411, 832, 797, 800
1412, 841, 800, 799
1413, 835, 796, 792
1414, 864, 833, 835
1415, 851, 845, 806
1416, 834, 794, 797
1417, 840, 792, 795
1418, 923, 919, 920
1419, 836, 793, 789
1420, 839, 789, 790
1421, 837, 790, 794
1422, 862, 834, 861
1423, 869, 838, 865
1424, 838, 795, 793
1425, 839, 836, 789
1426, 839, 790, 837
1427, 840, 835, 792
1428, 840, 795, 838
1429, 842, 799, 791
1430, 846, 812, 843
1431, 875, 791, 844
1432, 887, 885, 859
1433, 843, 812, 811
1434, 845, 811, 806
1435, 844, 791, 749
1436, 873, 844, 802
1437, 851, 806, 808
1438, 874, 872, 845
1439, 910, 846, 870
1440, 846, 814, 812
1441, 847, 810, 764
1442, 853, 847, 803
1443, 848, 818, 776
1444, 856, 848, 804
1445, 849, 809, 810
1446, 876, 810, 847
1447, 866, 865, 836
1448, 850, 807, 809
1449, 852, 851, 808
1450, 894, 893, 861
1451, 852, 808, 807
1452, 918, 917, 906
1453, 853, 803, 813
1454, 854, 831, 816
1455, 855, 817, 818
1456, 855, 854, 817
1457, 877, 818, 848
1458, 922, 919, 907
1459, 856, 804, 819
1460, 889, 883, 856
1461, 857, 825, 822
1462, 859, 857, 822
1463, 873, 858, 844
1464, 858, 825, 857
1465, 859, 822, 785
1466, 924, 892, 915
1467, 860, 727, 125
1468, 860, 126, 784
1469, 861, 834, 832
1470, 863, 832, 841
1471, 917, 916, 905
1472, 862, 837, 834
1473, 871, 841, 842
1474, 928, 924, 915
1475, 889, 856, 830
1476, 868, 835, 840
1477, 865, 838, 836
1478, 866, 836, 839
1479, 867, 866, 839
1480, 899, 867, 895
1481, 867, 839, 837
1482, 895, 862, 893
1483, 868, 864, 835
1484, 869, 868, 840
1485, 869, 840, 838
1486, 901, 865, 898
1487, 870, 846, 843
1488, 872, 843, 845
1489, 890, 842, 875
1490, 928, 912, 911
1491, 874, 845, 851
1492, 896, 872, 874
1493, 873, 802, 827
1494, 873, 823, 858
1495, 879, 851, 852
1496, 913, 893, 894
1497, 875, 842, 791
1498, 875, 844, 858
1499, 876, 849, 810
1500, 881, 847, 853
1501, 877, 855, 818
1502, 883, 877, 848
1503, 878, 852, 850
1504, 880, 850, 849
1505, 879, 874, 851
1506, 879, 852, 878
1507, 904, 849, 876
1508, 918, 898, 917
1509, 908, 853, 831
1510, 882, 854, 855
1511, 909, 904, 876
1512, 907, 855, 877
1513, 883, 848, 856
1514, 922, 864, 897
1515, 929, 891, 926
1516, 884, 814, 846
1517, 885, 857, 859
1518, 887, 859, 824
1519, 886, 875, 858
1520, 886, 857, 885
1521, 929, 824, 888
1522, 929, 926, 925
1523, 888, 824, 786
1524, 891, 888, 829
1525, 889, 830, 833
1526, 889, 833, 864
1527, 911, 890, 885
1528, 890, 871, 842
1529, 891, 829, 828
1530, 926, 884, 910
1531, 914, 913, 896
1532, 892, 870, 872
1533, 903, 896, 874
1534, 893, 862, 861
1535, 894, 861, 863
1536, 900, 863, 871
1537, 917, 905, 906
1538, 895, 867, 862
1539, 896, 892, 872
1540, 903, 874, 879
1541, 922, 883, 864
1542, 902, 868, 869
1543, 898, 865, 866
1544, 899, 898, 866
1545, 899, 866, 867
1546, 916, 914, 903
1547, 912, 890, 911
1548, 915, 913, 894
1549, 920, 901, 918
1550, 901, 869, 865
1551, 902, 897, 868
1552, 902, 869, 901
1553, 905, 903, 879
1554, 916, 903, 905
1555, 904, 880, 849
1556, 909, 876, 881
1557, 905, 879, 878
1558, 906, 905, 878
1559, 906, 878, 880
1560, 921, 906, 880
1561, 907, 882, 855
1562, 922, 907, 877
1563, 908, 831, 854
1564, 908, 854, 882
1565, 909, 881, 882
1566, 927, 882, 907
1567, 910, 884, 846
1568, 924, 870, 892
1569, 911, 885, 887
1570, 925, 911, 887
1571, 912, 900, 871
1572, 912, 871, 890
1573, 915, 894, 900
1574, 913, 892, 896
1575, 914, 895, 893
1576, 914, 893, 913
1577, 928, 900, 912
1578, 915, 892, 913
1579, 916, 899, 895
1580, 916, 895, 914
1581, 917, 898, 899
1582, 917, 899, 916
1583, 921, 918, 906
1584, 918, 901, 898
1585, 919, 897, 902
1586, 920, 919, 902
1587, 920, 902, 901
1588, 921, 920, 918
1589, 921, 880, 904
1590, 923, 921, 904
1591, 922, 877, 883
1592, 922, 897, 919
1593, 923, 904, 909
1594, 927, 923, 909
1595, 928, 925, 924
1596, 924, 910, 870
1597, 929, 925, 887
1598, 925, 910, 924
1599, 926, 891, 884
1600, 926, 910, 925
1601, 927, 909, 882
1602, 927, 907, 919
1603, 928, 915, 900
1604, 928, 911, 925
1605, 929, 887, 824
1606, 929, 888, 891
1607, 930, 763, 814
1608, 930, 814, 884
1609,  992,    9,  136
1610, 1037,  992,  937
1611,  954,  145,  953
1612,  945,  944,   47
1613,  973,   39,   38
1614,  934,  175,  931
1615,  141,  140,   10
1616,  957,  140,  141
1617,  990,  140,  957
1618, 1082, 1042,  991
1619,  937,  136,  137
1620,  165,   11,  166
1621,  962,  166,  167
1622,  985,  961,  960
1623,  997,  993,  163
1624,  993,  162,  163
1625,  939,   51,   50
1626,  940,   51,  939
1627,  941,  939,   50
1628,  942,  941,   49
1629, 1087, 1084, 1039
1630,  943,  161,  938
1631,  944,  942,   48
1632, 1030,  966, 1019
1633,  966,   44,  947
1634, 1097, 1096, 1047
1635,  970,   41,  949
1636,  949,   40,  933
1637, 1052, 1049, 1011
1638,  976,   36,  952
1639, 1057, 1012, 1055
1640, 1000,  978,  999
1641, 1086,  931, 1037
1642,  955,  144,  954
1643,  956,  143,  955
1644, 1036,  990,  957
1645,   52,  173,    4
1646, 1124, 1078, 1123
1647,  986,  173,   52
1648,  984,  958,  171
1649,  959,  170,  958
1650,  960,  169,  959
1651,  961,  168,  960
1652,  962,  167,  961
1653,  963,  159,  932
1654, 1013,  963,  995
1655,  966,   45,   44
1656, 1013, 1001,  964
1657,  967,  156,  946
1658, 1067, 1064, 1020
1659,  970,  969,   42
1660, 1003,  968, 1002
1661, 1134, 1110, 1131
1662,  971,  153,  948
1663,  976,   37,   36
1664,  974,  150,  950
1665,  975,  973,   38
1666, 1011, 1005,  974
1667,  977,  148,  951
1668, 1026,  979, 1017
1669, 1033, 1017,  980
1670,  980,  979,   34
1671, 1000,  953,  978
1672,  934,  174,  175
1673, 1083,  983,  934
1674,  983,    3,  174
1675,  931,  175,  176
1676,  936,  138,  935
1677,  932,  159,  160
1678,  943,  160,  161
1679,  971,  152,  153
1680,  933,   40,   39
1681,  981,  980,   33
1682,  983,  982,   31
1683,  935,  138,  139
1684,  991,  989,  936
1685,  989,  937,  936
1686,  936,  137,  138
1687,  992,  931,  176
1688,  937,  137,  936
1689,  938,  161,  162
1690, 1088, 1081, 1078
1691,  984,  171,  172
1692,  941,   50,   49
1693,  986,   52,  940
1694,  940,   52,   51
1695,  942,   49,   48
1696, 1039, 1038,  985
1697,  944,   48,   47
1698, 1028,  945, 1016
1699,  943,  932,  160
1700,  994,  943,  938
1701,  945,   47,   46
1702, 1014,  943,  994
1703,  965,   46,   45
1704, 1014,  995,  932
1705,  946,  156,  157
1706,  964,  157,  158
1707,  947,   44,   43
1708,  969,   43,   42
1709,  948,  153,  154
1710,  968,  154,  155
1711,  949,   41,   40
1712, 1066, 1065, 1021
1713,  950,  150,  151
1714,  972,  151,  152
1715,  951,  148,  149
1716,  974,  951,  149
1717,  952,   36,   35
1718,  979,   35,   34
1719,  953,  145,  146
1720,  978,  146,  147
1721, 1061, 1007,  996
1722,  954,  144,  145
1723,  996,  955,  954
1724,  955,  143,  144
1725, 1036,  991,  935
1726,  956,  142,  143
1727,  957,  141,  142
1728,  957,  142,  956
1729, 1102, 1043, 1084
1730,  958,  170,  171
1731,  988,  960,  959
1732,  959,  169,  170
1733, 1062, 1035, 1038
1734,  960,  168,  169
1735, 1035,  961,  985
1736,  961,  167,  168
1737, 1008,  165,  962
1738,  962,  165,  166
1739,  963,  158,  159
1740,  995,  963,  932
1741,  964,  946,  157
1742,  964,  158,  963
1743,  965,  945,   46
1744,  966,  965,   45
1745, 1137, 1117, 1136
1746, 1071, 1019, 1070
1747,  967,  155,  156
1748, 1009,  946, 1001
1749,  968,  948,  154
1750,  968,  155,  967
1751,  969,  947,   43
1752,  970,   42,   41
1753, 1047, 1002, 1044
1754, 1031,  949, 1029
1755, 1010,  948, 1003
1756, 1048, 1004, 1045
1757,  972,  950,  151
1758,  972,  152,  971
1759,  973,  933,   39
1760,  975,   38,   37
1761,  974,  149,  150
1762, 1011,  950,  998
1763,  976,  975,   37
1764, 1023,  976, 1022
1765, 1130, 1111, 1109
1766, 1094, 1089, 1049
1767,  977,  147,  148
1768, 1055, 1005, 1049
1769,  978,  953,  146
1770,  978,  147,  977
1771,  979,  952,   35
1772,  980,   34,   33
1773,  981,   33,   32
1774, 1058,  999, 1057
1775,  982,  981,   32
1776, 1148, 1145, 1146
1777,  982,   32,   31
1778, 1034, 1033,  981
1779,  983,   31,    3
1780,  983,  174,  934
1781,  986,  984,  172
1782, 1025,  940,  939
1783,  987,  959,  958
1784, 1084, 1038, 1039
1785,  986,  172,  173
1786, 1025,  986,  940
1787, 1041,  958,  984
1788, 1018,  939,  941
1789,  988,  985,  960
1790,  988,  959,  987
1791, 1086,  989, 1042
1792,  991,  936,  935
1793,  990,  935,  139
1794,  990,  139,  140
1795, 1036,  935,  990
1796, 1007,  956,  955
1797,  992,  176,    9
1798,  992,  136,  937
1799,  993,  938,  162
1800,  997,  163,  164
1801, 1043,  938,  993
1802, 1027, 1015,  942
1803, 1014,  932,  943
1804, 1056, 1051,  995
1805, 1006,  954,  953
1806, 1105, 1061, 1054
1807, 1008,  997,  164
1808, 1035, 1008,  962
1809,  998,  950,  972
1810, 1004,  972,  971
1811,  999,  978,  977
1812, 1012,  977,  951
1813, 1060, 1000, 1058
1814, 1006,  953, 1000
1815, 1024,  969, 1020
1816, 1001,  946,  964
1817, 1002,  968,  967
1818, 1009, 1002,  967
1819, 1029,  933, 1021
1820, 1003,  948,  968
1821, 1004,  998,  972
1822, 1010, 1004,  971
1823, 1077, 1073, 1026
1824, 1005,  951,  974
1825, 1106, 1060, 1091
1826, 1006,  996,  954
1827, 1082, 1036, 1007
1828, 1007,  955,  996
1829, 1008,  164,  165
1830, 1035,  962,  961
1831, 1009,  967,  946
1832, 1050, 1001, 1046
1833, 1010,  971,  948
1834, 1069, 1067, 1031
1835, 1011,  974,  950
1836, 1095, 1045, 1093
1837, 1012,  999,  977
1838, 1012,  951, 1005
1839, 1013,  964,  963
1840, 1051, 1046, 1013
1841, 1059, 1056, 1014
1842, 1028, 1027,  944
1843, 1015,  941,  942
1844, 1027,  942,  944
1845, 1016,  945,  965
1846, 1030,  965,  966
1847, 1017,  979,  980
1848, 1033,  980,  981
1849, 1081, 1025, 1018
1850, 1018,  941, 1015
1851, 1019,  966,  947
1852, 1024,  947,  969
1853, 1020,  969,  970
1854, 1031,  970,  949
1855, 1021,  933,  973
1856, 1032,  973,  975
1857, 1022,  976,  952
1858, 1026, 1022,  952
1859, 1052,  998, 1048
1860, 1023,  975,  976
1861, 1117, 1064, 1115
1862, 1024, 1019,  947
1863, 1025,  984,  986
1864, 1025,  939, 1018
1865, 1026,  952,  979
1866, 1090, 1055, 1089
1867, 1028,  944,  945
1868, 1076, 1027, 1075
1869, 1139, 1116, 1138
1870, 1140, 1119, 1139
1871, 1096, 1093, 1053
1872, 1029,  949,  933
1873, 1138, 1116, 1118
1874, 1030, 1016,  965
1875, 1097, 1044, 1092
1876, 1031, 1020,  970
1877, 1032, 1021,  973
1878, 1032,  975, 1023
1879, 1034,  981,  982
1880, 1129, 1108, 1122
1881, 1083, 1034,  982
1882, 1146, 1034, 1083
1883, 1038, 1035,  985
1884, 1035,  997, 1008
1885, 1036,  957,  956
1886, 1036,  956, 1007
1887, 1037,  931,  992
1888, 1037,  937,  989
1889, 1084, 1062, 1038
1890, 1039,  985,  988
1891, 1040,  988,  987
1892, 1040, 1039,  988
1893, 1088, 1041, 1081
1894, 1121, 1075, 1120
1895, 1041,  987,  958
1896, 1041,  984, 1025
1897, 1148, 1147, 1145
1898, 1042,  989,  991
1899, 1043,  994,  938
1900, 1062, 1043,  993
1901, 1044, 1002, 1009
1902, 1050, 1009, 1001
1903, 1045, 1004, 1010
1904, 1053, 1010, 1003
1905, 1046, 1001, 1013
1906, 1051, 1013,  995
1907, 1069, 1029, 1065
1908, 1047, 1003, 1002
1909, 1133, 1131, 1112
1910, 1048,  998, 1004
1911, 1049, 1005, 1011
1912, 1052, 1011,  998
1913, 1070, 1024, 1064
1914, 1050, 1044, 1009
1915, 1056,  995, 1014
1916, 1072, 1030, 1071
1917, 1131, 1110, 1112
1918, 1068, 1023, 1063
1919, 1053, 1045, 1010
1920, 1053, 1003, 1047
1921, 1054,  996, 1006
1922, 1060, 1006, 1000
1923, 1073, 1063, 1022
1924, 1055, 1012, 1005
1925, 1059, 1014,  994
1926, 1074, 1016, 1072
1927, 1101, 1057, 1090
1928, 1057,  999, 1012
1929, 1147, 1141, 1145
1930, 1058, 1000,  999
1931, 1102,  994, 1043
1932, 1075, 1028, 1074
1933, 1122, 1108, 1080
1934, 1060, 1054, 1006
1935, 1082, 1061, 1042
1936, 1061,  996, 1054
1937, 1062,  993,  997
1938, 1062,  997, 1035
1939, 1063, 1023, 1022
1940, 1073, 1022, 1026
1941, 1064, 1024, 1020
1942, 1067, 1020, 1031
1943, 1065, 1029, 1021
1944, 1066, 1021, 1032
1945, 1068, 1066, 1032
1946, 1133, 1111, 1130
1947, 1069, 1031, 1029
1948, 1135, 1114, 1132
1949, 1068, 1032, 1023
1950, 1130, 1109, 1128
1951, 1132, 1114, 1113
1952, 1134, 1132, 1113
1953, 1099, 1092, 1050
1954, 1070, 1019, 1024
1955, 1100, 1099, 1046
1956, 1071, 1030, 1019
1957, 1103, 1100, 1051
1958, 1072, 1016, 1030
1959, 1077, 1026, 1017
1960, 1128, 1107, 1127
1961, 1104, 1103, 1056
1962, 1074, 1028, 1016
1963, 1142, 1059, 1102
1964, 1075, 1027, 1028
1965, 1124, 1087, 1040
1966, 1076, 1015, 1027
1967, 1080, 1017, 1033
1968, 1108, 1107, 1077
1969, 1078, 1018, 1015
1970, 1078, 1015, 1076
1971, 1079, 1033, 1034
1972, 1146, 1083, 1085
1973, 1080, 1077, 1017
1974, 1080, 1033, 1079
1975, 1081, 1041, 1025
1976, 1081, 1018, 1078
1977, 1082,  991, 1036
1978, 1082, 1007, 1061
1979, 1083,  982,  983
1980, 1085, 1083,  934
1981, 1084, 1043, 1062
1982, 1087, 1039, 1040
1983, 1125,  934,  931
1984, 1105, 1086, 1042
1985, 1086, 1037,  989
1986, 1105, 1042, 1061
1987, 1144, 1124, 1123
1988, 1143, 1120, 1140
1989, 1088, 1040,  987
1990, 1088,  987, 1041
1991, 1089, 1055, 1049
1992, 1094, 1049, 1052
1993, 1128, 1109, 1107
1994, 1090, 1057, 1055
1995, 1091, 1060, 1058
1996, 1101, 1091, 1058
1997, 1092, 1044, 1050
1998, 1099, 1050, 1046
1999, 1093, 1045, 1053
2000, 1096, 1053, 1047
2001, 1098, 1052, 1048
2002, 1133, 1112, 1111
2003, 1134, 1113, 1110
2004, 1095, 1048, 1045
2005, 1097, 1047, 1044
2006, 1135, 1115, 1114
2007, 1136, 1115, 1135
2008, 1115, 1067, 1114
2009, 1098, 1094, 1052
2010, 1098, 1048, 1095
2011, 1100, 1046, 1051
2012, 1118, 1070, 1117
2013, 1103, 1051, 1056
2014, 1139, 1119, 1116
2015, 1101, 1058, 1057
2016, 1127, 1107, 1108
2017, 1102, 1059,  994
2018, 1126, 1084, 1087
2019, 1104, 1056, 1059
2020, 1119, 1072, 1116
2021, 1142, 1102, 1126
2022, 1120, 1074, 1119
2023, 1106, 1105, 1054
2024, 1148, 1105, 1147
2025, 1106, 1054, 1060
2026, 1145, 1122, 1079
2027, 1107, 1073, 1077
2028, 1108, 1077, 1080
2029, 1122, 1080, 1079
2030, 1129, 1127, 1108
2031, 1109, 1063, 1073
2032, 1109, 1073, 1107
2033, 1110, 1065, 1066
2034, 1112, 1066, 1068
2035, 1111, 1068, 1063
2036, 1111, 1063, 1109
2037, 1112, 1110, 1066
2038, 1112, 1068, 1111
2039, 1113, 1069, 1065
2040, 1113, 1065, 1110
2041, 1114, 1067, 1069
2042, 1114, 1069, 1113
2043, 1136, 1117, 1115
2044, 1115, 1064, 1067
2045, 1116, 1072, 1071
2046, 1118, 1071, 1070
2047, 1137, 1118, 1117
2048, 1117, 1070, 1064
2049, 1138, 1118, 1137
2050, 1118, 1116, 1071
2051, 1140, 1120, 1119
2052, 1119, 1074, 1072
2053, 1144, 1126, 1087
2054, 1120, 1075, 1074
2055, 1144, 1142, 1126
2056, 1121, 1076, 1075
2057, 1145, 1141, 1122
2058, 1141, 1129, 1122
2059, 1123, 1078, 1076
2060, 1123, 1076, 1121
2061, 1124, 1040, 1088
2062, 1124, 1088, 1078
2063, 1125, 1085,  934
2064, 1125,  931, 1086
2065, 1126, 1102, 1084
2066, 1144, 1087, 1124
2067, 1127, 1101, 1090
2068, 1128, 1127, 1090
2069, 1128, 1090, 1089
2070, 1130, 1128, 1089
2071, 1129, 1091, 1101
2072, 1129, 1101, 1127
2073, 1130, 1089, 1094
2074, 1133, 1130, 1094
2075, 1131, 1098, 1095
2076, 1134, 1131, 1095
2077, 1132, 1093, 1096
2078, 1135, 1132, 1096
2079, 1133, 1094, 1098
2080, 1133, 1098, 1131
2081, 1134, 1095, 1093
2082, 1134, 1093, 1132
2083, 1135, 1096, 1097
2084, 1136, 1135, 1097
2085, 1136, 1097, 1092
2086, 1137, 1136, 1092
2087, 1137, 1092, 1099
2088, 1138, 1137, 1099
2089, 1138, 1099, 1100
2090, 1139, 1138, 1100
2091, 1139, 1100, 1103
2092, 1140, 1139, 1103
2093, 1140, 1103, 1104
2094, 1143, 1140, 1104
2095, 1141, 1106, 1091
2096, 1141, 1091, 1129
2097, 1144, 1143, 1142
2098, 1142, 1104, 1059
2099, 1143, 1104, 1142
2100, 1143, 1121, 1120
2101, 1144, 1123, 1121
2102, 1144, 1121, 1143
2103, 1146, 1145, 1079
2104, 1148, 1085, 1125
2105, 1146, 1079, 1034
2106, 1148, 1146, 1085
2107, 1147, 1105, 1106
2108, 1147, 1106, 1141
2109, 1148, 1125, 1086
2110, 1148, 1086, 1105
2111, 1181, 1170, 1169
2112, 1149,  139,  138
2113, 1171,  193, 1170
2114, 1151,    8,  132
2115, 1182, 1170, 1181
2116, 1152,  139, 1149
2117, 1197, 1152, 1149
2118, 1153, 1149,  138
2119, 1210, 1179, 1155
2120, 1210, 1156, 1154
2121, 1156,    9,  177
2122,  125,    7,  180
2123, 1166,  180,  181
2124, 1175, 1164, 1163
2125, 1193, 1190,  126
2126, 1228, 1215, 1219
2127, 1189,  129,  128
2128, 1158,  130, 1157
2129, 1158,  131,  130
2130,  188,  187,   12
2131, 1160,  187,  188
2132, 1174,  190, 1173
2133, 1162,  185, 1161
2134, 1163,  184, 1162
2135, 1164,  183, 1163
2136, 1165,  182, 1164
2137, 1166,  181, 1165
2138,  198,   10,  140
2139, 1152,  140,  139
2140, 1185, 1167,  197
2141, 1180, 1153, 1179
2142, 1168,  196, 1167
2143, 1169,  195, 1168
2144, 1170,  194, 1169
2145, 1172,  192, 1171
2146, 1222, 1199, 1176
2147, 1173,  191, 1172
2148, 1211,  188,  189
2149, 1153,  138,  137
2150, 1197, 1184, 1167
2151, 1150,  178,  179
2152, 1151, 1150,  179
2153, 1151,  179,    8
2154, 1159,  132,  131
2155, 1185,  198, 1152
2156, 1152,  198,  140
2157, 1155,  137,  136
2158, 1154,  177,  178
2159, 1154,  178, 1150
2160, 1186, 1168, 1184
2161, 1155, 1153,  137
2162, 1156, 1155,  136
2163, 1156,  136,    9
2164, 1156,  177, 1154
2165, 1157,  130,  129
2166, 1187, 1171, 1182
2167, 1192, 1159, 1158
2168, 1159,  131, 1158
2169, 1216, 1151, 1159
2170, 1159, 1151,  132
2171, 1161,  186, 1160
2172, 1160,  186,  187
2173, 1161,  185,  186
2174, 1196, 1176, 1161
2175, 1187, 1183, 1172
2176, 1162,  184,  185
2177, 1191,  127, 1190
2178, 1163,  183,  184
2179, 1178, 1164, 1175
2180, 1164,  182,  183
2181, 1195, 1165, 1178
2182, 1165,  181,  182
2183, 1193,  125, 1166
2184, 1166,  125,  180
2185, 1167,  196,  197
2186, 1205, 1184, 1203
2187, 1238, 1236, 1237
2188, 1168,  195,  196
2189, 1230, 1225, 1224
2190, 1169,  194,  195
2191, 1206, 1181, 1204
2192, 1170,  193,  194
2193, 1225, 1206, 1224
2194, 1171,  192,  193
2195, 1211, 1196, 1160
2196, 1172,  191,  192
2197, 1188, 1174, 1173
2198, 1173,  190,  191
2199, 1211, 1174, 1196
2200, 1174,  189,  190
2201, 1219, 1213, 1198
2202, 1177, 1163, 1162
2203, 1176, 1162, 1161
2204, 1183, 1173, 1172
2205, 1177, 1175, 1163
2206, 1177, 1162, 1176
2207, 1213, 1195, 1198
2208, 1178, 1165, 1164
2209, 1179, 1153, 1155
2210, 1218, 1217, 1154
2211, 1203, 1197, 1180
2212, 1180, 1149, 1153
2213, 1186, 1169, 1168
2214, 1194, 1192, 1158
2215, 1219, 1215, 1213
2216, 1182, 1171, 1170
2217, 1208, 1188, 1183
2218, 1187, 1172, 1171
2219, 1184, 1168, 1167
2220, 1231, 1205, 1202
2221, 1185,  197,  198
2222, 1197, 1185, 1152
2223, 1202, 1180, 1179
2224, 1186, 1181, 1169
2225, 1207, 1182, 1206
2226, 1209, 1187, 1207
2227, 1222, 1196, 1188
2228, 1188, 1173, 1183
2229, 1189, 1157,  129
2230, 1191,  128,  127
2231, 1190,  127,  126
2232, 1195, 1193, 1166
2233, 1219, 1198, 1201
2234, 1191, 1189,  128
2235, 1240, 1192, 1214
2236, 1194, 1158, 1157
2237, 1193,  126,  125
2238, 1195, 1166, 1165
2239, 1212, 1157, 1189
2240, 1231, 1224, 1204
2241, 1198, 1195, 1178
2242, 1195, 1190, 1193
2243, 1196, 1161, 1160
2244, 1196, 1174, 1188
2245, 1197, 1167, 1185
2246, 1197, 1149, 1180
2247, 1201, 1178, 1175
2248, 1223, 1208, 1209
2249, 1200, 1177, 1199
2250, 1199, 1177, 1176
2251, 1235, 1229, 1233
2252, 1200, 1175, 1177
2253, 1201, 1198, 1178
2254, 1201, 1175, 1200
2255, 1217, 1179, 1210
2256, 1217, 1202, 1179
2257, 1203, 1184, 1197
2258, 1203, 1180, 1202
2259, 1204, 1181, 1186
2260, 1205, 1204, 1186
2261, 1205, 1186, 1184
2262, 1205, 1203, 1202
2263, 1226, 1207, 1225
2264, 1206, 1182, 1181
2265, 1220, 1199, 1208
2266, 1207, 1187, 1182
2267, 1222, 1208, 1199
2268, 1209, 1208, 1183
2269, 1209, 1183, 1187
2270, 1235, 1233, 1234
2271, 1210, 1155, 1156
2272, 1217, 1210, 1154
2273, 1211, 1160,  188
2274, 1211,  189, 1174
2275, 1212, 1194, 1157
2276, 1215, 1189, 1191
2277, 1213, 1191, 1190
2278, 1213, 1190, 1195
2279, 1214, 1192, 1194
2280, 1227, 1194, 1212
2281, 1215, 1212, 1189
2282, 1215, 1191, 1213
2283, 1216, 1150, 1151
2284, 1216, 1159, 1192
2285, 1218, 1154, 1150
2286, 1218, 1150, 1216
2287, 1240, 1216, 1192
2288, 1237, 1230, 1224
2289, 1221, 1201, 1200
2290, 1235, 1220, 1223
2291, 1220, 1200, 1199
2292, 1235, 1234, 1221
2293, 1221, 1219, 1201
2294, 1221, 1200, 1220
2295, 1222, 1176, 1196
2296, 1222, 1188, 1208
2297, 1223, 1220, 1208
2298, 1226, 1209, 1207
2299, 1224, 1206, 1204
2300, 1231, 1204, 1205
2301, 1232, 1229, 1230
2302, 1225, 1207, 1206
2303, 1233, 1229, 1232
2304, 1226, 1223, 1209
2305, 1227, 1214, 1194
2306, 1228, 1227, 1212
2307, 1228, 1212, 1215
2308, 1234, 1219, 1221
2309, 1229, 1226, 1225
2310, 1230, 1229, 1225
2311, 1237, 1236, 1230
2312, 1236, 1232, 1230
2313, 1239, 1202, 1217
2314, 1239, 1237, 1231
2315, 1232, 1214, 1227
2316, 1233, 1232, 1227
2317, 1233, 1227, 1228
2318, 1234, 1233, 1228
2319, 1234, 1228, 1219
2320, 1235, 1221, 1220
2321, 1235, 1223, 1226
2322, 1235, 1226, 1229
2323, 1240, 1236, 1238
2324, 1236, 1214, 1232
2325, 1237, 1224, 1231
2326, 1239, 1238, 1237
2327, 1238, 1217, 1218
2328, 1240, 1238, 1218
2329, 1239, 1231, 1202
2330, 1239, 1217, 1238
2331, 1240, 1218, 1216
2332, 1240, 1214, 1236
*Orientation, name=Ori-1
1., 0., 0., 0., 1., 0.
3, 0.
** Region: (CompositeLayup-1-1: Generated From Layup)
*Elset, elset=CompositeLayup-1-1, generate
    1,  2332,     1
** Section: CompositeLayup-1-1
*Shell Section, elset=CompositeLayup-1-1, composite, orientation=Ori-1, layup=CompositeLayup-1, symmetric
0.25, 3, CFRP, 0., Ply-1
0.25, 3, CFRP, 45., Ply-2
0.25, 3, CFRP, 90., Ply-3
0.25, 3, CFRP, -45., Ply-4
*End Part
**  
**
** ASSEMBLY
**
*Assembly, name=Assembly
**  
*Instance, name=Plate-1, part=PLATE
*End Instance
**  
*Nset, nset=Set-1, instance=Plate-1
   6,   7,  12, 107, 108, 109, 110, 111, 112, 113, 114, 115, 116, 117, 118, 119
 120, 121, 122, 123, 124, 180, 181, 182, 183, 184, 185, 186, 187
*Elset, elset=Set-1, instance=Plate-1
 1126, 1127, 1137, 1140, 1201, 1203, 1206, 1208, 1210, 1212, 1214, 1216, 1218, 1220, 1222, 1224
 1226, 1228, 1230, 2122, 2123, 2130, 2172, 2173, 2176, 2178, 2180, 2182
*Nset, nset=Set-2, instance=Plate-1
   4,   5,  11,  53,  54,  55,  56,  57,  58,  59,  60,  61,  62,  63,  64,  65
  66,  67,  68,  69,  70, 166, 167, 168, 169, 170, 171, 172, 173
*Elset, elset=Set-2, instance=Plate-1
   22,   23,   44,   50,   52,  139,  142,  144,  146,  148,  150,  152,  154,  156,  185,  192
  195,  213,  217, 1620, 1621, 1645, 1691, 1730, 1732, 1734, 1736, 1785
*End Assembly
** 
** MATERIALS
** 
*Material, name=CFRP
*Elastic, type=ENGINEERING CONSTANTS
150000.,9000.,9000., 0.34, 0.34,  0.4,5000.,5000.
5000.,
** ----------------------------------------------------------------
** 
** STEP: Step-1
** 
*Step, name=Step-1, nlgeom=NO
*Static
1., 1., 1e-05, 1.
** 
** BOUNDARY CONDITIONS
** 
** Name: BC-1 Type: Symmetry/Antisymmetry/Encastre
*Boundary
Set-1, ENCASTRE
** Name: DISPLACEMENT Type: Displacement/Rotation
*Boundary
Set-2, 1, 1, 1.
** 
** OUTPUT REQUESTS
** 
*Restart, write, frequency=0
** 
** FIELD OUTPUT: F-Output-1
** 
*Output, field
*Element Output, position=NODES, directions=YES
E, 
** 
** HISTORY OUTPUT: H-Output-1
** 
*Output, history, variable=PRESELECT
*End Step
