*Heading
 Elastic fabric composite plate with hole
** Job name: Plate_362 Model name: Model-1
** Generated by: Abaqus/CAE 2024.HF3
*Preprint, echo=NO, model=NO, history=NO, contact=NO
**
** PARTS
**
*Part, name=PLATE
*Node
      1,   95.8740005,   192.187424,           0.
      2,   95.8740005,    126.19738,           0.
      3,   106.758926,   115.312454,           0.
      4,   159.789993,   115.312454,           0.
      5,   159.789993,   192.187424,           0.
      6,           0.,   192.187424,           0.
      7,           0.,   115.312454,           0.
      8,   84.9890747,   115.312454,           0.
      9,   95.8740005,   104.427528,           0.
     10,   95.8740005,           0.,           0.
     11,   159.789993,           0.,           0.
     12,           0.,           0.,           0.
     13,   95.8740005,   186.688248,           0.
     14,   95.8740005,   181.189087,           0.
     15,   95.8740005,   175.689911,           0.
     16,   95.8740005,   170.190735,           0.
     17,   95.8740005,   164.691574,           0.
     18,   95.8740005,   159.192398,           0.
     19,   95.8740005,   153.693237,           0.
     20,   95.8740005,   148.194061,           0.
     21,   95.8740005,   142.694885,           0.
     22,   95.8740005,   137.195724,           0.
     23,   95.8740005,   131.696548,           0.
     24,    101.31646,   124.739075,           0.
     25,   105.300621,   120.754913,           0.
     26,   112.062035,   115.312454,           0.
     27,   117.365135,   115.312454,           0.
     28,   122.668243,   115.312454,           0.
     29,   127.971352,   115.312454,           0.
     30,    133.27446,   115.312454,           0.
     31,   138.577576,   115.312454,           0.
     32,   143.880676,   115.312454,           0.
     33,   149.183777,   115.312454,           0.
     34,   154.486893,   115.312454,           0.
     35,   159.789993,    120.80352,           0.
     36,   159.789993,   126.294594,           0.
     37,   159.789993,    131.78566,           0.
     38,   159.789993,   137.276733,           0.
     39,   159.789993,   142.767807,           0.
     40,   159.789993,   148.258865,           0.
     41,   159.789993,   153.749939,           0.
     42,   159.789993,   159.241013,           0.
     43,   159.789993,   164.732071,           0.
     44,   159.789993,   170.223145,           0.
     45,   159.789993,   175.714218,           0.
     46,   159.789993,   181.205292,           0.
     47,   159.789993,    186.69635,           0.
     48,   154.463669,   192.187424,           0.
     49,   149.137329,   192.187424,           0.
     50,   143.811005,   192.187424,           0.
     51,   138.484665,   192.187424,           0.
     52,   133.158325,   192.187424,           0.
     53,   127.832001,   192.187424,           0.
     54,   122.505669,   192.187424,           0.
     55,   117.179329,   192.187424,           0.
     56,   111.852997,   192.187424,           0.
     57,   106.526665,   192.187424,           0.
     58,   101.200333,   192.187424,           0.
     59,   90.2343521,   192.187424,           0.
     60,   84.5947037,   192.187424,           0.
     61,   78.9550552,   192.187424,           0.
     62,   73.3154144,   192.187424,           0.
     63,    67.675766,   192.187424,           0.
     64,   62.0361176,   192.187424,           0.
     65,   56.3964691,   192.187424,           0.
     66,   50.7568245,   192.187424,           0.
     67,   45.1171761,   192.187424,           0.
     68,   39.4775276,   192.187424,           0.
     69,    33.837883,   192.187424,           0.
     70,   28.1982346,   192.187424,           0.
     71,    22.558588,   192.187424,           0.
     72,   16.9189415,   192.187424,           0.
     73,    11.279294,   192.187424,           0.
     74,   5.63964701,   192.187424,           0.
     75,           0.,    186.69635,           0.
     76,           0.,   181.205292,           0.
     77,           0.,   175.714218,           0.
     78,           0.,   170.223145,           0.
     79,           0.,   164.732071,           0.
     80,           0.,   159.241013,           0.
     81,           0.,   153.749939,           0.
     82,           0.,   148.258865,           0.
     83,           0.,   142.767807,           0.
     84,           0.,   137.276733,           0.
     85,           0.,    131.78566,           0.
     86,           0.,   126.294594,           0.
     87,           0.,    120.80352,           0.
     88,   5.66593838,   115.312454,           0.
     89,   11.3318768,   115.312454,           0.
     90,   16.9978142,   115.312454,           0.
     91,   22.6637535,   115.312454,           0.
     92,   28.3296909,   115.312454,           0.
     93,   33.9956284,   115.312454,           0.
     94,   39.6615677,   115.312454,           0.
     95,    45.327507,   115.312454,           0.
     96,   50.9934425,   115.312454,           0.
     97,   56.6593819,   115.312454,           0.
     98,   62.3253212,   115.312454,           0.
     99,   67.9912567,   115.312454,           0.
    100,    73.657196,   115.312454,           0.
    101,   79.3231354,   115.312454,           0.
    102,   86.4473801,   120.754913,           0.
    103,   90.4315338,   124.739075,           0.
    104,   95.8740005,   98.9313431,           0.
    105,   95.8740005,   93.4351578,           0.
    106,   95.8740005,   87.9389725,           0.
    107,   95.8740005,   82.4427872,           0.
    108,   95.8740005,   76.9466019,           0.
    109,   95.8740005,   71.4504166,           0.
    110,   95.8740005,   65.9542313,           0.
    111,   95.8740005,   60.4580421,           0.
    112,   95.8740005,   54.9618568,           0.
    113,   95.8740005,   49.4656715,           0.
    114,   95.8740005,   43.9694862,           0.
    115,   95.8740005,   38.4733009,           0.
    116,   95.8740005,   32.9771156,           0.
    117,   95.8740005,   27.4809284,           0.
    118,   95.8740005,   21.9847431,           0.
    119,   95.8740005,   16.4885578,           0.
    120,   95.8740005,   10.9923716,           0.
    121,   95.8740005,   5.49618578,           0.
    122,   101.200333,           0.,           0.
    123,   106.526665,           0.,           0.
    124,   111.852997,           0.,           0.
    125,   117.179329,           0.,           0.
    126,   122.505669,           0.,           0.
    127,   127.832001,           0.,           0.
    128,   133.158325,           0.,           0.
    129,   138.484665,           0.,           0.
    130,   143.811005,           0.,           0.
    131,   149.137329,           0.,           0.
    132,   154.463669,           0.,           0.
    133,   159.789993,   5.49106932,           0.
    134,   159.789993,   10.9821386,           0.
    135,   159.789993,   16.4732075,           0.
    136,   159.789993,   21.9642773,           0.
    137,   159.789993,   27.4553471,           0.
    138,   159.789993,   32.9464149,           0.
    139,   159.789993,   38.4374847,           0.
    140,   159.789993,   43.9285545,           0.
    141,   159.789993,   49.4196243,           0.
    142,   159.789993,   54.9106941,           0.
    143,   159.789993,   60.4017601,           0.
    144,   159.789993,   65.8928299,           0.
    145,   159.789993,   71.3839035,           0.
    146,   159.789993,   76.8749695,           0.
    147,   159.789993,   82.3660355,           0.
    148,   159.789993,   87.8571091,           0.
    149,   159.789993,    93.348175,           0.
    150,   159.789993,   98.8392487,           0.
    151,   159.789993,   104.330315,           0.
    152,   159.789993,   109.821388,           0.
    153,   105.300621,   109.869995,           0.
    154,    101.31646,   105.885834,           0.
    155,   90.4315338,   105.885834,           0.
    156,   86.4473801,   109.869995,           0.
    157,           0.,   109.821388,           0.
    158,           0.,   104.330315,           0.
    159,           0.,   98.8392487,           0.
    160,           0.,    93.348175,           0.
    161,           0.,   87.8571091,           0.
    162,           0.,   82.3660355,           0.
    163,           0.,   76.8749695,           0.
    164,           0.,   71.3839035,           0.
    165,           0.,   65.8928299,           0.
    166,           0.,   60.4017601,           0.
    167,           0.,   54.9106941,           0.
    168,           0.,   49.4196243,           0.
    169,           0.,   43.9285545,           0.
    170,           0.,   38.4374847,           0.
    171,           0.,   32.9464149,           0.
    172,           0.,   27.4553471,           0.
    173,           0.,   21.9642773,           0.
    174,           0.,   16.4732075,           0.
    175,           0.,   10.9821386,           0.
    176,           0.,   5.49106932,           0.
    177,   5.63964701,           0.,           0.
    178,    11.279294,           0.,           0.
    179,   16.9189415,           0.,           0.
    180,    22.558588,           0.,           0.
    181,   28.1982346,           0.,           0.
    182,    33.837883,           0.,           0.
    183,   39.4775276,           0.,           0.
    184,   45.1171761,           0.,           0.
    185,   50.7568245,           0.,           0.
    186,   56.3964691,           0.,           0.
    187,   62.0361176,           0.,           0.
    188,    67.675766,           0.,           0.
    189,   73.3154144,           0.,           0.
    190,   78.9550552,           0.,           0.
    191,   84.5947037,           0.,           0.
    192,   90.2343521,           0.,           0.
    193,   106.364792,   125.837296,           0.
    194,   109.542404,   120.361755,           0.
    195,    100.65461,   172.973679,           0.
    196,   100.634949,   167.446579,           0.
    197,   100.634132,   161.943283,           0.
    198,   100.635826,   156.443405,           0.
    199,   100.638802,   150.944672,           0.
    200,   100.643486,   145.445984,           0.
    201,   100.635826,    139.96312,           0.
    202,   100.710335,   134.491699,           0.
    203,   100.950272,   129.124893,           0.
    204,   152.542145,   120.224068,           0.
    205,   146.770996,   120.161949,           0.
    206,   141.273712,    119.98571,           0.
    207,   135.935318,   119.946548,           0.
    208,   130.626556,   119.944359,           0.
    209,   125.322495,   119.952881,           0.
    210,   120.009491,   119.971558,           0.
    211,   114.727142,   120.090858,           0.
    212,   154.953064,   178.505356,           0.
    213,   154.990891,    173.01236,           0.
    214,   155.029602,   167.486038,           0.
    215,   155.034744,   161.988342,           0.
    216,     155.0354,   156.495636,           0.
    217,   155.037262,   151.003815,           0.
    218,   155.041565,   145.512115,           0.
    219,   155.047531,   140.020828,           0.
    220,    154.99852,   134.478775,           0.
    221,   155.003403,   129.003876,           0.
    222,    103.11528,   187.235199,           0.
    223,   130.488907,   187.553116,           0.
    224,   135.818008,   187.551498,           0.
    225,   141.154007,   187.507599,           0.
    226,   146.676437,   187.329865,           0.
    227,   152.515518,   187.268036,           0.
    228,   133.285126,   124.594734,           0.
    229,   122.660034,   124.631668,           0.
    230,   144.019943,   124.776527,           0.
    231,   138.664627,   124.647003,           0.
    232,   127.980705,   124.615852,           0.
    233,    117.31855,   124.747383,           0.
    234,   125.162933,   187.550369,           0.
    235,   138.503418,    182.86026,           0.
    236,   108.930977,   187.283325,           0.
    237,    114.47612,   187.468399,           0.
    238,   119.841125,   187.528397,           0.
    239,   133.159775,   182.888611,           0.
    240,   143.926788,   182.692551,           0.
    241,     150.2883,   148.251862,           0.
    242,    150.14534,   137.138351,           0.
    243,   150.102524,   170.344421,           0.
    244,   150.282883,   159.241821,           0.
    245,   155.371185,   183.121124,           0.
    246,   150.250671,   142.723511,           0.
    247,   150.097748,   175.932541,           0.
    248,   150.254883,   164.756149,           0.
    249,   150.284424,   153.747375,           0.
    250,     150.1539,   131.548004,           0.
    251,   105.414009,   142.705185,           0.
    252,   105.387711,   164.694016,           0.
    253,   105.400398,   153.696686,           0.
    254,   100.641792,   178.439178,           0.
    255,   105.606575,   137.184769,           0.
    256,   105.527893,   170.288147,           0.
    257,   105.393929,    159.19545,           0.
    258,   105.407303,   148.200989,           0.
    259,   149.982727,    125.58461,           0.
    260,   149.942795,   181.889786,           0.
    261,   136.033295,   129.241608,           0.
    262,   141.391632,   129.247208,           0.
    263,   119.945114,   129.335175,           0.
    264,   125.324989,   129.307617,           0.
    265,   130.665466,   129.272491,           0.
    266,   146.000351,   178.417297,           0.
    267,    122.50441,   182.881897,           0.
    268,   117.126839,   182.812866,           0.
    269,   141.274597,   178.173553,           0.
    270,   135.885864,   178.150192,           0.
    271,   127.824341,   182.891846,           0.
    272,    112.05397,   124.965782,           0.
    273,   145.533066,   156.492416,           0.
    274,   145.533096,   161.995407,           0.
    275,   145.415604,   167.435852,           0.
    276,    145.53418,   150.982529,           0.
    277,   144.673157,   173.296417,           0.
    278,   144.726578,    134.04744,           0.
    279,   145.426987,    139.93045,           0.
    280,   145.509399,   145.422913,           0.
    281,   105.530388,   175.873123,           0.
    282,   110.155907,   156.451324,           0.
    283,   110.151955,    161.99057,           0.
    284,   110.260979,   167.488815,           0.
    285,   110.166611,   150.956085,           0.
    286,   110.337196,   139.977417,           0.
    287,   110.209824,   145.426071,           0.
    288,   105.775902,   131.681412,           0.
    289,   155.421661,   124.382133,           0.
    290,   111.701813,   182.639084,           0.
    291,   105.694572,   181.847839,           0.
    292,   114.387245,   178.176239,           0.
    293,   138.797699,   133.895294,           0.
    294,   133.380981,   134.047531,           0.
    295,   128.023819,   133.980774,           0.
    296,   122.627182,   134.047684,           0.
    297,   125.155998,   178.222168,           0.
    298,   119.786507,   178.231735,           0.
    299,   146.054947,   129.040756,           0.
    300,   130.506485,   178.170151,           0.
    301,   114.591148,   129.385635,           0.
    302,   111.001495,   173.368729,           0.
    303,   140.877914,   142.628448,           0.
    304,   141.199158,   137.945511,           0.
    305,   140.788467,   159.245728,           0.
    306,   114.915596,    153.70488,           0.
    307,   140.807602,   164.687408,           0.
    308,   114.928207,   148.124039,           0.
    309,   140.836304,   148.163605,           0.
    310,   140.799927,   153.718399,           0.
    311,   141.103729,   169.386703,           0.
    312,   114.895462,   159.302658,           0.
    313,    114.92421,   142.638138,           0.
    314,   114.844948,    164.82724,           0.
    315,   111.160721,   134.158493,           0.
    316,   100.239929,    183.07991,           0.
    317,   116.978569,   173.547729,           0.
    318,   136.224976,   139.345642,           0.
    319,   130.602325,   138.694946,           0.
    320,   128.006439,   173.665634,           0.
    321,   125.409454,    138.66008,           0.
    322,   122.566132,   173.479141,           0.
    323,   109.663101,   178.380997,           0.
    324,   133.307724,   173.540253,           0.
    325,   109.989304,   129.205719,           0.
    326,   117.130829,   133.999832,           0.
    327,    114.53894,   169.496582,           0.
    328,   119.528282,   145.173874,           0.
    329,   119.912216,   150.736664,           0.
    330,   119.963783,   156.521027,           0.
    331,   114.661949,   138.005951,           0.
    332,     135.6763,   162.027084,           0.
    333,   135.905533,   156.379425,           0.
    334,   135.802994,   168.241714,           0.
    335,   136.190964,   145.364563,           0.
    336,   136.031097,   150.895264,           0.
    337,   119.740364,   162.107727,           0.
    338,   119.677231,   139.323074,           0.
    339,   119.879456,   168.089706,           0.
    340,   132.330185,   142.961533,           0.
    341,   127.813072,    143.09465,           0.
    342,   126.018761,   169.012085,           0.
    343,     130.6689,   169.868713,           0.
    344,   138.674667,   173.464798,           0.
    345,   124.560478,   147.248917,           0.
    346,   125.954308,   153.506927,           0.
    347,   130.069611,   164.853409,           0.
    348,   130.189102,   158.819427,           0.
    349,   124.646751,   159.502609,           0.
    350,   130.669876,    148.09433,           0.
    351,   131.749985,   153.539078,           0.
    352,   124.626869,   164.235611,           0.
    353,   123.397705,   142.700119,           0.
    354,    127.38308,   161.852768,           0.
    355,   85.1508408,   125.271118,           0.
    356,   47.9371223,   187.306366,           0.
    357,   90.8132248,    184.67337,           0.
    358,   90.8646698,   178.687653,           0.
    359,   91.0406418,   172.986099,           0.
    360,   91.0841599,   167.449432,           0.
    361,   91.0951767,   161.943268,           0.
    362,    91.097229,   156.443069,           0.
    363,   42.4945412,   120.217903,           0.
    364,   36.6584587,   187.309219,           0.
    365,   42.2975388,   187.307571,           0.
    366,   31.1595821,    120.22271,           0.
    367,    36.827877,   120.217514,           0.
    368,   59.2169189,    187.31012,           0.
    369,   64.8565445,   187.313477,           0.
    370,   70.4962997,   187.317001,           0.
    371,   76.1805878,   187.253174,           0.
    372,   81.7950897,   187.238327,           0.
    373,     5.085814,   122.827927,           0.
    374,   5.02866411,   128.814774,           0.
    375,   4.83647013,   134.501465,           0.
    376,   4.78526163,   140.018234,           0.
    377,   4.77198553,   145.512802,           0.
    378,   4.76875305,   151.004471,           0.
    379,   4.76775265,   156.495422,           0.
    380,   4.76845264,   161.986099,           0.
    381,   4.77440357,   167.475891,           0.
    382,   4.82780075,   172.990097,           0.
    383,   5.00294447,   178.695572,           0.
    384,   5.05350018,   184.698807,           0.
    385,    19.764698,   120.399399,           0.
    386,   25.4669762,   120.311325,           0.
    387,   53.5773544,   187.307968,           0.
    388,   48.1605835,   120.217636,           0.
    389,    53.826828,   120.216187,           0.
    390,   91.0971527,   150.941895,           0.
    391,   59.4930038,   120.213692,           0.
    392,   91.1178665,   145.381882,           0.
    393,   65.1589432,   120.210808,           0.
    394,   70.8034515,   120.193443,           0.
    395,   76.4547882,    120.24498,           0.
    396,   81.9606094,    120.35508,           0.
    397,   9.55919361,    142.76944,           0.
    398,    9.5544672,   164.727737,           0.
    399,   9.77226639,   131.800903,           0.
    400,   9.54606438,   153.750397,           0.
    401,   9.72087574,   175.698502,           0.
    402,   9.59409618,   170.185577,           0.
    403,     9.553092,   148.260147,           0.
    404,   9.61002636,   137.307922,           0.
    405,   9.54891872,   159.239609,           0.
    406,   86.3032761,   164.692596,           0.
    407,   86.3111649,   153.690155,           0.
    408,   86.1062164,   175.839676,           0.
    409,   91.2333755,   139.869766,           0.
    410,   91.8461075,   135.055389,           0.
    411,   86.2404404,   170.278656,           0.
    412,   86.3075943,   159.192139,           0.
    413,   86.3894272,   148.137085,           0.
    414,   89.8004837,   129.992126,           0.
    415,   31.0123806,   187.297241,           0.
    416,   62.0397377,   182.441193,           0.
    417,   39.4769211,   182.432343,           0.
    418,   50.7583618,   182.428772,           0.
    419,   19.6461315,   187.118652,           0.
    420,   25.3353176,   187.189178,           0.
    421,   14.0317211,   187.141739,           0.
    422,    9.3064537,   187.632492,           0.
    423,   45.1169853,   182.428986,           0.
    424,   67.6795502,   182.450272,           0.
    425,   73.4291534,   182.281189,           0.
    426,   56.4002151,   182.434586,           0.
    427,   79.1670151,   182.233353,           0.
    428,   62.3282776,   125.106621,           0.
    429,   39.6602287,   125.118889,           0.
    430,   50.9949989,    125.11895,           0.
    431,   33.9883194,   125.123825,           0.
    432,   56.6624947,   125.112747,           0.
    433,     14.14188,   120.373535,           0.
    434,   22.5730801,   125.509865,           0.
    435,   28.3232384,   125.262024,           0.
    436,   45.3276711,   125.120201,           0.
    437,   67.9836273,   125.094887,           0.
    438,   73.6957169,   125.161232,           0.
    439,   10.6172457,   125.606361,           0.
    440,   10.5481014,   181.914917,           0.
    441,   85.2939301,   182.030212,           0.
    442,   86.3686447,   136.288727,           0.
    443,   14.2084455,   129.784546,           0.
    444,   14.1418791,    177.73085,           0.
    445,    14.338625,   156.495117,           0.
    446,   14.3436956,   151.007248,           0.
    447,   14.3788681,   140.058594,           0.
    448,   14.3581104,   145.522354,           0.
    449,   14.4549713,   134.561295,           0.
    450,   14.3437424,   161.980331,           0.
    451,   14.3629837,   167.422256,           0.
    452,   14.4087515,   172.924042,           0.
    453,   81.5126877,   156.438644,           0.
    454,   81.5163422,   161.948959,           0.
    455,   81.6062469,   150.869675,           0.
    456,    81.521225,   167.554153,           0.
    457,   81.5123444,   173.131561,           0.
    458,    86.548317,   142.561966,           0.
    459,   82.8859482,   130.441772,           0.
    460,   33.8354263,   182.411682,           0.
    461,   16.7034893,   182.037292,           0.
    462,   22.4712219,   182.043823,           0.
    463,   47.9391747,   177.551605,           0.
    464,    64.890358,   177.579529,           0.
    465,   59.2310028,   177.568161,           0.
    466,   70.5208282,   177.457535,           0.
    467,   76.5720367,   176.641495,           0.
    468,   42.2949867,   177.555679,           0.
    469,   53.5849152,   177.557877,           0.
    470,   28.2048054,   182.276947,           0.
    471,   16.8053246,   125.472519,           0.
    472,   79.4776764,   125.282288,           0.
    473,    42.491684,    130.01828,           0.
    474,   48.1625557,   130.018082,           0.
    475,   36.8185196,   130.014542,           0.
    476,   53.8331413,   130.011429,           0.
    477,   70.9124756,   130.119568,           0.
    478,   65.1774368,    130.01123,           0.
    479,   59.5033531,   130.003891,           0.
    480,   31.1694012,   130.114746,           0.
    481,   25.5389633,    130.29921,           0.
    482,    86.546257,   187.663345,           0.
    483,   79.8559265,    135.67717,           0.
    484,   19.4493999,   131.092697,           0.
    485,   19.3952541,   176.389114,           0.
    486,   19.1460991,   164.757278,           0.
    487,    19.146801,   159.242584,           0.
    488,   19.1446266,   148.294189,           0.
    489,   19.2574368,   137.184509,           0.
    490,    19.149519,   153.759048,           0.
    491,    19.081934,   170.309799,           0.
    492,     19.29846,   142.767807,           0.
    493,   76.7207489,    170.47377,           0.
    494,   76.6326141,   153.497726,           0.
    495,   76.5978775,   164.803375,           0.
    496,    76.670639,   159.160599,           0.
    497,   81.7845688,    145.20845,           0.
    498,   81.7303085,   177.975266,           0.
    499,   36.6959724,   177.531021,           0.
    500,   56.4159813,   172.692719,           0.
    501,   62.1086617,   172.727341,           0.
    502,   76.7907181,   130.345169,           0.
    503,   72.5773773,   173.013535,           0.
    504,   67.7260513,   172.756149,           0.
    505,   25.4778023,   177.056351,           0.
    506,   31.1228142,   177.232483,           0.
    507,   45.1162682,   172.678436,           0.
    508,   50.7675438,   172.680786,           0.
    509,   68.0428619,   135.050095,           0.
    510,    62.352169,   134.913513,           0.
    511,   39.6467705,   134.909027,           0.
    512,    45.325573,   134.912567,           0.
    513,   56.6783104,   134.901367,           0.
    514,   51.0033951,   134.907623,           0.
    515,   28.2963428,    134.93367,           0.
    516,   33.9544334,   134.902298,           0.
    517,   9.36855125,   119.886543,           0.
    518,   23.4605618,    134.67305,           0.
    519,   82.2842865,   140.216171,           0.
    520,   23.8892994,   162.121216,           0.
    521,   23.7248116,   167.744492,           0.
    522,   23.9533138,   156.529465,           0.
    523,   23.9670601,   151.039932,           0.
    524,    24.079443,   145.636978,           0.
    525,   71.1399231,   167.839371,           0.
    526,   24.8388214,   139.782715,           0.
    527,   71.7965622,   161.921661,           0.
    528,   71.7631683,    156.39238,           0.
    529,   76.7916031,   147.653152,           0.
    530,   39.5483742,   172.651947,           0.
    531,   59.4843254,   167.878494,           0.
    532,   73.8644562,   135.448868,           0.
    533,    28.350563,   171.454407,           0.
    534,   65.1200027,   168.068024,           0.
    535,   34.1403313,   172.401505,           0.
    536,   53.7410469,   167.799667,           0.
    537,   47.9933357,   167.794922,           0.
    538,   65.1412811,   139.897644,           0.
    539,   59.5180321,   139.800827,           0.
    540,   42.5115509,   139.764603,           0.
    541,   48.1727409,   139.793594,           0.
    542,   53.8506088,    139.79274,           0.
    543,   36.7927513,    139.78215,           0.
    544,   31.0299492,   139.668106,           0.
    545,   23.2060738,   172.590836,           0.
    546,   76.8572311,   141.320953,           0.
    547,   28.4855766,    165.15802,           0.
    548,   28.7730122,   159.405472,           0.
    549,   67.0395432,   159.361938,           0.
    550,   28.7816067,   153.756149,           0.
    551,   28.5204868,   143.661697,           0.
    552,   28.7970181,   148.337265,           0.
    553,   71.1223068,   150.234467,           0.
    554,   67.5804443,    164.08194,           0.
    555,   70.7391357,   140.243912,           0.
    556,   62.8845711,   163.092255,           0.
    557,   42.3886108,   167.764923,           0.
    558,    36.993103,   167.659302,           0.
    559,   57.0428276,    162.69194,           0.
    560,    62.233696,   144.848526,           0.
    561,   51.0358925,   162.972778,           0.
    562,   56.6370697,   144.765457,           0.
    563,   51.0024872,   144.697372,           0.
    564,   45.3695984,   144.583542,           0.
    565,   39.7963943,   144.504974,           0.
    566,   33.7567482,   145.082504,           0.
    567,   39.7490005,   163.019638,           0.
    568,   67.7985001,   145.021454,           0.
    569,   32.3785439,    167.83902,           0.
    570,   33.6013985,   150.993698,           0.
    571,   61.0617981,   156.398438,           0.
    572,   72.6617508,   144.894791,           0.
    573,   59.0904427,   149.886826,           0.
    574,    53.623024,   149.423965,           0.
    575,   33.6080589,   156.523102,           0.
    576,   42.5337105,   149.161209,           0.
    577,   67.1684799,   154.481033,           0.
    578,   33.9410934,   162.618881,           0.
    579,   45.2862282,    163.09787,           0.
    580,   54.0163612,   158.036926,           0.
    581,   48.0971375,    149.29953,           0.
    582,   37.7369385,   158.887955,           0.
    583,   64.7458725,   150.145126,           0.
    584,   48.1350365,   158.430511,           0.
    585,   55.7422905,   153.546997,           0.
    586,   50.7913399,   153.780029,           0.
    587,   42.5017014,   158.518661,           0.
    588,   45.1712914,   153.820618,           0.
    589,   38.9861526,   153.797379,           0.
    590,   37.7348824,   148.707947,           0.
    591,   109.638405,   110.213753,           0.
    592,   135.930695,   110.692841,           0.
    593,   125.322968,   110.684914,           0.
    594,   120.057243,   110.634727,           0.
    595,   114.829453,   110.484138,           0.
    596,   146.792206,   110.506447,           0.
    597,   130.626694,   110.689102,           0.
    598,   130.497818,   4.62842894,           0.
    599,   125.169968,   4.63007259,           0.
    600,   119.846298,   4.63397264,           0.
    601,   114.508911,   4.66834402,           0.
    602,   108.979225,   4.83745527,           0.
    603,    103.14167,   4.90508795,           0.
    604,   152.608231,   5.03049564,           0.
    605,    146.78511,   4.98682022,           0.
    606,   135.840378,   4.65521193,           0.
    607,   155.401489,   106.318588,           0.
    608,   155.045609,   96.1412582,           0.
    609,   155.041489,   90.6102905,           0.
    610,   155.038223,   85.1131592,           0.
    611,   155.035934,   79.6209259,           0.
    612,   155.034958,   74.1295776,           0.
    613,   155.034576,   68.6384125,           0.
    614,   155.034439,   63.1473122,           0.
    615,   155.034393,   57.6562309,           0.
    616,   155.034424,   52.1651382,           0.
    617,   155.034836,   46.6739616,           0.
    618,   155.036362,   41.1825867,           0.
    619,   155.039093,   35.6912308,           0.
    620,   155.042847,   30.2000027,           0.
    621,   155.046982,    24.708828,           0.
    622,   155.066315,   19.2640648,           0.
    623,   155.074554,   13.8338156,           0.
    624,   100.998222,   101.454041,           0.
    625,   100.632393,     46.71735,           0.
    626,   100.633591,   63.2061386,           0.
    627,   100.633606,   68.7023315,           0.
    628,   100.635681,   79.6939468,           0.
    629,   100.639145,    85.189537,           0.
    630,   100.642258,   90.6668701,           0.
    631,   100.633156,   52.2136765,           0.
    632,   100.627213,   30.2298164,           0.
    633,   100.629189,   35.7253838,           0.
    634,   100.630783,   41.2210083,           0.
    635,   100.633469,    57.709938,           0.
    636,   100.634193,   74.1982346,           0.
    637,    100.73822,   96.0801315,           0.
    638,   106.550125,   104.556297,           0.
    639,   112.399193,    105.40667,           0.
    640,   152.611206,   110.396347,           0.
    641,   141.288864,    110.65271,           0.
    642,    133.29657,   106.049881,           0.
    643,   122.738449,   105.981575,           0.
    644,   117.594582,   105.793411,           0.
    645,    128.00029,   106.030029,           0.
    646,   141.232666,   4.77989101,           0.
    647,   122.513466,   9.27750969,           0.
    648,   133.144135,   9.31486607,           0.
    649,    111.74308,   9.47682762,           0.
    650,   117.140633,   9.33886528,           0.
    651,   127.835381,   9.28146744,           0.
    652,   155.075317,   101.616791,           0.
    653,   150.285538,   82.3682785,           0.
    654,   150.195633,   93.4518051,           0.
    655,   150.279312,   71.3841782,           0.
    656,   150.278671,    60.401783,           0.
    657,   150.278839,   65.8929596,           0.
    658,   150.282013,   43.9268837,           0.
    659,   150.279617,   49.4189606,           0.
    660,   150.334671,   21.9334068,           0.
    661,   150.275894,   87.8780823,           0.
    662,   150.278824,   54.9105263,           0.
    663,    150.28775,   38.4341927,           0.
    664,   150.296097,   32.9421158,           0.
    665,   150.309906,   27.4457645,           0.
    666,   150.392303,   16.4334831,           0.
    667,   150.281403,   76.8760605,           0.
    668,   100.628601,   24.7262573,           0.
    669,    105.51078,   88.0048904,           0.
    670,   105.392326,   54.9615631,           0.
    671,   105.384789,   38.4722672,           0.
    672,   105.393486,    71.449913,           0.
    673,   105.395409,   76.9443359,           0.
    674,   105.392998,    65.954155,           0.
    675,   100.673271,   19.1695347,           0.
    676,   100.706291,   13.6638823,           0.
    677,     105.3908,   49.4647446,           0.
    678,    105.38797,   43.9678841,           0.
    679,   105.392715,   60.4579239,           0.
    680,   105.379044,   32.9763832,           0.
    681,   105.433174,   82.4626541,           0.
    682,   105.414375,   93.4028854,           0.
    683,   115.357704,   100.868187,           0.
    684,   138.671112,   106.018013,           0.
    685,   130.679123,   101.387848,           0.
    686,   125.433479,    101.32515,           0.
    687,   120.339668,   101.163635,           0.
    688,   143.982925,   9.82760239,           0.
    689,   130.450516,    14.011096,           0.
    690,    125.17347,   13.9498215,           0.
    691,   119.765404,   13.9775162,           0.
    692,   114.328453,   14.0233889,           0.
    693,   144.076981,    105.86039,           0.
    694,     150.0746,   105.035423,           0.
    695,   138.499512,   9.63688469,           0.
    696,   150.074234,   10.4950552,           0.
    697,   150.229065,   99.0600357,           0.
    698,    105.38903,   27.4830532,           0.
    699,   145.526794,   46.6705933,           0.
    700,   145.523834,   52.1639252,           0.
    701,   145.522903,   57.6559525,           0.
    702,   145.522827,    63.147419,           0.
    703,   145.523285,   68.6388855,           0.
    704,   145.525543,   74.1313324,           0.
    705,   145.532166,   79.6259689,           0.
    706,   145.534256,   85.1666336,           0.
    707,   145.534531,   41.1754379,           0.
    708,   145.563721,   30.1869297,           0.
    709,   145.639832,   24.5648384,           0.
    710,   145.547318,   35.6803703,           0.
    711,   145.459442,   90.6757736,           0.
    712,   145.808701,   18.9622154,           0.
    713,    100.28598,   9.05553532,           0.
    714,   105.511566,   16.2820702,           0.
    715,   110.149521,   52.2119637,           0.
    716,   110.151077,   57.7091904,           0.
    717,   110.151703,   63.2058411,           0.
    718,   110.152229,   68.7014618,           0.
    719,   110.153564,   74.1952896,           0.
    720,   110.145821,   46.7140808,           0.
    721,   110.140709,   41.2175369,           0.
    722,   110.114708,   35.7515259,           0.
    723,   110.181175,   79.7061462,           0.
    724,   110.656845,   91.3154449,           0.
    725,   110.341743,   85.3082504,           0.
    726,   105.547005,   21.8908443,           0.
    727,   105.567032,   98.6126022,           0.
    728,   110.397911,   100.231483,           0.
    729,   105.704071,   10.2902117,           0.
    730,   113.188515,    96.233963,           0.
    731,   117.909096,    96.456398,           0.
    732,   128.147934,   96.5678177,           0.
    733,   122.949081,   96.3885193,           0.
    734,   141.411606,   101.385155,           0.
    735,   136.025055,    101.42585,           0.
    736,   127.700951,   18.7162342,           0.
    737,   141.249405,   15.2817945,           0.
    738,   122.319046,   18.6392155,           0.
    739,   116.853737,   18.5442619,           0.
    740,   109.637215,   13.7916784,           0.
    741,   135.637741,   14.3205051,           0.
    742,   146.301514,   14.2000303,           0.
    743,   144.762436,   96.5675659,           0.
    744,   110.267883,   30.2942352,           0.
    745,   140.815948,   32.9198074,           0.
    746,   114.919312,   76.9444885,           0.
    747,   115.027481,   82.4630051,           0.
    748,   140.770584,   49.4145012,           0.
    749,   140.767593,   54.9090538,           0.
    750,   140.766769,   60.4015694,           0.
    751,   140.766998,   65.8935013,           0.
    752,   140.769333,   71.3869171,           0.
    753,   140.776993,   76.8842697,           0.
    754,    140.80481,   82.4880905,           0.
    755,    140.83757,   27.2068539,           0.
    756,   141.128952,   21.4541092,           0.
    757,   140.794617,   38.4170303,           0.
    758,   140.779938,   43.9158401,           0.
    759,   140.887894,   88.0253754,           0.
    760,   114.908165,   54.9591103,           0.
    761,   114.837479,   38.5363579,           0.
    762,   114.909767,   60.4568977,           0.
    763,   115.234787,    88.029541,           0.
    764,   114.912292,   71.4482498,           0.
    765,   114.910645,   65.9531555,           0.
    766,   114.903992,   49.4600716,           0.
    767,   114.888695,    43.973587,           0.
    768,    110.92749,   18.8457432,           0.
    769,   110.389793,   24.7846718,           0.
    770,   109.044937,   95.9592743,           0.
    771,   115.419159,   92.6462021,           0.
    772,   120.107437,    91.080101,           0.
    773,    125.67347,    91.697525,           0.
    774,   138.816345,   96.7531204,           0.
    775,   137.366394,   18.7702904,           0.
    776,    124.69043,   23.3168774,           0.
    777,   119.290733,   23.0891075,           0.
    778,   133.437439,   96.5480042,           0.
    779,   146.110931,   101.581718,           0.
    780,   132.821838,   18.8647404,           0.
    781,   141.224136,    92.697525,           0.
    782,   120.034622,   79.4558716,           0.
    783,   119.956421,   85.0362473,           0.
    784,   114.931282,   33.2691612,           0.
    785,   119.995102,    73.835289,           0.
    786,   135.876099,   30.1026134,           0.
    787,   135.619766,   52.3403282,           0.
    788,   135.696182,   58.0219307,           0.
    789,     135.6866,   63.5767517,           0.
    790,   135.727005,   69.0328369,           0.
    791,   135.802673,   74.4760056,           0.
    792,   135.683853,   35.8400688,           0.
    793,   114.647064,   22.5736465,           0.
    794,   119.845825,   62.9650879,           0.
    795,   119.958672,    68.327446,           0.
    796,   119.848991,   57.4020538,           0.
    797,   135.680695,   23.9567375,           0.
    798,   135.727036,   46.7534409,           0.
    799,   136.003342,   80.0158386,           0.
    800,   119.625511,   51.9854927,           0.
    801,   119.894562,   41.1369629,           0.
    802,   119.762772,   46.6311455,           0.
    803,   135.853745,   41.4036522,           0.
    804,    136.35672,   85.4739761,           0.
    805,     115.7631,   27.6216011,           0.
    806,   136.300064,   91.2819672,           0.
    807,   123.922592,     87.41185,           0.
    808,   121.612831,   27.6654072,           0.
    809,   130.747208,    91.857048,           0.
    810,   129.953369,   23.4656563,           0.
    811,   125.711777,   82.2676468,           0.
    812,   125.396576,   75.9996109,           0.
    813,   119.567749,   35.7594757,           0.
    814,   130.186386,   55.8729973,           0.
    815,   130.319458,   61.5759048,           0.
    816,   130.419052,   67.0232239,           0.
    817,   125.237358,   70.4348907,           0.
    818,   130.566833,   72.4474106,           0.
    819,   129.936554,   33.0511284,           0.
    820,   125.122734,   65.0109634,           0.
    821,   125.022194,   59.4852676,           0.
    822,   129.596603,   49.4879913,           0.
    823,   131.705765,   27.7348881,           0.
    824,    124.65081,   53.9224701,           0.
    825,   123.854881,   49.1913681,           0.
    826,   125.734062,   43.9558334,           0.
    827,   130.852432,   78.0445099,           0.
    828,    130.61171,   39.3553848,           0.
    829,   131.504639,   44.1912613,           0.
    830,   131.641434,    83.474823,           0.
    831,   128.385468,   87.4161835,           0.
    832,   126.934738,   27.9333782,           0.
    833,   124.909019,   37.6041832,           0.
    834,   119.116882,   31.3363914,           0.
    835,   155.467407,    9.1665144,           0.
    836,   123.679634,   32.2249947,           0.
    837,   132.686172,   87.9008026,           0.
    838,   90.7874527,   7.39523649,           0.
    839,   91.1115341,   35.7255135,           0.
    840,   81.9379044,   110.113182,           0.
    841,   91.1135788,   24.7376671,           0.
    842,     91.10923,   30.2297268,           0.
    843,   91.1133957,   41.2215729,           0.
    844,   91.1140823,   46.7176285,           0.
    845,   91.1142654,   52.2137756,           0.
    846,   91.1139603,   57.7098694,           0.
    847,   91.1125717,   63.2057648,           0.
    848,   91.1103134,   68.7017365,           0.
    849,   91.1073914,   74.1978607,           0.
    850,   91.1034622,   79.6937943,           0.
    851,   91.0994034,   85.1898575,           0.
    852,   85.2087173,   104.625305,           0.
    853,   91.1085281,   90.6708908,           0.
    854,   91.0060043,     96.10672,           0.
    855,    90.737709,    101.44471,           0.
    856,   42.4976654,   110.416977,           0.
    857,   48.1622772,   110.417374,           0.
    858,   53.8268318,    110.41806,           0.
    859,   59.4925194,   110.418495,           0.
    860,   65.1584244,   110.418785,           0.
    861,   70.8135681,   110.410484,           0.
    862,   76.4175949,   110.322487,           0.
    863,    5.1668539,   7.39843702,           0.
    864,   4.89012957,   19.1365528,           0.
    865,   4.77912235,   24.6958561,           0.
    866,   4.75969744,   30.1985512,           0.
    867,   4.75628471,   35.6915588,           0.
    868,   4.75568533,   41.1829529,           0.
    869,   4.75558043,   46.6740761,           0.
    870,   4.75560188,   52.1651421,           0.
    871,    4.7559166,   57.6561317,           0.
    872,   4.75706387,   63.1469536,           0.
    873,   4.75893641,   68.6378632,           0.
    874,   4.76149511,   74.1288757,           0.
    875,   4.76448679,   79.6198273,           0.
    876,   4.76837063,   85.1105652,           0.
    877,   4.77306175,   90.6013641,           0.
    878,   4.82755423,   96.1146469,           0.
    879,   5.01164579,    101.81646,           0.
    880,   5.06930208,   107.819778,           0.
    881,   81.7787323,    4.8423543,           0.
    882,   47.9332771,   4.87204456,           0.
    883,   42.2949333,    4.8700037,           0.
    884,   36.6567726,   4.86838913,           0.
    885,   31.0175304,   4.86664772,           0.
    886,   25.3778782,   4.86464691,           0.
    887,   19.7859325,   4.84774876,           0.
    888,   14.2083588,   4.84608603,           0.
    889,   5.13133955,   13.3995152,           0.
    890,   9.58797455,   93.3061905,           0.
    891,   9.53996944,   82.3617554,           0.
    892,   9.52373886,   71.3810654,           0.
    893,   9.50988865,   27.4821854,           0.
    894,   9.51326942,   32.9506149,           0.
    895,    9.5122757,   38.4381332,           0.
    896,    9.5115366,   43.9286499,           0.
    897,   9.51397419,   60.4005013,           0.
    898,   9.51137257,   49.4196205,           0.
    899,   9.51210785,   54.9102249,           0.
    900,    9.8153677,   21.9587021,           0.
    901,   9.51854229,   65.8902512,           0.
    902,    9.5567112,   87.8450012,           0.
    903,   9.53195953,   76.8711395,           0.
    904,   9.73553944,    98.810997,           0.
    905,   86.3162918,   87.9350357,           0.
    906,   86.3394547,   71.4470444,           0.
    907,   86.3301773,   76.9423676,           0.
    908,   86.3489761,   38.4752884,           0.
    909,   86.3540802,   54.9615059,           0.
    910,   86.3580322,   27.4946995,           0.
    911,   91.0715637,   19.1905251,           0.
    912,   86.3527679,    43.970253,           0.
    913,   86.3541946,   49.4657555,           0.
    914,   86.3514404,   60.4565697,           0.
    915,   86.3457642,   65.9511871,           0.
    916,   86.3453445,   32.9818039,           0.
    917,   86.2217941,   93.3859406,           0.
    918,   86.3199997,   82.4379654,           0.
    919,   53.5734024,   4.87102699,           0.
    920,    86.552475,   4.47133923,           0.
    921,   45.1084061,   9.73111725,           0.
    922,   33.8352089,   9.72289467,           0.
    923,   76.1723022,   4.86781549,           0.
    924,    64.855484,   4.87157917,           0.
    925,   59.2146568,   4.87053061,           0.
    926,   22.5282364,   9.69921875,           0.
    927,   70.5070267,   4.86919832,           0.
    928,   39.4713516,   9.72530746,           0.
    929,   28.1908264,   9.71353531,           0.
    930,    16.876936,   9.65690136,           0.
    931,   36.8310852,   110.419441,           0.
    932,   62.3259163,    105.53463,           0.
    933,   50.9976921,   105.532562,           0.
    934,   25.4583511,   110.331673,           0.
    935,   31.1572475,   110.406715,           0.
    936,   45.3346596,    105.53302,           0.
    937,   56.6609383,   105.535828,           0.
    938,   19.7251644,   110.218002,           0.
    939,   14.0857277,   110.255707,           0.
    940,   9.34171009,   110.751778,           0.
    941,   67.9620056,   105.545235,           0.
    942,   73.5963593,   105.343102,           0.
    943,   10.5777578,   105.029282,           0.
    944,   85.3332214,   10.0959082,           0.
    945,   14.1734285,   100.852539,           0.
    946,   14.2966585,   30.2572193,           0.
    947,   14.2689152,   41.1834564,           0.
    948,   14.2758484,   35.7031021,           0.
    949,   14.2681952,   52.1643677,           0.
    950,   14.2682152,   46.6740837,           0.
    951,   14.2707624,   57.6534996,           0.
    952,    14.617116,   24.9178181,           0.
    953,   14.2977667,   74.1197281,           0.
    954,   14.2765608,   63.1418571,           0.
    955,   14.3131542,    79.608551,           0.
    956,   14.2864056,   68.6300125,           0.
    957,   14.3324423,   85.0957489,           0.
    958,   14.3638754,    90.550148,           0.
    959,   14.4270124,   96.0615692,           0.
    960,   10.1224356,   16.2933941,           0.
    961,   81.5924454,    46.719223,           0.
    962,   90.8733444,   13.4385233,           0.
    963,   81.5863037,   41.2265968,           0.
    964,   81.5932922,   52.2134857,           0.
    965,   81.5907059,   57.7068939,           0.
    966,    81.583313,   63.1994972,           0.
    967,   81.5569916,   74.1869812,           0.
    968,   81.5762177,    35.732708,           0.
    969,   81.5709381,   68.6920471,           0.
    970,   81.5392151,   79.6816406,           0.
    971,   81.4916458,   90.7076263,           0.
    972,   81.5203781,   85.1854935,           0.
    973,   81.5465164,   30.2262287,           0.
    974,   86.3534698,   21.9712791,           0.
    975,   86.0291977,   98.8088913,           0.
    976,   10.7835283,   10.0024252,           0.
    977,    50.748661,   9.73102188,           0.
    978,   79.2111359,    9.9106636,           0.
    979,   62.0345154,   9.73357868,           0.
    980,    67.700882,   9.76022053,           0.
    981,   42.2812691,   14.5744705,           0.
    982,    36.646534,    14.566431,           0.
    983,   31.0099792,   14.5577364,           0.
    984,   25.2347088,     14.50177,           0.
    985,   19.4727097,   14.3657827,           0.
    986,   56.3916168,   9.73030949,           0.
    987,   73.4917297,   9.96526051,           0.
    988,   79.2301865,   105.210556,           0.
    989,   39.6677856,   105.534996,           0.
    990,   28.3261299,    105.39418,           0.
    991,    16.759325,   105.155319,           0.
    992,   22.5655823,   105.164856,           0.
    993,   59.4943466,    100.66407,           0.
    994,   48.1715279,    100.66098,           0.
    995,   53.8330994,   100.664352,           0.
    996,   65.1333542,    100.68631,           0.
    997,   70.6599121,   100.563911,           0.
    998,   34.0010529,   105.504959,           0.
    999,   19.4775372,   99.5670319,           0.
   1000,   19.0335445,   60.3930893,           0.
   1001,   19.1413841,   82.3497925,           0.
   1002,   19.3453999,   87.9024811,           0.
   1003,    19.045826,   65.8782806,           0.
   1004,   19.0953484,   76.8543549,           0.
   1005,   19.3503418,   93.5015411,           0.
   1006,   19.0408573,   38.4461632,           0.
   1007,   19.1350555,   33.0098724,           0.
   1008,   19.0279102,   54.9065247,           0.
   1009,   19.0290413,   43.9307022,           0.
   1010,   19.0266399,   49.4187546,           0.
   1011,   19.3543949,    27.692915,           0.
   1012,   76.8123093,   38.4866219,           0.
   1013,   76.7085495,   32.9912796,           0.
   1014,   19.0663929,   71.3643265,           0.
   1015,   76.8225098,   60.4472275,           0.
   1016,   76.8071289,   65.9358521,           0.
   1017,   76.7572403,   82.3916168,           0.
   1018,   76.7683868,   76.9104691,           0.
   1019,   76.8239822,   43.9775238,           0.
   1020,   76.8296204,   49.4676208,           0.
   1021,   76.8286667,   54.9574966,           0.
   1022,   15.7083273,   19.0939426,           0.
   1023,   76.7871399,   71.4235382,           0.
   1024,   76.6602097,   87.9706802,           0.
   1025,   86.1928177,   16.3608932,           0.
   1026,   81.5112686,   24.6643543,           0.
   1027,   81.4632568,   96.2256241,           0.
   1028,   14.5927877,   13.8824892,           0.
   1029,    47.921608,   14.5765629,           0.
   1030,   81.7004471,   100.931274,           0.
   1031,   76.5930557,   99.7208023,           0.
   1032,   76.5602646,   15.5743179,           0.
   1033,   42.5055199,   100.663208,           0.
   1034,   64.8574371,   14.6135187,           0.
   1035,   33.8320541,   19.3823891,           0.
   1036,   39.4526672,   19.3993511,           0.
   1037,    27.987215,   19.3935776,           0.
   1038,   22.0609131,   19.1632004,           0.
   1039,   59.2117653,    14.585475,           0.
   1040,   70.4428635,   14.7515745,           0.
   1041,   53.5664253,    14.577466,           0.
   1042,   56.6700478,   95.8054047,           0.
   1043,   25.6005096,   100.414383,           0.
   1044,   51.0103073,   95.8045959,           0.
   1045,   62.3517342,    95.836647,           0.
   1046,   67.9128876,   95.8789215,           0.
   1047,   31.2139606,   100.585381,           0.
   1048,   36.8482018,   100.646744,           0.
   1049,   81.7879791,   14.2226324,           0.
   1050,   9.41553688,   4.44938946,           0.
   1051,   81.5007706,   19.0875072,           0.
   1052,   72.0287704,    35.765213,           0.
   1053,   24.9064674,   90.8588333,           0.
   1054,   23.8033028,   63.1259689,           0.
   1055,   24.0450821,   30.3821297,           0.
   1056,   23.7913284,   57.6442299,           0.
   1057,   24.0768147,    84.950943,           0.
   1058,   72.0938644,   41.2400932,           0.
   1059,   23.9175606,   79.5338974,           0.
   1060,   72.0465622,   63.1791573,           0.
   1061,   23.8265762,   68.6067657,           0.
   1062,   23.8622665,     74.08255,           0.
   1063,   72.0607452,    57.695507,           0.
   1064,   23.7864609,    52.160614,           0.
   1065,   23.7872963,   46.6752052,           0.
   1066,   23.8207989,   41.1807098,           0.
   1067,    23.916647,   35.7182007,           0.
   1068,   71.9473953,   85.0471115,           0.
   1069,   71.9901733,   79.6200256,           0.
   1070,   72.0219803,   68.6614075,           0.
   1071,   72.0009613,    74.142868,           0.
   1072,   72.0660248,   52.2112045,           0.
   1073,   72.0753479,   46.7262993,           0.
   1074,   19.2822685,   23.0970249,           0.
   1075,   76.5115738,   27.4019184,           0.
   1076,    76.706749,   93.6247864,           0.
   1077,   45.0918465,   19.4063416,           0.
   1078,   45.3404999,   95.8007889,           0.
   1079,   72.4298401,   19.1817474,           0.
   1080,   36.6463203,   24.2972965,           0.
   1081,    30.882843,   24.2733135,           0.
   1082,   24.5832119,   24.6190052,           0.
   1083,   62.0082855,   19.4169216,           0.
   1084,   67.5924835,   19.4374199,           0.
   1085,   56.3819962,   19.4143887,           0.
   1086,   50.7377434,   19.4087181,           0.
   1087,   53.8151779,   90.9853821,           0.
   1088,   59.5193939,   90.9239044,           0.
   1089,   65.2111282,    91.030304,           0.
   1090,   28.3911858,   95.7531204,           0.
   1091,   33.9854126,   95.7369614,           0.
   1092,   39.6518135,   95.7545319,           0.
   1093,    23.545208,   96.0189819,           0.
   1094,   76.5838776,   21.7248592,           0.
   1095,   67.3914642,   38.4974403,           0.
   1096,    28.560585,   60.3743095,           0.
   1097,   67.2863846,   60.4244194,           0.
   1098,   28.4839458,   86.8471527,           0.
   1099,   28.6957741,   33.0060425,           0.
   1100,   28.6523647,   76.7580032,           0.
   1101,   28.7108116,   82.1545258,           0.
   1102,   67.3738632,   43.9858093,           0.
   1103,   28.5841694,   65.8483887,           0.
   1104,   28.5504551,   54.8976097,           0.
   1105,   67.2608948,   65.8987274,           0.
   1106,   28.6173229,   71.3128967,           0.
   1107,   67.3095169,   82.2922974,           0.
   1108,   67.2997665,   54.9486732,           0.
   1109,   28.5863457,   43.9185486,           0.
   1110,   28.6300735,   38.4370003,           0.
   1111,   28.5563316,   49.4148407,           0.
   1112,    67.260994,    76.858757,           0.
   1113,   67.2451859,   71.3768158,           0.
   1114,   67.3240814,   49.4699554,           0.
   1115,   71.8346634,   30.3059502,           0.
   1116,   71.2575378,   90.9607315,           0.
   1117,   42.2933693,   24.2285175,           0.
   1118,   48.1689262,   90.9605331,           0.
   1119,   33.5822296,   29.6920986,           0.
   1120,   28.3578281,   28.3945179,           0.
   1121,   71.0239944,   24.3562126,           0.
   1122,   59.2941017,   24.3508854,           0.
   1123,   64.9858398,   24.2567101,           0.
   1124,   53.5712738,   24.2515202,           0.
   1125,   56.5921555,   86.1016617,           0.
   1126,   31.0353909,   90.8916931,           0.
   1127,   62.5059471,   85.5481949,           0.
   1128,   47.9194679,   24.2292786,           0.
   1129,   36.7748642,   90.7848206,           0.
   1130,   42.5118141,   90.9012146,           0.
   1131,   62.5173531,    41.270504,           0.
   1132,   62.5026169,   63.1397209,           0.
   1133,   62.5262756,   57.6757011,           0.
   1134,   33.3400917,   63.0921516,           0.
   1135,   33.3202057,   57.6255913,           0.
   1136,   33.6765671,   85.4133987,           0.
   1137,   33.2700729,   35.6449127,           0.
   1138,   33.3355675,   79.4876099,           0.
   1139,   33.3741951,   68.5542374,           0.
   1140,    33.364624,   74.0286255,           0.
   1141,   62.5563965,   46.7697945,           0.
   1142,   33.2984924,   41.1406708,           0.
   1143,   33.3158836,   52.1548729,           0.
   1144,   62.4742889,   68.6078033,           0.
   1145,   62.7061958,   79.6085968,           0.
   1146,   62.5423393,   52.2146072,           0.
   1147,   33.3181038,   46.6654396,           0.
   1148,   62.5671349,   74.1241531,           0.
   1149,   67.3291855,   33.0458946,           0.
   1150,     72.62603,    96.149826,           0.
   1151,   39.5801544,   29.2095585,           0.
   1152,   51.1249619,   86.0352325,           0.
   1153,   56.4583397,   29.0881996,           0.
   1154,   67.5562439,   28.3446884,           0.
   1155,   62.4542084,   29.7414036,           0.
   1156,   50.8187065,   29.0317039,           0.
   1157,   45.1992226,   29.2034779,           0.
   1158,   39.7600975,   85.8953094,           0.
   1159,   45.4973831,   85.8597946,           0.
   1160,   54.2241096,   81.2153625,           0.
   1161,   37.5049744,   81.5985641,           0.
   1162,   37.3546677,   33.4903412,           0.
   1163,   57.7447205,   60.3879662,           0.
   1164,   38.1365204,   49.4192009,           0.
   1165,    37.825882,   38.3051376,           0.
   1166,   58.5173035,   33.3560333,           0.
   1167,   57.6996574,   65.8392334,           0.
   1168,   67.6463013,   86.9757309,           0.
   1169,   42.4377289,    34.745121,           0.
   1170,   38.1730919,   54.8902702,           0.
   1171,   58.8158455,   81.8931351,           0.
   1172,   57.6432571,   71.5667877,           0.
   1173,   48.7585831,   80.8872833,           0.
   1174,   38.1046944,   71.3157501,           0.
   1175,   57.7581024,   49.5624313,           0.
   1176,   38.1838531,    60.346508,           0.
   1177,   38.1838264,   65.8089294,           0.
   1178,   57.7264938,   44.2257423,           0.
   1179,   58.0293961,   77.2881699,           0.
   1180,   57.7579765,   54.9573288,           0.
   1181,   38.0070343,   43.8590431,           0.
   1182,   53.6918411,   33.7037621,           0.
   1183,   48.2597466,   33.8906708,           0.
   1184,   42.7167358,   80.2520981,           0.
   1185,   37.9522438,    76.817131,           0.
   1186,    42.623909,    40.850235,           0.
   1187,     52.88731,   63.0863495,           0.
   1188,   52.9230003,     57.65942,           0.
   1189,   43.0888329,    63.065052,           0.
   1190,   43.1166954,   57.6254501,           0.
   1191,   52.9963455,   46.8287354,           0.
   1192,   42.9247055,   68.6292343,           0.
   1193,   52.6556778,   68.8631516,           0.
   1194,   52.9214363,    52.219799,           0.
   1195,   42.6664314,   74.1841583,           0.
   1196,   43.0771027,   52.1558304,           0.
   1197,   42.9923325,   46.4902992,           0.
   1198,    52.230175,   75.4159317,           0.
   1199,   57.0789604,   38.4268112,           0.
   1200,   51.1599731,   38.2998734,           0.
   1201,   48.2316704,   43.1944847,           0.
   1202,   48.0081825,   60.3559647,           0.
   1203,   47.8490028,   65.9318008,           0.
   1204,   48.0101738,   54.9003906,           0.
   1205,   48.0381775,   49.2982559,           0.
   1206,   47.5161476,   71.5873337,           0.
   1207,   62.5480804,   35.7230148,           0.
   1208,   46.7776146,   76.4653625,           0.
   1209,   53.4386864,   42.1951294,           0.
   1210,   46.5426064,   38.1960793,           0.
*Element, type=S3
  1, 254,  15, 195
  2, 316,  13,  14
  3, 255, 201, 202
  4, 194,   3,  26
  5, 293, 262, 278
  6, 195,  15,  16
  7, 234, 223,  53
  8, 196, 195,  16
  9, 197, 196,  17
 10, 198, 197,  18
 11, 199, 198,  19
 12, 200, 199,  20
 13, 201, 200,  21
 14, 202, 201,  22
 15, 288, 203, 193
 16, 203,   2,  24
 17,  34,   4,  35
 18, 204,  34,  35
 19, 221,  37, 220
 20, 205,  32,  33
 21, 206,  31,  32
 22, 207,  30,  31
 23, 208,  29,  30
 24, 210,  28, 209
 25, 194, 193,  25
 26,  48,  47,   5
 27, 227,  47,  48
 28, 245,  47, 227
 29, 213,  45, 212
 30, 214,  44, 213
 31, 215,  43, 214
 32, 216,  42, 215
 33, 217,  41, 216
 34, 241, 218, 217
 35, 315, 255, 288
 36, 262, 261, 231
 37, 246, 218, 241
 38, 289,  35,  36
 39,  58,   1,  13
 40, 222,  58,  13
 41, 291, 254, 281
 42, 236,  57, 222
 43, 237,  56, 236
 44, 302, 256, 284
 45, 234,  53,  54
 46, 224,  52, 223
 47, 225,  51, 224
 48, 226,  50, 225
 49, 260, 245, 227
 50, 193,  24,  25
 51, 194,  25,   3
 52, 211,  26,  27
 53, 210,  27,  28
 54, 196,  16,  17
 55, 266, 247, 260
 56, 197,  17,  18
 57, 247, 243, 213
 58, 198,  18,  19
 59, 248, 214, 243
 60, 199,  19,  20
 61, 244, 216, 215
 62, 200,  20,  21
 63, 249, 216, 244
 64, 201,  21,  22
 65, 232, 229, 209
 66, 202,  22,  23
 67, 263, 233, 229
 68, 203, 202,  23
 69, 255, 251, 201
 70, 203,  23,   2
 71, 203,  24, 193
 72, 205,  33, 204
 73, 204,  33,  34
 74, 220,  38, 219
 75, 206,  32, 205
 76, 219,  39, 218
 77, 207,  31, 206
 78, 218,  40, 217
 79, 208,  30, 207
 80, 231, 207, 206
 81, 209,  29, 208
 82, 232, 209, 208
 83, 209,  28,  29
 84, 233, 210, 229
 85, 211,  27, 210
 86, 272, 194, 211
 87, 211, 194,  26
 88, 212,  45,  46
 89, 239, 224, 223
 90, 269, 266, 240
 91, 213,  44,  45
 92, 248, 244, 215
 93, 214,  43,  44
 94, 257, 198, 253
 95, 215,  42,  43
 96, 276, 249, 273
 97, 216,  41,  42
 98, 258, 200, 251
 99, 217,  40,  41
100, 259, 230, 205
101, 218,  39,  40
102, 289, 259, 204
103, 219,  38,  39
104, 250, 221, 220
105, 220,  37,  38
106, 289, 221, 259
107, 221,  36,  37
108, 222,  57,  58
109, 316, 254, 291
110, 223,  52,  53
111, 284, 252, 283
112, 235, 225, 224
113, 224,  51,  52
114, 240, 225, 235
115, 225,  50,  51
116, 260, 227, 226
117, 226,  49,  50
118, 227,  48,  49
119, 227,  49, 226
120, 232, 208, 228
121, 228, 208, 207
122, 326, 301, 263
123, 229, 210, 209
124, 230, 206, 205
125, 242, 220, 219
126, 231, 228, 207
127, 231, 206, 230
128, 262, 231, 230
129, 280, 241, 276
130, 301, 233, 263
131, 233, 211, 210
132, 238,  54,  55
133, 239, 235, 224
134, 271, 223, 234
135, 260, 247, 212
136, 268, 267, 238
137, 236,  56,  57
138, 298, 268, 292
139, 237,  55,  56
140, 238, 234,  54
141, 238,  55, 237
142, 268, 238, 237
143, 256, 196, 252
144, 266, 260, 240
145, 240, 226, 225
146, 249, 217, 216
147, 310, 273, 305
148, 299, 278, 262
149, 246, 242, 219
150, 320, 300, 297
151, 243, 214, 213
152, 248, 215, 214
153, 354, 352, 349
154, 245, 212,  46
155, 245,  46,  47
156, 246, 219, 218
157, 318, 304, 303
158, 247, 213, 212
159, 269, 240, 235
160, 275, 274, 248
161, 274, 273, 244
162, 285, 282, 253
163, 249, 241, 217
164, 299, 259, 250
165, 250, 220, 242
166, 251, 200, 201
167, 294, 265, 261
168, 252, 196, 197
169, 257, 197, 198
170, 253, 198, 199
171, 258, 253, 199
172, 254,  14,  15
173, 281, 195, 256
174, 288, 255, 202
175, 325, 301, 315
176, 323, 302, 292
177, 256, 195, 196
178, 283, 257, 282
179, 257, 252, 197
180, 258, 199, 200
181, 308, 306, 285
182, 259, 205, 204
183, 259, 221, 250
184, 260, 212, 245
185, 260, 226, 240
186, 265, 228, 261
187, 261, 228, 231
188, 299, 262, 230
189, 278, 250, 242
190, 264, 229, 232
191, 264, 263, 229
192, 265, 264, 232
193, 303, 279, 280
194, 265, 232, 228
195, 279, 278, 242
196, 270, 235, 239
197, 277, 247, 266
198, 298, 297, 267
199, 267, 234, 238
200, 290, 237, 236
201, 330, 306, 329
202, 270, 269, 235
203, 277, 275, 243
204, 300, 239, 271
205, 307, 305, 274
206, 271, 239, 223
207, 271, 234, 267
208, 272, 193, 194
209, 272, 211, 233
210, 273, 249, 244
211, 274, 244, 248
212, 275, 248, 243
213, 312, 282, 306
214, 277, 243, 247
215, 311, 307, 275
216, 335, 318, 303
217, 276, 241, 249
218, 277, 266, 269
219, 344, 269, 270
220, 279, 242, 246
221, 280, 246, 241
222, 280, 279, 246
223, 304, 278, 279
224, 329, 308, 328
225, 335, 303, 309
226, 323, 291, 281
227, 281, 254, 195
228, 282, 257, 253
229, 285, 253, 258
230, 337, 312, 330
231, 283, 252, 257
232, 323, 292, 290
233, 284, 256, 252
234, 287, 258, 251
235, 310, 309, 276
236, 286, 251, 255
237, 296, 264, 295
238, 287, 285, 258
239, 287, 251, 286
240, 288, 202, 203
241, 325, 272, 301
242, 289, 204,  35
243, 289,  36, 221
244, 290, 268, 237
245, 291, 290, 236
246, 291, 236, 222
247, 316, 291, 222
248, 314, 283, 312
249, 292, 268, 290
250, 294, 261, 293
251, 293, 261, 262
252, 318, 293, 304
253, 295, 265, 294
254, 313, 308, 287
255, 295, 264, 265
256, 331, 315, 326
257, 296, 263, 264
258, 342, 322, 339
259, 297, 271, 267
260, 298, 267, 268
261, 327, 302, 284
262, 299, 230, 259
263, 299, 250, 278
264, 300, 270, 239
265, 300, 271, 297
266, 301, 272, 233
267, 326, 315, 301
268, 302, 281, 256
269, 327, 317, 302
270, 309, 280, 276
271, 350, 335, 336
272, 304, 293, 278
273, 304, 279, 303
274, 305, 273, 274
275, 307, 274, 275
276, 306, 282, 285
277, 308, 285, 287
278, 311, 275, 277
279, 347, 343, 342
280, 313, 287, 286
281, 350, 340, 335
282, 309, 303, 280
283, 310, 276, 273
284, 336, 335, 309
285, 353, 345, 328
286, 344, 277, 269
287, 324, 300, 320
288, 322, 298, 317
289, 312, 283, 282
290, 338, 326, 296
291, 321, 295, 319
292, 349, 330, 346
293, 314, 284, 283
294, 315, 286, 255
295, 325, 315, 288
296, 316, 222,  13
297, 316,  14, 254
298, 317, 298, 292
299, 317, 292, 302
300, 319, 294, 318
301, 318, 294, 293
302, 338, 328, 313
303, 319, 295, 294
304, 344, 334, 311
305, 322, 320, 297
306, 338, 331, 326
307, 321, 296, 295
308, 322, 297, 298
309, 339, 317, 327
310, 323, 290, 291
311, 323, 281, 302
312, 344, 324, 334
313, 324, 270, 300
314, 325, 288, 193
315, 325, 193, 272
316, 326, 263, 296
317, 338, 296, 321
318, 327, 284, 314
319, 339, 327, 314
320, 336, 310, 333
321, 328, 308, 313
322, 333, 305, 332
323, 329, 306, 308
324, 352, 347, 342
325, 330, 312, 306
326, 331, 313, 286
327, 331, 286, 315
328, 332, 305, 307
329, 334, 332, 307
330, 346, 329, 345
331, 333, 310, 305
332, 334, 307, 311
333, 343, 324, 320
334, 340, 318, 335
335, 336, 309, 310
336, 350, 346, 345
337, 350, 345, 341
338, 352, 339, 337
339, 337, 314, 312
340, 353, 338, 321
341, 338, 313, 331
342, 339, 322, 317
343, 339, 314, 337
344, 341, 319, 340
345, 340, 319, 318
346, 353, 341, 345
347, 341, 321, 319
348, 347, 334, 343
349, 342, 320, 322
350, 343, 334, 324
351, 343, 320, 342
352, 344, 311, 277
353, 344, 270, 324
354, 351, 346, 350
355, 345, 329, 328
356, 348, 333, 332
357, 346, 330, 329
358, 354, 349, 348
359, 347, 332, 334
360, 351, 348, 346
361, 348, 332, 347
362, 349, 337, 330
363, 349, 346, 348
364, 350, 341, 340
365, 351, 350, 336
366, 351, 336, 333
367, 351, 333, 348
368, 352, 342, 339
369, 352, 337, 349
370, 353, 328, 338
371, 353, 321, 341
372, 354, 348, 347
373, 354, 347, 352
374, 414,   2,  23
375, 414,  23, 410
376, 367,  94, 363
377, 404, 376, 375
378, 517,  88,  89
379,  13,   1,  59
380, 357,  13,  59
381, 372,  61, 371
382, 358,  15,  14
383, 359,  16,  15
384, 360,  17,  16
385, 361,  18,  17
386, 388, 363,  95
387, 432, 391, 428
388, 409,  21, 392
389, 410,  22, 409
390,  74,   6,  75
391, 384,  75,  76
392, 402, 381, 398
393, 398, 381, 380
394, 461, 440, 444
395, 451, 398, 450
396, 415,  69,  70
397, 403, 377, 397
398, 492, 448, 447
399, 423, 365, 417
400, 504, 464, 501
401, 454, 412, 406
402, 369,  64, 368
403, 457, 456, 411
404, 424, 369, 416
405, 482,  59,  60
406,  87,   7,  88
407, 373,  87,  88
408, 433,  90, 385
409, 471, 443, 439
410, 375,  85, 374
411, 376,  84, 375
412, 376,  83,  84
413, 379,  81, 378
414, 380,  80, 379
415, 381,  79, 380
416, 382,  78, 381
417, 383,  77, 382
418, 384,  76, 383
419, 385,  90,  91
420, 517, 439, 373
421, 386,  92, 366
422, 387,  66, 356
423, 389, 388,  96
424, 411, 360, 359
425, 390,  19, 362
426, 454, 453, 412
427, 392,  20, 390
428, 393, 391,  98
429, 437, 428, 393
430, 395, 394, 100
431, 472, 396, 355
432, 396,   8, 102
433, 394, 393,  99
434, 355, 102, 103
435, 356,  66,  67
436, 365,  67,  68
437, 358,  14, 357
438, 357,  14,  13
439, 371,  62, 370
440, 359,  15, 358
441, 370,  63, 369
442, 360,  16, 359
443, 368,  64,  65
444, 361,  17, 360
445, 416, 369, 368
446, 362,  18, 361
447, 407, 390, 362
448, 362,  19,  18
449, 363,  94,  95
450, 388,  95,  96
451, 364,  68,  69
452, 378,  82, 377
453, 365, 356,  67
454, 365,  68, 364
455, 366,  92,  93
456, 367, 366,  93
457, 367,  93,  94
458, 436, 388, 430
459, 387, 368,  65
460, 469, 418, 463
461, 441, 408, 358
462, 369,  63,  64
463, 482, 441, 357
464, 370,  62,  63
465, 427, 372, 371
466, 371,  61,  62
467, 482, 372, 441
468, 372,  60,  61
469, 374,  86, 373
470, 373,  86,  87
471, 471, 433, 385
472, 374,  85,  86
473, 435, 434, 386
474, 375,  84,  85
475, 460, 364, 415
476, 377,  83, 376
477, 450, 405, 445
478, 377,  82,  83
479, 445, 405, 400
480, 378,  81,  82
481, 405, 380, 379
482, 379,  80,  81
483, 420,  71, 419
484, 380,  79,  80
485, 421, 419,  72
486, 381,  78,  79
487, 401, 383, 382
488, 382,  77,  78
489, 440, 383, 401
490, 383,  76,  77
491, 422,  74, 384
492, 384,  74,  75
493, 386, 385,  91
494, 435, 366, 431
495, 386,  91,  92
496, 547, 533, 521
497, 387,  65,  66
498, 476, 474, 430
499, 389,  96,  97
500, 423, 418, 356
501, 391,  97,  98
502, 432, 430, 389
503, 413, 390, 407
504, 390,  20,  19
505, 391, 389,  97
506, 393,  98,  99
507, 458, 392, 413
508, 392,  21,  20
509, 394,  99, 100
510, 455, 407, 453
511, 395, 100, 101
512, 442, 414, 410
513, 396, 395, 101
514, 438, 437, 394
515, 396, 101,   8
516, 396, 102, 355
517, 397, 377, 376
518, 446, 445, 400
519, 400, 379, 378
520, 485, 461, 444
521, 399, 375, 374
522, 434, 385, 386
523, 403, 400, 378
524, 523, 522, 490
525, 421,  72,  73
526, 402, 401, 382
527, 402, 382, 381
528, 505, 462, 485
529, 403, 378, 377
530, 449, 447, 404
531, 404, 397, 376
532, 404, 375, 399
533, 405, 398, 380
534, 405, 379, 400
535, 412, 361, 406
536, 406, 361, 360
537, 437, 393, 394
538, 412, 407, 362
539, 408, 359, 358
540, 425, 370, 424
541, 458, 442, 409
542, 409,  22,  21
543, 442, 410, 409
544, 410,  23,  22
545, 411, 406, 360
546, 411, 359, 408
547, 412, 362, 361
548, 456, 454, 406
549, 483, 459, 442
550, 413, 392, 390
551, 414, 355, 103
552, 414, 103,   2
553, 415, 364,  69
554, 420,  70,  71
555, 426, 368, 387
556, 469, 426, 418
557, 431, 367, 429
558, 417, 365, 364
559, 418, 387, 356
560, 423, 356, 365
561, 419,  71,  72
562, 485, 444, 452
563, 462, 419, 461
564, 420, 415,  70
565, 422, 421,  73
566, 440, 422, 384
567, 422,  73,  74
568, 440, 384, 383
569, 468, 463, 423
570, 474, 473, 436
571, 493, 457, 467
572, 424, 370, 369
573, 466, 424, 464
574, 425, 371, 370
575, 426, 416, 368
576, 426, 387, 418
577, 498, 441, 427
578, 427, 371, 425
579, 428, 391, 393
580, 478, 437, 477
581, 429, 367, 363
582, 436, 363, 388
583, 430, 388, 389
584, 432, 389, 391
585, 481, 435, 480
586, 431, 366, 367
587, 546, 532, 483
588, 465, 464, 416
589, 517, 433, 439
590, 433,  89,  90
591, 471, 439, 433
592, 435, 386, 366
593, 578, 558, 569
594, 516, 475, 511
595, 512, 511, 473
596, 436, 429, 363
597, 438, 394, 395
598, 531, 501, 500
599, 472, 438, 395
600, 532, 509, 477
601, 439, 399, 374
602, 439, 374, 373
603, 444, 440, 401
604, 440, 421, 422
605, 441, 358, 357
606, 441, 372, 427
607, 555, 532, 546
608, 459, 414, 442
609, 449, 399, 443
610, 443, 399, 439
611, 452, 401, 402
612, 558, 557, 530
613, 487, 486, 450
614, 446, 400, 403
615, 448, 403, 397
616, 475, 429, 473
617, 447, 397, 404
618, 480, 431, 475
619, 448, 446, 403
620, 448, 397, 447
621, 449, 404, 399
622, 484, 434, 481
623, 521, 486, 520
624, 450, 398, 405
625, 545, 505, 485
626, 451, 402, 398
627, 452, 444, 401
628, 452, 402, 451
629, 453, 407, 412
630, 554, 549, 527
631, 456, 406, 411
632, 464, 424, 416
633, 554, 525, 534
634, 455, 413, 407
635, 457, 411, 408
636, 501, 465, 500
637, 498, 457, 408
638, 467, 427, 425
639, 458, 409, 392
640, 497, 413, 455
641, 502, 477, 438
642, 459, 355, 414
643, 460, 417, 364
644, 470, 415, 420
645, 461, 419, 421
646, 461, 421, 440
647, 485, 462, 461
648, 462, 420, 419
649, 463, 418, 423
650, 468, 423, 417
651, 465, 416, 426
652, 510, 478, 509
653, 469, 465, 426
654, 572, 555, 546
655, 503, 467, 466
656, 466, 425, 424
657, 498, 467, 457
658, 467, 425, 466
659, 499, 417, 460
660, 490, 445, 446
661, 508, 463, 507
662, 513, 479, 510
663, 470, 460, 415
664, 470, 420, 462
665, 471, 385, 434
666, 484, 471, 434
667, 472, 395, 396
668, 472, 355, 459
669, 473, 429, 436
670, 474, 436, 430
671, 476, 430, 432
672, 537, 536, 508
673, 544, 516, 543
674, 475, 431, 429
675, 479, 432, 428
676, 513, 476, 479
677, 477, 437, 438
678, 502, 438, 472
679, 479, 428, 478
680, 478, 428, 437
681, 494, 455, 453
682, 479, 476, 432
683, 489, 449, 484
684, 480, 435, 431
685, 515, 481, 480
686, 481, 434, 435
687, 482, 357,  59
688, 482,  60, 372
689, 519, 442, 458
690, 546, 519, 497
691, 484, 449, 443
692, 484, 443, 471
693, 491, 452, 451
694, 569, 533, 547
695, 486, 451, 450
696, 487, 450, 445
697, 524, 523, 488
698, 522, 520, 487
699, 488, 446, 448
700, 516, 515, 480
701, 489, 447, 449
702, 518, 481, 515
703, 490, 487, 445
704, 490, 446, 488
705, 491, 485, 452
706, 491, 451, 486
707, 492, 488, 448
708, 492, 447, 489
709, 495, 456, 493
710, 493, 456, 457
711, 496, 453, 454
712, 534, 501, 531
713, 495, 454, 456
714, 504, 503, 466
715, 496, 494, 453
716, 496, 454, 495
717, 497, 458, 413
718, 529, 455, 494
719, 498, 408, 441
720, 498, 427, 467
721, 499, 468, 417
722, 506, 460, 470
723, 500, 465, 469
724, 508, 469, 463
725, 525, 493, 503
726, 501, 464, 465
727, 502, 472, 459
728, 502, 459, 483
729, 503, 493, 467
730, 504, 466, 464
731, 556, 554, 534
732, 525, 503, 504
733, 505, 470, 462
734, 545, 533, 505
735, 506, 499, 460
736, 506, 470, 505
737, 507, 463, 468
738, 530, 468, 499
739, 542, 541, 514
740, 508, 500, 469
741, 509, 478, 477
742, 532, 477, 502
743, 514, 476, 513
744, 510, 479, 478
745, 511, 475, 473
746, 512, 473, 474
747, 514, 474, 476
748, 570, 552, 566
749, 539, 510, 538
750, 536, 531, 500
751, 561, 559, 536
752, 514, 512, 474
753, 526, 489, 518
754, 516, 480, 475
755, 550, 548, 522
756, 543, 511, 540
757, 517, 373,  88
758, 517,  89, 433
759, 518, 489, 484
760, 518, 484, 481
761, 519, 483, 442
762, 519, 458, 497
763, 520, 486, 487
764, 522, 487, 490
765, 545, 521, 533
766, 521, 491, 486
767, 523, 490, 488
768, 552, 523, 524
769, 524, 488, 492
770, 587, 584, 579
771, 526, 524, 492
772, 566, 543, 565
773, 527, 495, 525
774, 525, 495, 493
775, 526, 492, 489
776, 526, 518, 515
777, 528, 496, 527
778, 527, 496, 495
779, 577, 549, 571
780, 528, 494, 496
781, 529, 497, 455
782, 553, 494, 528
783, 530, 507, 468
784, 535, 499, 506
785, 536, 500, 508
786, 571, 549, 556
787, 532, 502, 483
788, 546, 483, 519
789, 533, 506, 505
790, 547, 521, 520
791, 534, 525, 504
792, 534, 504, 501
793, 535, 530, 499
794, 535, 506, 533
795, 537, 508, 507
796, 542, 513, 539
797, 557, 507, 530
798, 541, 540, 512
799, 538, 510, 509
800, 572, 568, 555
801, 559, 556, 531
802, 539, 513, 510
803, 540, 511, 512
804, 541, 512, 514
805, 542, 514, 513
806, 564, 541, 563
807, 580, 571, 559
808, 574, 562, 573
809, 551, 526, 544
810, 543, 516, 511
811, 544, 526, 515
812, 544, 515, 516
813, 545, 485, 491
814, 545, 491, 521
815, 546, 497, 529
816, 572, 553, 568
817, 548, 520, 522
818, 548, 547, 520
819, 550, 522, 523
820, 575, 548, 550
821, 549, 528, 527
822, 556, 549, 554
823, 552, 524, 551
824, 565, 540, 564
825, 551, 524, 526
826, 566, 544, 543
827, 588, 581, 586
828, 552, 550, 523
829, 553, 529, 494
830, 577, 528, 549
831, 554, 527, 525
832, 556, 534, 531
833, 555, 538, 509
834, 555, 509, 532
835, 559, 531, 536
836, 583, 573, 560
837, 557, 537, 507
838, 558, 530, 535
839, 569, 558, 535
840, 578, 567, 558
841, 561, 536, 537
842, 562, 539, 560
843, 560, 539, 538
844, 568, 560, 538
845, 579, 537, 557
846, 563, 542, 562
847, 586, 585, 580
848, 562, 542, 539
849, 581, 563, 574
850, 563, 541, 542
851, 579, 557, 567
852, 564, 540, 541
853, 590, 566, 565
854, 565, 543, 540
855, 566, 552, 551
856, 566, 551, 544
857, 567, 557, 558
858, 590, 589, 570
859, 568, 538, 555
860, 583, 553, 577
861, 569, 535, 533
862, 578, 569, 547
863, 570, 550, 552
864, 590, 576, 589
865, 571, 556, 559
866, 585, 574, 573
867, 572, 546, 529
868, 572, 529, 553
869, 573, 562, 560
870, 583, 577, 571
871, 584, 580, 561
872, 574, 563, 562
873, 582, 578, 575
874, 575, 550, 570
875, 576, 565, 564
876, 581, 564, 563
877, 577, 553, 528
878, 583, 571, 573
879, 578, 547, 548
880, 578, 548, 575
881, 579, 561, 537
882, 587, 567, 582
883, 580, 559, 561
884, 588, 586, 584
885, 581, 576, 564
886, 586, 574, 585
887, 582, 567, 578
888, 589, 582, 575
889, 583, 560, 568
890, 583, 568, 553
891, 584, 561, 579
892, 587, 579, 567
893, 585, 573, 571
894, 585, 571, 580
895, 586, 581, 574
896, 586, 580, 584
897, 589, 587, 582
898, 589, 588, 587
899, 588, 576, 581
900, 588, 584, 587
901, 589, 575, 570
902, 589, 576, 588
903, 590, 570, 566
904, 590, 565, 576
 905, 624,   9, 104
 906, 679, 635, 670
 907, 642, 592, 597
 908, 638, 154, 624
 909, 640,  34,  33
 910, 121,  10, 122
 911, 603, 122, 123
 912, 650, 600, 647
 913, 647, 600, 599
 914, 741, 648, 695
 915, 675, 668, 118
 916, 695, 606, 646
 917, 678, 634, 671
 918, 662, 616, 615
 919, 635, 112, 631
 920, 657, 613, 655
 921, 674, 672, 627
 922, 636, 628, 108
 923, 673, 636, 672
 924, 711, 706, 661
 925, 779, 694, 693
 926, 719, 672, 718
 927, 637, 104, 105
 928, 132,  11, 133
 929, 604, 132, 133
 930, 623, 135, 622
 931, 605, 130, 131
 932, 660, 622, 621
 933, 606, 128, 129
 934, 599, 127, 598
 935, 600, 126, 599
 936, 601, 125, 600
 937, 602, 124, 601
 938, 603, 123, 602
 939, 152,   4,  34
 940, 640, 607, 152
 941, 779, 734, 743
 942, 597,  29, 593
 943, 609, 149, 608
 944, 610, 148, 609
 945, 611, 147, 610
 946, 612, 146, 611
 947, 613, 145, 612
 948, 614, 144, 613
 949, 615, 143, 614
 950, 616, 142, 615
 951, 617, 141, 616
 952, 618, 140, 617
 953, 619, 139, 618
 954, 707, 658, 699
 955, 620, 138, 619
 956, 621, 137, 620
 957, 622, 136, 621
 958, 835, 133, 134
 959, 596,  33,  32
 960, 641,  31, 592
 961, 592,  31,  30
 962, 597,  30,  29
 963, 594,  28,  27
 964, 594, 593,  28
 965, 595,  26, 591
 966, 591,  26,   3
 967, 591,   3, 153
 968, 595,  27,  26
 969, 638, 153, 154
 970, 652, 608, 150
 971, 652, 151, 607
 972, 593,  29,  28
 973, 644, 643, 594
 974, 595, 594,  27
 975, 639, 595, 591
 976, 638, 591, 153
 977, 629, 106, 107
 978, 693, 641, 684
 979, 641,  32,  31
 980, 724, 682, 669
 981, 597, 592,  30
 982, 668, 117, 118
 983, 598, 127, 128
 984, 740, 714, 729
 985, 599, 126, 127
 986, 676, 675, 119
 987, 600, 125, 126
 988, 692, 650, 691
 989, 601, 124, 125
 990, 729, 602, 649
 991, 602, 123, 124
 992, 713, 121, 603
 993, 603, 121, 122
 994, 605, 131, 604
 995, 604, 131, 132
 996, 696, 623, 666
 997, 646, 130, 605
 998, 606, 598, 128
 999, 646, 129, 130
1000, 607, 151, 152
1001, 640, 152,  34
1002, 629, 107, 628
1003, 608, 149, 150
1004, 661, 609, 654
1005, 609, 148, 149
1006, 636, 109, 627
1007, 610, 147, 148
1008, 627, 110, 626
1009, 611, 146, 147
1010, 657, 656, 614
1011, 612, 145, 146
1012, 631, 112, 113
1013, 613, 144, 145
1014, 631, 113, 625
1015, 614, 143, 144
1016, 662, 615, 656
1017, 615, 142, 143
1018, 633, 115, 116
1019, 616, 141, 142
1020, 633, 116, 632
1021, 617, 140, 141
1022, 663, 618, 658
1023, 618, 139, 140
1024, 664, 619, 663
1025, 619, 138, 139
1026, 780, 741, 775
1027, 620, 137, 138
1028, 696, 688, 605
1029, 621, 136, 137
1030, 666, 622, 660
1031, 622, 135, 136
1032, 835, 623, 696
1033, 623, 134, 135
1034, 624, 154,   9
1035, 630, 106, 629
1036, 625, 113, 114
1037, 634, 114, 115
1038, 626, 110, 111
1039, 635, 111, 112
1040, 667, 611, 653
1041, 627, 109, 110
1042, 628, 107, 108
1043, 636, 108, 109
1044, 731, 687, 683
1045, 630, 105, 106
1046, 799, 791, 753
1047, 637, 105, 630
1048, 659, 658, 617
1049, 678, 625, 634
1050, 632, 116, 117
1051, 726, 675, 714
1052, 680, 671, 633
1053, 634, 115, 633
1054, 678, 677, 625
1055, 634, 625, 114
1056, 679, 674, 626
1057, 635, 626, 111
1058, 667, 655, 612
1059, 704, 703, 655
1060, 682, 630, 669
1061, 637, 624, 104
1062, 639, 591, 638
1063, 727, 624, 637
1064, 728, 639, 638
1065, 644, 595, 639
1066, 640,  33, 596
1067, 694, 596, 693
1068, 641, 596,  32
1069, 684, 592, 642
1070, 697, 608, 652
1071, 645, 597, 593
1072, 643, 593, 594
1073, 669, 630, 629
1074, 644, 594, 595
1075, 770, 727, 682
1076, 645, 642, 597
1077, 645, 593, 643
1078, 646, 606, 129
1079, 712, 660, 709
1080, 651, 599, 598
1081, 690, 651, 689
1082, 648, 598, 606
1083, 742, 737, 688
1084, 649, 602, 601
1085, 650, 649, 601
1086, 650, 601, 600
1087, 691, 647, 690
1088, 651, 647, 599
1089, 651, 598, 648
1090, 652, 150, 151
1091, 694, 640, 596
1092, 653, 611, 610
1093, 661, 610, 609
1094, 654, 609, 608
1095, 806, 774, 778
1096, 655, 613, 612
1097, 667, 612, 611
1098, 656, 615, 614
1099, 657, 614, 613
1100, 703, 702, 657
1101, 702, 701, 656
1102, 658, 618, 617
1103, 659, 617, 616
1104, 662, 659, 616
1105, 766, 760, 715
1106, 665, 621, 620
1107, 710, 663, 707
1108, 685, 642, 645
1109, 661, 653, 610
1110, 701, 700, 662
1111, 700, 699, 659
1112, 776, 738, 736
1113, 663, 619, 618
1114, 665, 620, 664
1115, 664, 620, 619
1116, 755, 708, 745
1117, 665, 660, 621
1118, 742, 696, 666
1119, 666, 623, 622
1120, 725, 681, 723
1121, 705, 704, 667
1122, 668, 632, 117
1123, 675, 118, 119
1124, 686, 685, 645
1125, 681, 629, 628
1126, 670, 635, 631
1127, 677, 631, 625
1128, 671, 634, 633
1129, 680, 633, 632
1130, 672, 636, 627
1131, 674, 627, 626
1132, 723, 673, 719
1133, 673, 628, 636
1134, 679, 626, 635
1135, 718, 674, 717
1136, 676, 119, 120
1137, 769, 726, 768
1138, 713, 676, 120
1139, 729, 713, 603
1140, 720, 715, 677
1141, 677, 670, 631
1142, 758, 699, 748
1143, 721, 720, 678
1144, 716, 670, 715
1145, 717, 679, 716
1146, 698, 632, 668
1147, 710, 708, 664
1148, 681, 669, 629
1149, 681, 628, 673
1150, 770, 724, 730
1151, 682, 637, 630
1152, 687, 644, 683
1153, 683, 644, 639
1154, 684, 641, 592
1155, 735, 642, 685
1156, 706, 705, 653
1157, 686, 645, 643
1158, 687, 686, 643
1159, 763, 725, 747
1160, 687, 643, 644
1161, 771, 724, 763
1162, 756, 709, 755
1163, 688, 646, 605
1164, 689, 651, 648
1165, 709, 665, 708
1166, 738, 690, 736
1167, 690, 647, 651
1168, 739, 691, 738
1169, 691, 650, 647
1170, 805, 769, 793
1171, 692, 649, 650
1172, 774, 734, 735
1173, 693, 596, 641
1174, 694, 652, 607
1175, 694, 607, 640
1176, 695, 648, 606
1177, 695, 646, 688
1178, 696, 605, 604
1179, 835, 696, 604
1180, 697, 654, 608
1181, 697, 652, 694
1182, 698, 680, 632
1183, 768, 714, 740
1184, 699, 658, 659
1185, 700, 659, 662
1186, 701, 662, 656
1187, 749, 748, 700
1188, 702, 656, 657
1189, 800, 796, 760
1190, 703, 657, 655
1191, 824, 814, 821
1192, 704, 655, 667
1193, 765, 764, 718
1194, 705, 667, 653
1195, 765, 717, 762
1196, 706, 653, 661
1197, 746, 723, 719
1198, 711, 661, 654
1199, 732, 685, 686
1200, 722, 721, 671
1201, 707, 663, 658
1202, 708, 665, 664
1203, 710, 664, 663
1204, 832, 823, 819
1205, 709, 660, 665
1206, 757, 745, 710
1207, 808, 777, 776
1208, 743, 654, 697
1209, 806, 781, 774
1210, 742, 712, 737
1211, 712, 666, 660
1212, 713, 120, 121
1213, 729, 603, 602
1214, 714, 675, 676
1215, 729, 714, 676
1216, 715, 670, 677
1217, 720, 677, 678
1218, 750, 749, 701
1219, 716, 679, 670
1220, 751, 750, 702
1221, 717, 674, 679
1222, 752, 751, 703
1223, 718, 672, 674
1224, 753, 752, 704
1225, 719, 673, 672
1226, 721, 678, 671
1227, 767, 721, 761
1228, 722, 671, 680
1229, 758, 757, 707
1230, 744, 680, 698
1231, 792, 786, 745
1232, 827, 811, 812
1233, 723, 681, 673
1234, 770, 730, 728
1235, 725, 724, 669
1236, 725, 669, 681
1237, 747, 723, 746
1238, 726, 698, 668
1239, 726, 668, 675
1240, 727, 638, 624
1241, 727, 637, 682
1242, 728, 683, 639
1243, 728, 638, 727
1244, 740, 729, 649
1245, 729, 676, 713
1246, 731, 683, 730
1247, 730, 683, 728
1248, 783, 747, 782
1249, 733, 687, 731
1250, 759, 754, 706
1251, 733, 732, 686
1252, 733, 686, 687
1253, 807, 772, 783
1254, 734, 693, 684
1255, 735, 734, 684
1256, 735, 684, 642
1257, 778, 685, 732
1258, 736, 690, 689
1259, 786, 755, 745
1260, 756, 712, 709
1261, 737, 695, 688
1262, 777, 738, 776
1263, 738, 691, 690
1264, 768, 740, 692
1265, 739, 692, 691
1266, 740, 649, 692
1267, 768, 692, 739
1268, 741, 689, 648
1269, 741, 695, 737
1270, 742, 688, 696
1271, 742, 666, 712
1272, 743, 711, 654
1273, 779, 743, 697
1274, 744, 722, 680
1275, 793, 768, 739
1276, 745, 708, 710
1277, 757, 710, 707
1278, 764, 719, 718
1279, 754, 753, 705
1280, 772, 731, 771
1281, 747, 725, 723
1282, 748, 699, 700
1283, 749, 700, 701
1284, 750, 701, 702
1285, 788, 787, 749
1286, 751, 702, 703
1287, 762, 716, 760
1288, 752, 703, 704
1289, 790, 789, 751
1290, 753, 704, 705
1291, 785, 782, 746
1292, 754, 705, 706
1293, 812, 811, 782
1294, 759, 706, 711
1295, 806, 804, 759
1296, 797, 775, 756
1297, 755, 709, 708
1298, 775, 737, 756
1299, 756, 737, 712
1300, 758, 707, 699
1301, 803, 758, 798
1302, 798, 748, 787
1303, 767, 766, 720
1304, 781, 743, 774
1305, 811, 807, 783
1306, 760, 716, 715
1307, 766, 715, 720
1308, 761, 721, 722
1309, 784, 722, 744
1310, 789, 788, 750
1311, 762, 717, 716
1312, 772, 771, 763
1313, 763, 724, 725
1314, 764, 746, 719
1315, 765, 718, 717
1316, 815, 814, 788
1317, 816, 815, 789
1318, 767, 720, 721
1319, 802, 767, 801
1320, 833, 826, 801
1321, 822, 787, 814
1322, 832, 776, 810
1323, 768, 726, 714
1324, 769, 744, 698
1325, 769, 698, 726
1326, 770, 728, 727
1327, 770, 682, 724
1328, 771, 731, 730
1329, 771, 730, 724
1330, 773, 733, 772
1331, 772, 733, 731
1332, 809, 806, 778
1333, 773, 732, 733
1334, 774, 743, 734
1335, 778, 774, 735
1336, 780, 689, 741
1337, 775, 741, 737
1338, 810, 736, 780
1339, 823, 797, 786
1340, 805, 793, 777
1341, 777, 739, 738
1342, 778, 735, 685
1343, 809, 732, 773
1344, 779, 697, 694
1345, 779, 693, 734
1346, 797, 756, 755
1347, 780, 736, 689
1348, 781, 759, 711
1349, 781, 711, 743
1350, 782, 747, 746
1351, 785, 746, 764
1352, 783, 772, 763
1353, 783, 763, 747
1354, 784, 761, 722
1355, 805, 744, 769
1356, 795, 764, 765
1357, 791, 790, 752
1358, 792, 745, 757
1359, 833, 819, 828
1360, 787, 748, 749
1361, 788, 749, 750
1362, 789, 750, 751
1363, 796, 794, 762
1364, 790, 751, 752
1365, 820, 816, 817
1366, 791, 752, 753
1367, 818, 816, 790
1368, 799, 753, 754
1369, 818, 812, 817
1370, 803, 757, 758
1371, 836, 808, 832
1372, 793, 769, 768
1373, 793, 739, 777
1374, 794, 765, 762
1375, 796, 762, 760
1376, 795, 785, 764
1377, 795, 765, 794
1378, 800, 760, 766
1379, 821, 814, 815
1380, 797, 780, 775
1381, 797, 755, 786
1382, 826, 822, 825
1383, 798, 758, 748
1384, 804, 799, 754
1385, 831, 811, 830
1386, 802, 766, 767
1387, 824, 822, 814
1388, 801, 767, 761
1389, 813, 761, 784
1390, 826, 825, 802
1391, 802, 800, 766
1392, 803, 792, 757
1393, 829, 798, 822
1394, 804, 754, 759
1395, 837, 830, 804
1396, 808, 805, 777
1397, 805, 784, 744
1398, 806, 759, 781
1399, 809, 778, 732
1400, 807, 773, 772
1401, 811, 783, 782
1402, 834, 805, 808
1403, 832, 810, 823
1404, 831, 773, 807
1405, 837, 806, 809
1406, 810, 776, 736
1407, 810, 780, 797
1408, 812, 782, 785
1409, 830, 811, 827
1410, 817, 785, 795
1411, 827, 812, 818
1412, 813, 801, 761
1413, 834, 813, 784
1414, 814, 787, 788
1415, 815, 788, 789
1416, 816, 789, 790
1417, 821, 815, 820
1418, 818, 817, 816
1419, 820, 815, 816
1420, 817, 812, 785
1421, 820, 817, 795
1422, 818, 790, 791
1423, 827, 818, 791
1424, 819, 786, 792
1425, 828, 792, 803
1426, 820, 795, 794
1427, 821, 820, 794
1428, 821, 794, 796
1429, 824, 821, 796
1430, 825, 822, 824
1431, 822, 798, 787
1432, 823, 810, 797
1433, 823, 786, 819
1434, 824, 796, 800
1435, 825, 824, 800
1436, 825, 800, 802
1437, 826, 802, 801
1438, 833, 828, 826
1439, 829, 828, 803
1440, 827, 791, 799
1441, 830, 827, 799
1442, 828, 819, 792
1443, 829, 803, 798
1444, 829, 822, 826
1445, 829, 826, 828
1446, 830, 799, 804
1447, 837, 831, 830
1448, 831, 809, 773
1449, 831, 807, 811
1450, 836, 819, 833
1451, 832, 808, 776
1452, 833, 801, 813
1453, 836, 833, 813
1454, 834, 784, 805
1455, 836, 834, 808
1456, 835, 604, 133
1457, 835, 134, 623
1458, 836, 813, 834
1459, 836, 832, 819
1460, 837, 804, 806
1461, 837, 809, 831
1462,  920,  192,  838
1463,  838,  121,  120
1464,  921,  883,  882
1465,  883,  184,  882
1466,  840,    8,  101
1467,  974,  841,  910
1468,  841,  118,  117
1469,  842,  116,  839
1470,  843,  839,  115
1471,  844,  843,  114
1472,  845,  844,  113
1473,  846,  845,  112
1474,  847,  846,  111
1475,  955,  903,  953
1476,  848,  847,  110
1477,  849,  848,  109
1478,  850,  849,  108
1479,  851,  850,  107
1480,  860,   98,  859
1481,  852,  156,  840
1482,  941,  860,  932
1483,  975,  855,  852
1484,  855,    9,  155
1485,   88,    7,  157
1486,  880,  157,  158
1487,  890,  878,  877
1488,  891,  876,  875
1489, 1093, 1090, 1043
1490,  938,  934,   91
1491,  938,   91,   90
1492,  931,   94,   93
1493,  907,  849,  850
1494,  857,   95,  856
1495,  858,   96,  857
1496,  859,   97,  858
1497,  861,   99,  860
1498,  862,  101,  100
1499,  177,  176,   12
1500,  863,  176,  177
1501,  888,  179,  887
1502,  922,  885,  884
1503,  865,  173,  864
1504,  866,  172,  865
1505,  867,  171,  866
1506,  868,  170,  867
1507,  869,  169,  868
1508,  870,  168,  869
1509,  871,  167,  870
1510,  872,  166,  871
1511,  873,  165,  872
1512,  874,  164,  873
1513,  875,  163,  874
1514,  876,  162,  875
1515,  877,  161,  876
1516,  878,  160,  877
1517,  879,  159,  878
1518,  880,  158,  879
1519,  192,   10,  121
1520,  838,  192,  121
1521,  920,  881,  191
1522, 1049,  944, 1025
1523,  923,  190,  881
1524,  910,  841,  842
1525,  973,  916,  968
1526,  927,  188,  189
1527,  925,  187,  924
1528,  919,  185,  186
1529,  884,  183,  883
1530,  885,  182,  884
1531,  886,  181,  885
1532,  929,  885,  922
1533,  887,  180,  886
1534, 1050,  177,  178
1535,  962,  119,  911
1536,  911,  118,  841
1537,  839,  116,  115
1538,  843,  115,  114
1539,  854,  853,  105
1540,  840,  156,    8
1541,  927,  924,  188
1542,  842,  841,  117
1543,  842,  117,  116
1544,  916,  839,  908
1545,  844,  114,  113
1546,  893,  866,  865
1547,  845,  113,  112
1548,  894,  866,  893
1549,  846,  112,  111
1550,  895,  867,  894
1551,  847,  111,  110
1552,  896,  868,  895
1553,  848,  110,  109
1554,  897,  872,  871
1555,  849,  109,  108
1556,  907,  906,  849
1557,  850,  108,  107
1558,  936,  933,  857
1559,  851,  107,  106
1560, 1024,  972,  971
1561,  853,  106,  105
1562,  970,  967,  907
1563,  852,  155,  156
1564,  861,  100,   99
1565,  853,  851,  106
1566,  854,  105,  104
1567,  855,  854,  104
1568,  917,  905,  853
1569,  855,  104,    9
1570,  855,  155,  852
1571,  856,   95,   94
1572,  954,  897,  951
1573,  932,  860,  859
1574,  857,   96,   95
1575, 1116, 1068, 1024
1576,  858,   97,   96
1577,  917,  853,  854
1578,  859,   98,   97
1579, 1024, 1017,  972
1580,  860,   99,   98
1581,  942,  861,  941
1582,  862,  100,  861
1583,  988,  840,  862
1584,  862,  840,  101
1585,  889,  864,  174
1586,  863,  175,  176
1587,  864,  173,  174
1588,  889,  174,  175
1589, 1124, 1085, 1122
1590,  865,  172,  173
1591,  952,  893,  900
1592,  866,  171,  172
1593,  913,  912,  844
1594,  867,  170,  171
1595, 1147, 1109, 1142
1596,  868,  169,  170
1597,  898,  869,  896
1598,  869,  168,  169
1599,  898,  870,  869
1600,  870,  167,  168
1601,  914,  909,  846
1602,  871,  166,  167
1603,  915,  848,  906
1604,  872,  165,  166
1605, 1003,  954, 1000
1606,  873,  164,  165
1607,  903,  875,  874
1608,  874,  163,  164
1609,  902,  877,  876
1610,  875,  162,  163
1611,  999,  992,  991
1612,  876,  161,  162
1613,  939,  938,   90
1614,  877,  160,  161
1615,  904,  878,  890
1616,  878,  159,  160
1617,  943,  879,  904
1618,  879,  158,  159
1619,  940,   88,  880
1620,  880,   88,  157
1621,  881,  190,  191
1622, 1051,  974, 1026
1623,  882,  184,  185
1624,  968,  908,  963
1625,  928,  883,  921
1626,  883,  183,  184
1627,  900,  893,  865
1628,  884,  182,  183
1629,  929,  926,  886
1630,  885,  181,  182
1631, 1028,  976,  930
1632,  886,  180,  181
1633,  930,  888,  887
1634,  887,  179,  180
1635, 1050,  888,  976
1636,  888,  178,  179
1637,  889,  175,  863
1638,  976,  888,  930
1639,  992,  934,  938
1640,  935,   92,  934
1641,  892,  874,  873
1642,  957,  891,  955
1643,  901,  873,  872
1644, 1071, 1018, 1069
1645,  900,  865,  864
1646,  913,  844,  845
1647,  913,  845,  909
1648,  894,  867,  866
1649,  948,  894,  946
1650,  895,  868,  867
1651,  965,  964,  909
1652,  896,  869,  868
1653,  899,  871,  870
1654, 1014,  956, 1003
1655,  950,  896,  947
1656,  951,  899,  949
1657,  899,  897,  871
1658,  899,  870,  898
1659,  960,  864,  889
1660,  926,  887,  886
1661,  901,  892,  873
1662,  901,  872,  897
1663,  902,  890,  877
1664,  902,  876,  891
1665,  903,  891,  875
1666,  903,  874,  892
1667,  991,  943,  945
1668,  904,  879,  878
1669,  918,  851,  905
1670,  905,  851,  853
1671,  906,  848,  849
1672,  970,  907,  918
1673,  918,  907,  850
1674, 1087, 1042, 1044
1675,  908,  839,  843
1676,  912,  843,  844
1677,  909,  845,  846
1678,  914,  846,  847
1679,  927,  189,  923
1680,  916,  910,  842
1681, 1025,  911,  974
1682,  911,  119,  118
1683, 1007, 1006,  948
1684,  912,  908,  843
1685,  950,  949,  898
1686,  964,  961,  913
1687,  915,  914,  847
1688, 1008, 1000,  951
1689,  915,  847,  848
1690, 1088, 1042, 1087
1691,  916,  842,  839
1692, 1040,  980,  987
1693,  975,  917,  854
1694,  996,  932,  993
1695,  918,  850,  851
1696, 1027,  917,  975
1697,  919,  882,  185
1698,  925,  186,  187
1699,  920,  191,  192
1700,  944,  920,  838
1701,  928,  922,  884
1702,  977,  882,  919
1703,  952,  946,  893
1704,  928,  884,  883
1705,  923,  189,  190
1706,  978,  881,  944
1707,  924,  187,  188
1708,  987,  927,  923
1709,  980,  924,  927
1710,  925,  919,  186
1711, 1038, 1022,  985
1712,  929,  886,  885
1713, 1051, 1049, 1025
1714, 1012,  968,  963
1715,  981,  928,  921
1716,  982,  928,  981
1717, 1080, 1035, 1036
1718,  983,  922,  982
1719, 1028,  985, 1022
1720,  930,  887,  926
1721,  931,  856,   94
1722,  935,   93,   92
1723,  937,  859,  858
1724,  933,  858,  857
1725,  936,  857,  856
1726, 1033,  936,  989
1727,  934,   92,   91
1728,  999,  991,  945
1729, 1093, 1053, 1090
1730,  935,  931,   93
1731,  989,  856,  931
1732, 1126, 1053, 1098
1733,  937,  932,  859
1734,  937,  858,  933
1735,  939,   90,   89
1736,  999,  945,  959
1737,  940,  939,   89
1738,  943,  940,  880
1739,  940,   89,   88
1740,  943,  880,  879
1741, 1031, 1030,  988
1742,  941,  861,  860
1743, 1031, 1027, 1030
1744,  942,  862,  861
1745,  945,  943,  904
1746,  943,  939,  940
1747,  944,  881,  920
1748,  962,  944,  838
1749,  959,  904,  890
1750,  958,  902,  957
1751,  963,  912,  961
1752,  946,  894,  893
1753,  947,  896,  895
1754,  948,  947,  895
1755,  948,  895,  894
1756, 1036, 1035,  982
1757,  949,  899,  898
1758,  950,  898,  896
1759, 1009,  947, 1006
1760, 1065, 1064, 1010
1761,  966,  965,  914
1762,  951,  897,  899
1763, 1022,  900,  960
1764,  984,  929,  983
1765,  953,  903,  892
1766,  956,  892,  901
1767,  954,  901,  897
1768, 1056, 1054, 1000
1769, 1053, 1005, 1002
1770,  955,  891,  903
1771,  956,  953,  892
1772,  956,  901,  954
1773, 1001,  957,  955
1774,  957,  902,  891
1775, 1002,  957, 1001
1776,  958,  890,  902
1777,  959,  945,  904
1778,  959,  890,  958
1779,  960,  900,  864
1780,  976,  960,  889
1781,  961,  912,  913
1782,  964,  913,  909
1783,  962,  838,  120
1784,  962,  120,  119
1785, 1084, 1040, 1079
1786,  963,  908,  912
1787,  965,  909,  914
1788, 1020, 1019,  961
1789,  966,  914,  915
1790, 1021,  965, 1015
1791,  969,  915,  906
1792, 1160, 1125, 1152
1793,  967,  906,  907
1794, 1042,  993,  995
1795, 1013,  968, 1012
1796,  968,  916,  908
1797,  969,  966,  915
1798,  969,  906,  967
1799,  972,  918,  905
1800,  993,  932,  937
1801,  971,  905,  917
1802,  997,  941,  996
1803,  972,  970,  918
1804,  972,  905,  971
1805,  987,  923,  978
1806,  973,  910,  916
1807,  974,  911,  841
1808, 1026,  910,  973
1809,  975,  854,  855
1810, 1030, 1027,  975
1811,  976,  889,  863
1812, 1050,  976,  863
1813,  977,  921,  882
1814,  986,  919,  925
1815,  980,  979,  924
1816,  978,  923,  881
1817,  979,  925,  924
1818, 1052, 1013, 1012
1819,  987,  980,  927
1820, 1117, 1036, 1077
1821, 1011, 1007,  946
1822, 1029,  921,  977
1823, 1082, 1011, 1074
1824,  982,  922,  928
1825, 1081, 1037, 1035
1826,  983,  929,  922
1827, 1082, 1074, 1038
1828,  984,  926,  929
1829,  985,  930,  926
1830,  985,  926,  984
1831,  986,  977,  919
1832,  986,  925,  979
1833, 1094, 1051, 1026
1834, 1040, 1034,  980
1835,  988,  852,  840
1836,  988,  862,  942
1837,  989,  936,  856
1838,  998,  931,  935
1839,  990,  935,  934
1840, 1043,  992,  999
1841,  991,  938,  939
1842,  991,  939,  943
1843,  992,  990,  934
1844,  992,  938,  991
1845,  995,  937,  933
1846, 1161, 1136, 1138
1847,  994,  933,  936
1848, 1136, 1126, 1098
1849,  995,  993,  937
1850,  995,  933,  994
1851, 1045,  993, 1042
1852,  996,  941,  932
1853, 1076, 1027, 1031
1854,  997,  942,  941
1855,  998,  989,  931
1856,  998,  935,  990
1857, 1005,  959,  958
1858, 1136, 1098, 1101
1859, 1000,  954,  951
1860, 1008,  951,  949
1861, 1004,  955,  953
1862, 1139, 1103, 1134
1863, 1098, 1053, 1057
1864, 1002,  958,  957
1865, 1016, 1015,  966
1866, 1003,  956,  954
1867, 1004, 1001,  955
1868, 1014, 1004,  953
1869, 1005,  999,  959
1870, 1005,  958, 1002
1871, 1006,  947,  948
1872, 1007,  948,  946
1873, 1011,  946,  952
1874, 1035,  983,  982
1875, 1010,  949,  950
1876, 1108, 1063, 1097
1877, 1009,  950,  947
1878, 1066, 1065, 1009
1879, 1010, 1008,  949
1880, 1010,  950, 1009
1881, 1074, 1022, 1038
1882, 1037,  983, 1035
1883, 1019,  963,  961
1884, 1019, 1012,  963
1885, 1040,  987, 1032
1886, 1013,  973,  968
1887, 1014,  953,  956
1888, 1061, 1003, 1054
1889, 1015,  965,  966
1890, 1016,  966,  969
1891, 1023,  969,  967
1892, 1145, 1107, 1127
1893, 1018,  970, 1017
1894, 1017,  970,  972
1895, 1144, 1105, 1113
1896, 1018,  967,  970
1897, 1020,  961,  964
1898, 1058, 1052, 1012
1899, 1021, 1020,  964
1900, 1072, 1021, 1063
1901, 1021,  964,  965
1902, 1063, 1015, 1060
1903, 1022,  952,  900
1904, 1028, 1022,  960
1905, 1023, 1016,  969
1906, 1023,  967, 1018
1907, 1150, 1031,  997
1908, 1046,  996, 1045
1909, 1025,  944,  962
1910, 1025,  962,  911
1911, 1026,  974,  910
1912, 1075,  973, 1013
1913, 1027,  971,  917
1914, 1030,  975,  852
1915, 1028,  960,  976
1916, 1028,  930,  985
1917, 1029,  981,  921
1918, 1041,  977,  986
1919, 1030,  852,  988
1920, 1031,  988,  942
1921, 1031,  942,  997
1922, 1150, 1076, 1031
1923, 1032,  987,  978
1924, 1049, 1032,  978
1925, 1033,  994,  936
1926, 1048,  989,  998
1927, 1039,  979, 1034
1928, 1034,  979,  980
1929, 1036,  982,  981
1930, 1077,  981, 1029
1931, 1162, 1119, 1151
1932, 1110, 1067, 1099
1933, 1082, 1055, 1011
1934, 1037,  984,  983
1935, 1038,  985,  984
1936, 1038,  984, 1037
1937, 1084, 1034, 1040
1938, 1039,  986,  979
1939, 1123, 1084, 1121
1940, 1084, 1083, 1034
1941, 1041, 1029,  977
1942, 1041,  986, 1039
1943, 1044,  995,  994
1944, 1044, 1042,  995
1945, 1047,  990, 1043
1946, 1043,  990,  992
1947, 1078,  994, 1033
1948, 1059, 1057, 1001
1949, 1089, 1046, 1045
1950, 1045,  996,  993
1951, 1150, 1116, 1076
1952, 1046,  997,  996
1953, 1093, 1043,  999
1954, 1047,  998,  990
1955, 1048, 1033,  989
1956, 1048,  998, 1047
1957, 1049,  978,  944
1958, 1051, 1025,  974
1959, 1050,  863,  177
1960, 1050,  178,  888
1961, 1094, 1079, 1032
1962, 1051, 1032, 1049
1963, 1155, 1123, 1154
1964, 1058, 1012, 1019
1965, 1057, 1002, 1001
1966, 1057, 1053, 1002
1967, 1054, 1003, 1000
1968, 1056, 1000, 1008
1969, 1067, 1007, 1055
1970, 1055, 1007, 1011
1971, 1064, 1008, 1010
1972, 1176, 1135, 1170
1973, 1059, 1001, 1004
1974, 1136, 1129, 1126
1975, 1073, 1019, 1020
1976, 1142, 1110, 1137
1977, 1062, 1004, 1014
1978, 1125, 1088, 1087
1979, 1060, 1015, 1016
1980, 1070, 1016, 1023
1981, 1061, 1014, 1003
1982, 1103, 1054, 1096
1983, 1062, 1059, 1004
1984, 1062, 1014, 1061
1985, 1181, 1142, 1165
1986, 1063, 1021, 1015
1987, 1064, 1056, 1008
1988, 1065, 1010, 1009
1989, 1066, 1009, 1006
1990, 1102, 1095, 1058
1991, 1067, 1066, 1006
1992, 1165, 1137, 1162
1993, 1067, 1006, 1007
1994, 1207, 1155, 1149
1995, 1069, 1017, 1068
1996, 1068, 1017, 1024
1997, 1167, 1163, 1132
1998, 1069, 1018, 1017
1999, 1070, 1060, 1016
2000, 1071, 1070, 1023
2001, 1071, 1023, 1018
2002, 1112, 1069, 1107
2003, 1146, 1108, 1133
2004, 1072, 1020, 1021
2005, 1073, 1058, 1019
2006, 1073, 1020, 1072
2007, 1074, 1011,  952
2008, 1074,  952, 1022
2009, 1075, 1026,  973
2010, 1115, 1013, 1052
2011, 1076, 1024,  971
2012, 1076,  971, 1027
2013, 1077, 1036,  981
2014, 1086, 1029, 1041
2015, 1078, 1044,  994
2016, 1092, 1033, 1048
2017, 1079, 1040, 1032
2018, 1094, 1032, 1051
2019, 1120, 1099, 1055
2020, 1119, 1081, 1080
2021, 1120, 1082, 1081
2022, 1081, 1035, 1080
2023, 1082, 1038, 1037
2024, 1082, 1037, 1081
2025, 1085, 1039, 1083
2026, 1083, 1039, 1034
2027, 1121, 1075, 1115
2028, 1123, 1122, 1083
2029, 1156, 1124, 1153
2030, 1085, 1041, 1039
2031, 1086, 1077, 1029
2032, 1086, 1041, 1085
2033, 1168, 1107, 1068
2034, 1118, 1044, 1078
2035, 1127, 1089, 1088
2036, 1088, 1045, 1042
2037, 1168, 1116, 1089
2038, 1089, 1045, 1088
2039, 1091, 1047, 1090
2040, 1090, 1047, 1043
2041, 1126, 1090, 1053
2042, 1091, 1048, 1047
2043, 1092, 1078, 1033
2044, 1092, 1048, 1091
2045, 1093,  999, 1005
2046, 1093, 1005, 1053
2047, 1094, 1026, 1075
2048, 1121, 1094, 1075
2049, 1095, 1052, 1058
2050, 1102, 1058, 1073
2051, 1096, 1054, 1056
2052, 1104, 1056, 1064
2053, 1097, 1063, 1060
2054, 1105, 1060, 1070
2055, 1101, 1057, 1059
2056, 1159, 1130, 1158
2057, 1099, 1067, 1055
2058, 1169, 1165, 1162
2059, 1100, 1059, 1062
2060, 1106, 1062, 1061
2061, 1101, 1098, 1057
2062, 1101, 1059, 1100
2063, 1114, 1073, 1072
2064, 1205, 1194, 1204
2065, 1103, 1061, 1054
2066, 1135, 1134, 1096
2067, 1104, 1096, 1056
2068, 1111, 1064, 1065
2069, 1105, 1097, 1060
2070, 1113, 1070, 1071
2071, 1106, 1100, 1062
2072, 1106, 1061, 1103
2073, 1107, 1069, 1068
2074, 1171, 1127, 1125
2075, 1108, 1072, 1063
2076, 1133, 1097, 1132
2077, 1109, 1065, 1066
2078, 1110, 1109, 1066
2079, 1110, 1066, 1067
2080, 1137, 1099, 1119
2081, 1111, 1104, 1064
2082, 1111, 1065, 1109
2083, 1172, 1167, 1144
2084, 1112, 1071, 1069
2085, 1113, 1105, 1070
2086, 1113, 1071, 1112
2087, 1114, 1102, 1073
2088, 1114, 1072, 1108
2089, 1115, 1075, 1013
2090, 1149, 1052, 1095
2091, 1116, 1024, 1076
2092, 1116, 1046, 1089
2093, 1117, 1080, 1036
2094, 1128, 1077, 1086
2095, 1118, 1087, 1044
2096, 1130, 1078, 1092
2097, 1120, 1119, 1099
2098, 1151, 1080, 1117
2099, 1120, 1055, 1082
2100, 1120, 1081, 1119
2101, 1121, 1084, 1079
2102, 1121, 1079, 1094
2103, 1122, 1085, 1083
2104, 1123, 1083, 1084
2105, 1154, 1121, 1115
2106, 1155, 1154, 1149
2107, 1169, 1162, 1151
2108, 1124, 1086, 1085
2109, 1152, 1087, 1118
2110, 1184, 1159, 1158
2111, 1129, 1091, 1126
2112, 1126, 1091, 1090
2113, 1168, 1127, 1107
2114, 1127, 1088, 1125
2115, 1128, 1117, 1077
2116, 1128, 1086, 1124
2117, 1130, 1092, 1129
2118, 1129, 1092, 1091
2119, 1158, 1129, 1136
2120, 1130, 1118, 1078
2121, 1131, 1095, 1102
2122, 1141, 1102, 1114
2123, 1208, 1198, 1173
2124, 1132, 1097, 1105
2125, 1194, 1180, 1188
2126, 1133, 1108, 1097
2127, 1134, 1103, 1096
2128, 1135, 1096, 1104
2129, 1143, 1104, 1111
2130, 1170, 1143, 1164
2131, 1138, 1101, 1100
2132, 1138, 1136, 1101
2133, 1137, 1110, 1099
2134, 1151, 1119, 1080
2135, 1140, 1100, 1106
2136, 1206, 1192, 1203
2137, 1139, 1106, 1103
2138, 1192, 1177, 1189
2139, 1140, 1138, 1100
2140, 1140, 1106, 1139
2141, 1141, 1131, 1102
2142, 1146, 1141, 1114
2143, 1178, 1141, 1175
2144, 1142, 1109, 1110
2145, 1143, 1135, 1104
2146, 1147, 1143, 1111
2147, 1144, 1132, 1105
2148, 1148, 1113, 1112
2149, 1145, 1112, 1107
2150, 1179, 1172, 1148
2151, 1146, 1114, 1108
2152, 1180, 1133, 1163
2153, 1147, 1111, 1109
2154, 1186, 1181, 1165
2155, 1148, 1144, 1113
2156, 1148, 1112, 1145
2157, 1149, 1115, 1052
2158, 1207, 1131, 1199
2159, 1150,  997, 1046
2160, 1150, 1046, 1116
2161, 1157, 1117, 1128
2162, 1182, 1153, 1166
2163, 1152, 1125, 1087
2164, 1159, 1118, 1130
2165, 1153, 1124, 1122
2166, 1155, 1122, 1123
2167, 1154, 1123, 1121
2168, 1154, 1115, 1149
2169, 1207, 1166, 1155
2170, 1155, 1153, 1122
2171, 1199, 1131, 1178
2172, 1156, 1128, 1124
2173, 1157, 1151, 1117
2174, 1157, 1128, 1156
2175, 1158, 1130, 1129
2176, 1161, 1158, 1136
2177, 1184, 1158, 1161
2178, 1159, 1152, 1118
2179, 1179, 1145, 1171
2180, 1173, 1152, 1159
2181, 1185, 1138, 1140
2182, 1195, 1184, 1185
2183, 1162, 1137, 1119
2184, 1169, 1151, 1157
2185, 1163, 1133, 1132
2186, 1167, 1132, 1144
2187, 1197, 1181, 1186
2188, 1164, 1143, 1147
2189, 1210, 1169, 1183
2190, 1165, 1142, 1137
2191, 1205, 1196, 1197
2192, 1166, 1153, 1155
2193, 1172, 1144, 1148
2194, 1203, 1189, 1202
2195, 1168, 1068, 1116
2196, 1168, 1089, 1127
2197, 1183, 1157, 1156
2198, 1209, 1201, 1200
2199, 1202, 1189, 1190
2200, 1170, 1135, 1143
2201, 1171, 1145, 1127
2202, 1171, 1125, 1160
2203, 1179, 1148, 1145
2204, 1198, 1179, 1160
2205, 1173, 1160, 1152
2206, 1185, 1140, 1174
2207, 1174, 1140, 1139
2208, 1177, 1139, 1134
2209, 1175, 1141, 1146
2210, 1180, 1175, 1146
2211, 1190, 1189, 1176
2212, 1176, 1134, 1135
2213, 1177, 1174, 1139
2214, 1177, 1134, 1176
2215, 1209, 1199, 1178
2216, 1178, 1131, 1141
2217, 1179, 1171, 1160
2218, 1198, 1160, 1173
2219, 1180, 1146, 1133
2220, 1188, 1163, 1187
2221, 1181, 1164, 1147
2222, 1181, 1147, 1142
2223, 1182, 1156, 1153
2224, 1199, 1182, 1166
2225, 1183, 1169, 1157
2226, 1183, 1156, 1182
2227, 1184, 1173, 1159
2228, 1185, 1184, 1161
2229, 1185, 1161, 1138
2230, 1195, 1185, 1174
2231, 1186, 1165, 1169
2232, 1210, 1200, 1201
2233, 1187, 1163, 1167
2234, 1193, 1167, 1172
2235, 1205, 1197, 1201
2236, 1188, 1180, 1163
2237, 1189, 1177, 1176
2238, 1190, 1176, 1170
2239, 1196, 1170, 1164
2240, 1204, 1202, 1190
2241, 1191, 1178, 1175
2242, 1194, 1191, 1175
2243, 1206, 1203, 1193
2244, 1192, 1174, 1177
2245, 1193, 1187, 1167
2246, 1198, 1193, 1172
2247, 1194, 1175, 1180
2248, 1204, 1188, 1202
2249, 1208, 1184, 1195
2250, 1195, 1174, 1192
2251, 1196, 1190, 1170
2252, 1197, 1196, 1164
2253, 1197, 1164, 1181
2254, 1201, 1197, 1186
2255, 1198, 1172, 1179
2256, 1208, 1206, 1198
2257, 1207, 1199, 1166
2258, 1209, 1200, 1199
2259, 1200, 1183, 1182
2260, 1200, 1182, 1199
2261, 1210, 1201, 1186
2262, 1205, 1204, 1196
2263, 1202, 1188, 1187
2264, 1203, 1202, 1187
2265, 1203, 1192, 1189
2266, 1203, 1187, 1193
2267, 1204, 1190, 1196
2268, 1204, 1194, 1188
2269, 1205, 1201, 1191
2270, 1205, 1191, 1194
2271, 1206, 1193, 1198
2272, 1206, 1195, 1192
2273, 1207, 1149, 1095
2274, 1207, 1095, 1131
2275, 1208, 1173, 1184
2276, 1208, 1195, 1206
2277, 1209, 1178, 1191
2278, 1209, 1191, 1201
2279, 1210, 1186, 1169
2280, 1210, 1183, 1200
*Orientation, name=Ori-1
1., 0., 0., 0., 1., 0.
3, 0.
** Region: (CompositeLayup-1-1: Generated From Layup)
*Elset, elset=CompositeLayup-1-1, generate
    1,  2280,     1
** Section: CompositeLayup-1-1
*Shell Section, elset=CompositeLayup-1-1, composite, orientation=Ori-1, layup=CompositeLayup-1, symmetric
0.25, 3, CFRP, 0., Ply-1
0.25, 3, CFRP, 45., Ply-2
0.25, 3, CFRP, 90., Ply-3
0.25, 3, CFRP, -45., Ply-4
*End Part
**  
**
** ASSEMBLY
**
*Assembly, name=Assembly
**  
*Instance, name=Plate-1, part=PLATE
*End Instance
**  
*Nset, nset=Set-1, instance=Plate-1
   6,   7,  12,  75,  76,  77,  78,  79,  80,  81,  82,  83,  84,  85,  86,  87
 157, 158, 159, 160, 161, 162, 163, 164, 165, 166, 167, 168, 169, 170, 171, 172
 173, 174, 175, 176
*Elset, elset=Set-1, instance=Plate-1
  390,  391,  406,  412,  470,  472,  474,  478,  480,  482,  484,  486,  488,  490, 1485, 1486
 1499, 1586, 1587, 1588, 1590, 1592, 1594, 1596, 1598, 1600, 1602, 1604, 1606, 1608, 1610, 1612
 1614, 1616, 1618
*Nset, nset=Set-2, instance=Plate-1
   4,   5,  11,  35,  36,  37,  38,  39,  40,  41,  42,  43,  44,  45,  46,  47
 133, 134, 135, 136, 137, 138, 139, 140, 141, 142, 143, 144, 145, 146, 147, 148
 149, 150, 151, 152
*Elset, elset=Set-2, instance=Plate-1
   17,   26,   38,   88,   91,   93,   95,   97,   99,  101,  103,  105,  107,  155,  928,  939
  958, 1000, 1003, 1005, 1007, 1009, 1011, 1013, 1015, 1017, 1019, 1021, 1023, 1025, 1027, 1029
 1031, 1033, 1090
*End Assembly
** 
** MATERIALS
** 
*Material, name=CFRP
*Elastic, type=ENGINEERING CONSTANTS
150000.,9000.,9000., 0.34, 0.34,  0.4,5000.,5000.
5000.,
** ----------------------------------------------------------------
** 
** STEP: Step-1
** 
*Step, name=Step-1, nlgeom=NO
*Static
1., 1., 1e-05, 1.
** 
** BOUNDARY CONDITIONS
** 
** Name: BC-1 Type: Symmetry/Antisymmetry/Encastre
*Boundary
Set-1, ENCASTRE
** Name: DISPLACEMENT Type: Displacement/Rotation
*Boundary
Set-2, 1, 1, 1.10526
** 
** OUTPUT REQUESTS
** 
*Restart, write, frequency=0
** 
** FIELD OUTPUT: F-Output-1
** 
*Output, field
*Element Output, position=NODES, directions=YES
E, 
** 
** HISTORY OUTPUT: H-Output-1
** 
*Output, history, variable=PRESELECT
*End Step
