*Heading
** Job name: Plate_nonlinear_399 Model name: Model-1
** Generated by: Abaqus/CAE 2024.HF3
*Preprint, echo=NO, model=NO, history=NO, contact=NO
**
** PARTS
**
*Part, name=PLATE
*Node
      1,   111.305267,   197.400131,           0.
      2,   111.305267,   136.290161,           0.
      3,   125.865349,    121.73008,           0.
      4,   180.495026,    121.73008,           0.
      5,   180.495026,   197.400131,           0.
      6,           0.,   197.400131,           0.
      7,           0.,    121.73008,           0.
      8,   96.7451782,    121.73008,           0.
      9,   111.305267,   107.169998,           0.
     10,   111.305267,           0.,           0.
     11,   180.495026,           0.,           0.
     12,           0.,           0.,           0.
     13,   111.305267,   191.289139,           0.
     14,   111.305267,   185.178146,           0.
     15,   111.305267,   179.067139,           0.
     16,   111.305267,   172.956146,           0.
     17,   111.305267,   166.845154,           0.
     18,   111.305267,   160.734161,           0.
     19,   111.305267,   154.623154,           0.
     20,   111.305267,   148.512161,           0.
     21,   111.305267,   142.401169,           0.
     22,   116.877167,   135.181854,           0.
     23,     121.6008,    132.02562,           0.
     24,   124.757027,   127.301987,           0.
     25,   131.935318,    121.73008,           0.
     26,    138.00528,    121.73008,           0.
     27,   144.075241,    121.73008,           0.
     28,   150.145203,    121.73008,           0.
     29,   156.215164,    121.73008,           0.
     30,   162.285126,    121.73008,           0.
     31,   168.355103,    121.73008,           0.
     32,   174.425064,    121.73008,           0.
     33,   180.495026,   127.550858,           0.
     34,   180.495026,   133.371628,           0.
     35,   180.495026,   139.192398,           0.
     36,   180.495026,   145.013168,           0.
     37,   180.495026,   150.833954,           0.
     38,   180.495026,   156.654724,           0.
     39,   180.495026,   162.475494,           0.
     40,   180.495026,   168.296265,           0.
     41,   180.495026,   174.117035,           0.
     42,   180.495026,    179.93782,           0.
     43,   180.495026,   185.758591,           0.
     44,   180.495026,   191.579361,           0.
     45,   174.729218,   197.400131,           0.
     46,   168.963394,   197.400131,           0.
     47,   163.197586,   197.400131,           0.
     48,   157.431778,   197.400131,           0.
     49,   151.665955,   197.400131,           0.
     50,   145.900146,   197.400131,           0.
     51,   140.134338,   197.400131,           0.
     52,   134.368515,   197.400131,           0.
     53,   128.602707,   197.400131,           0.
     54,   122.836891,   197.400131,           0.
     55,   117.071075,   197.400131,           0.
     56,    105.44709,   197.400131,           0.
     57,   99.5889206,   197.400131,           0.
     58,    93.730751,   197.400131,           0.
     59,   87.8725739,   197.400131,           0.
     60,   82.0144043,   197.400131,           0.
     61,   76.1562347,   197.400131,           0.
     62,   70.2980652,   197.400131,           0.
     63,    64.439888,   197.400131,           0.
     64,   58.5817184,   197.400131,           0.
     65,   52.7235451,   197.400131,           0.
     66,   46.8653755,   197.400131,           0.
     67,   41.0072021,   197.400131,           0.
     68,   35.1490326,   197.400131,           0.
     69,   29.2908592,   197.400131,           0.
     70,   23.4326878,   197.400131,           0.
     71,   17.5745163,   197.400131,           0.
     72,   11.7163439,   197.400131,           0.
     73,   5.85817194,   197.400131,           0.
     74,           0.,   191.579361,           0.
     75,           0.,   185.758591,           0.
     76,           0.,    179.93782,           0.
     77,           0.,   174.117035,           0.
     78,           0.,   168.296265,           0.
     79,           0.,   162.475494,           0.
     80,           0.,   156.654724,           0.
     81,           0.,   150.833954,           0.
     82,           0.,   145.013168,           0.
     83,           0.,   139.192398,           0.
     84,           0.,   133.371628,           0.
     85,           0.,   127.550858,           0.
     86,   6.04657364,    121.73008,           0.
     87,   12.0931473,    121.73008,           0.
     88,   18.1397209,    121.73008,           0.
     89,   24.1862946,    121.73008,           0.
     90,   30.2328682,    121.73008,           0.
     91,   36.2794418,    121.73008,           0.
     92,   42.3260155,    121.73008,           0.
     93,   48.3725891,    121.73008,           0.
     94,   54.4191628,    121.73008,           0.
     95,   60.4657364,    121.73008,           0.
     96,   66.5123062,    121.73008,           0.
     97,   72.5588837,    121.73008,           0.
     98,   78.6054535,    121.73008,           0.
     99,   84.6520309,    121.73008,           0.
    100,   90.6986008,    121.73008,           0.
    101,   97.8535004,   127.301987,           0.
    102,   101.009727,    132.02562,           0.
    103,    105.73336,   135.181854,           0.
    104,   111.305267,    101.21611,           0.
    105,   111.305267,   95.2622223,           0.
    106,   111.305267,   89.3083267,           0.
    107,   111.305267,   83.3544388,           0.
    108,   111.305267,   77.4005508,           0.
    109,   111.305267,   71.4466629,           0.
    110,   111.305267,    65.492775,           0.
    111,   111.305267,    59.538887,           0.
    112,   111.305267,   53.5849991,           0.
    113,   111.305267,   47.6311111,           0.
    114,   111.305267,   41.6772194,           0.
    115,   111.305267,   35.7233315,           0.
    116,   111.305267,   29.7694435,           0.
    117,   111.305267,   23.8155556,           0.
    118,   111.305267,   17.8616657,           0.
    119,   111.305267,   11.9077778,           0.
    120,   111.305267,   5.95388889,           0.
    121,   117.071075,           0.,           0.
    122,   122.836891,           0.,           0.
    123,   128.602707,           0.,           0.
    124,   134.368515,           0.,           0.
    125,   140.134338,           0.,           0.
    126,   145.900146,           0.,           0.
    127,   151.665955,           0.,           0.
    128,   157.431778,           0.,           0.
    129,   163.197586,           0.,           0.
    130,   168.963394,           0.,           0.
    131,   174.729218,           0.,           0.
    132,   180.495026,   5.79667044,           0.
    133,   180.495026,   11.5933409,           0.
    134,   180.495026,   17.3900108,           0.
    135,   180.495026,   23.1866817,           0.
    136,   180.495026,   28.9833527,           0.
    137,   180.495026,   34.7800217,           0.
    138,   180.495026,   40.5766945,           0.
    139,   180.495026,   46.3733635,           0.
    140,   180.495026,   52.1700363,           0.
    141,   180.495026,   57.9667053,           0.
    142,   180.495026,   63.7633781,           0.
    143,   180.495026,   69.5600433,           0.
    144,   180.495026,     75.35672,           0.
    145,   180.495026,    81.153389,           0.
    146,   180.495026,    86.950058,           0.
    147,   180.495026,    92.746727,           0.
    148,   180.495026,   98.5434036,           0.
    149,   180.495026,   104.340073,           0.
    150,   180.495026,   110.136742,           0.
    151,   180.495026,   115.933411,           0.
    152,   124.757027,    116.15818,           0.
    153,     121.6008,   111.434547,           0.
    154,   116.877167,   108.278313,           0.
    155,    105.73336,   108.278313,           0.
    156,   101.009727,   111.434547,           0.
    157,   97.8535004,    116.15818,           0.
    158,           0.,   115.933411,           0.
    159,           0.,   110.136742,           0.
    160,           0.,   104.340073,           0.
    161,           0.,   98.5434036,           0.
    162,           0.,    92.746727,           0.
    163,           0.,    86.950058,           0.
    164,           0.,    81.153389,           0.
    165,           0.,     75.35672,           0.
    166,           0.,   69.5600433,           0.
    167,           0.,   63.7633781,           0.
    168,           0.,   57.9667053,           0.
    169,           0.,   52.1700363,           0.
    170,           0.,   46.3733635,           0.
    171,           0.,   40.5766945,           0.
    172,           0.,   34.7800217,           0.
    173,           0.,   28.9833527,           0.
    174,           0.,   23.1866817,           0.
    175,           0.,   17.3900108,           0.
    176,           0.,   11.5933409,           0.
    177,           0.,   5.79667044,           0.
    178,   5.85817194,           0.,           0.
    179,   11.7163439,           0.,           0.
    180,   17.5745163,           0.,           0.
    181,   23.4326878,           0.,           0.
    182,   29.2908592,           0.,           0.
    183,   35.1490326,           0.,           0.
    184,   41.0072021,           0.,           0.
    185,   46.8653755,           0.,           0.
    186,   52.7235451,           0.,           0.
    187,   58.5817184,           0.,           0.
    188,    64.439888,           0.,           0.
    189,   70.2980652,           0.,           0.
    190,   76.1562347,           0.,           0.
    191,   82.0144043,           0.,           0.
    192,   87.8725739,           0.,           0.
    193,    93.730751,           0.,           0.
    194,   99.5889206,           0.,           0.
    195,    105.44709,           0.,           0.
    196,   122.618279,   137.248993,           0.
    197,   129.322769,   126.898186,           0.
    198,   116.613525,     176.0952,           0.
    199,   116.581055,   169.912399,           0.
    200,   116.568748,   163.789352,           0.
    201,   116.548431,   157.681778,           0.
    202,   116.475746,   151.646149,           0.
    203,   116.510132,   145.747803,           0.
    204,   116.734657,   140.016754,           0.
    205,   126.511086,   132.065918,           0.
    206,   147.092484,   126.937302,           0.
    207,    141.05545,   126.854248,           0.
    208,    135.03009,   126.819862,           0.
    209,   175.312302,   182.857147,           0.
    210,   175.370377,   177.058243,           0.
    211,   175.424042,   171.216736,           0.
    212,   175.440063,    165.38797,           0.
    213,    175.44249,    159.56575,           0.
    214,   175.440857,   153.745041,           0.
    215,   175.435455,   147.924988,           0.
    216,   175.373398,   142.084213,           0.
    217,   175.163925,   136.047501,           0.
    218,    175.07785,   129.677078,           0.
    219,   119.223763,    192.01976,           0.
    220,   125.519203,   192.091827,           0.
    221,    143.01297,   192.379959,           0.
    222,   148.780151,    192.38327,           0.
    223,    154.54866,   192.386597,           0.
    224,   160.330093,   192.346436,           0.
    225,   166.320969,   192.180649,           0.
    226,    172.63916,   192.147934,           0.
    227,   137.255585,   192.370468,           0.
    228,   131.472992,   192.285446,           0.
    229,   145.893112,   187.338272,           0.
    230,   151.675217,   187.349716,           0.
    231,   157.469437,   187.329132,           0.
    232,   163.365677,   187.198349,           0.
    233,   170.327744,    145.06459,           0.
    234,   175.738464,   187.753601,           0.
    235,   170.375443,   168.305496,           0.
    236,    170.38324,   156.657486,           0.
    237,   170.139328,   180.085144,           0.
    238,   170.152679,   174.214096,           0.
    239,   170.382263,   162.478607,           0.
    240,   170.367188,   150.847992,           0.
    241,   170.150208,   139.242615,           0.
    242,   153.216583,   127.037331,           0.
    243,   159.391312,   127.170197,           0.
    244,   170.535141,   126.600739,           0.
    245,    165.41069,   127.088829,           0.
    246,   143.986221,   132.031631,           0.
    247,   137.885376,   131.972885,           0.
    248,   121.730339,   148.894836,           0.
    249,    121.79641,   166.806534,           0.
    250,   121.777527,   160.725174,           0.
    251,   116.596329,   182.227631,           0.
    252,   121.760437,   154.754959,           0.
    253,    121.92469,   173.038986,           0.
    254,    121.77964,   143.246078,           0.
    255,   132.046432,    131.98642,           0.
    256,   122.055855,   186.048782,           0.
    257,   169.898834,    186.40683,           0.
    258,    169.21608,   132.655426,           0.
    259,   126.219719,    141.20105,           0.
    260,   134.346832,   187.192474,           0.
    261,   134.621902,   137.180435,           0.
    262,   160.554199,    182.36969,           0.
    263,   154.704971,   182.321045,           0.
    264,   148.879105,   182.288528,           0.
    265,   128.503494,   186.941849,           0.
    266,   165.406113,    137.09259,           0.
    267,   165.647659,   182.692017,           0.
    268,   140.110031,   187.276382,           0.
    269,   165.309906,   153.758743,           0.
    270,   165.318604,   159.571228,           0.
    271,   165.320084,   165.393494,           0.
    272,   165.152084,     171.1194,           0.
    273,   164.284073,   177.275223,           0.
    274,   165.271271,   147.988968,           0.
    275,   165.169144,   142.161041,           0.
    276,   150.111557,   132.248505,           0.
    277,   162.595245,   132.529465,           0.
    278,   140.674789,   137.263962,           0.
    279,   156.349182,   132.518219,           0.
    280,   121.858742,   179.318344,           0.
    281,   116.097298,   187.352692,           0.
    282,   127.047478,   169.749405,           0.
    283,   126.987701,   163.705902,           0.
    284,   127.081924,   151.736389,           0.
    285,    126.99128,   157.728439,           0.
    286,   159.751968,   138.488342,           0.
    287,   128.834702,   136.991196,           0.
    288,   131.372726,   181.883728,           0.
    289,   137.205185,    181.96669,           0.
    290,   151.971725,   177.388657,           0.
    291,   160.205048,   150.803925,           0.
    292,   160.182678,   144.921661,           0.
    293,   126.298981,   182.116074,           0.
    294,   160.250763,    162.48587,           0.
    295,   160.237854,   156.663101,           0.
    296,   160.240524,   168.215408,           0.
    297,   160.502792,   173.152466,           0.
    298,   143.052048,   182.126083,           0.
    299,   146.867401,   137.555603,           0.
    300,   126.809685,   145.910278,           0.
    301,   127.782394,   176.372223,           0.
    302,   132.303436,   154.577789,           0.
    303,   153.100113,   137.843353,           0.
    304,   132.197784,   160.555725,           0.
    305,   132.134933,   166.658417,           0.
    306,    137.12294,   142.474319,           0.
    307,   131.110779,    141.97937,           0.
    308,   134.284119,   176.553146,           0.
    309,    140.40657,   176.707184,           0.
    310,   154.977249,   153.572037,           0.
    311,   155.123306,    147.64566,           0.
    312,   154.840988,   159.559616,           0.
    313,   154.793701,   165.556305,           0.
    314,   154.849899,   171.929642,           0.
    315,   146.328384,   177.281464,           0.
    316,   157.811279,   177.406113,           0.
    317,   133.067154,   148.025909,           0.
    318,   143.301941,   142.671738,           0.
    319,   137.552277,   157.226608,           0.
    320,   149.873718,   143.709824,           0.
    321,   137.654846,   163.475204,           0.
    322,   155.606354,   142.521759,           0.
    323,   144.382812,   172.079926,           0.
    324,   149.626495,   150.310776,           0.
    325,   149.148529,   156.500107,           0.
    326,   149.105087,    162.67337,           0.
    327,   149.318939,   168.618729,           0.
    328,   137.215759,   152.085205,           0.
    329,   137.717941,   170.510208,           0.
    330,   143.355896,   159.842819,           0.
    331,   139.868515,    147.61972,           0.
    332,    143.14975,   153.001617,           0.
    333,   149.370346,   173.459686,           0.
    334,   143.589249,   166.200043,           0.
    335,   145.164078,   147.462738,           0.
    336,   131.793365,   171.968689,           0.
    337,   106.073753,   157.679794,           0.
    338,   95.9375839,   132.093842,           0.
    339,   106.048676,   169.889893,           0.
    340,   106.062744,   163.781281,           0.
    341,   106.063683,   151.679459,           0.
    342,   106.013504,   145.785248,           0.
    343,   38.0763016,    192.32341,           0.
    344,   5.06239176,   147.920425,           0.
    345,   27.1992035,   126.954224,           0.
    346,    43.935051,    192.32132,           0.
    347,   55.6527634,   192.321014,           0.
    348,   51.3958893,   126.959007,           0.
    349,   73.2266388,   192.321518,           0.
    350,   79.0843124,   192.317825,           0.
    351,   84.9515457,   192.301849,           0.
    352,   90.9394836,   192.155045,           0.
    353,   97.0960922,   191.887207,           0.
    354,   103.468803,   191.818726,           0.
    355,   5.37124062,   129.673019,           0.
    356,    5.2973175,   136.008774,           0.
    357,   5.10758924,   142.048798,           0.
    358,   21.0654755,   126.994301,           0.
    359,    5.0565424,   153.744858,           0.
    360,   5.05197048,   159.565842,           0.
    361,   5.04885149,   165.386246,           0.
    362,   5.04750347,   171.206757,           0.
    363,   5.16178846,   177.174942,           0.
    364,   5.37714386,   183.326935,           0.
    365,   5.38827658,   189.659393,           0.
    366,   15.0325947,   126.976402,           0.
    367,   33.2541389,   126.955788,           0.
    368,   49.7940559,   192.320084,           0.
    369,   39.3023338,   126.957176,           0.
    370,   45.3492279,   126.957672,           0.
    371,   61.5111542,   192.321442,           0.
    372,   67.3691177,    192.32164,           0.
    373,   57.4425735,    126.95829,           0.
    374,   63.4897156,    126.95591,           0.
    375,   69.5379181,   126.947701,           0.
    376,   75.5863266,   126.931297,           0.
    377,    81.601265,   126.828163,           0.
    378,   87.5363998,   126.804924,           0.
    379,    93.201355,   126.932663,           0.
    380,   99.8348923,   137.283005,           0.
    381,   105.821434,    140.03598,           0.
    382,   10.1322947,   150.838394,           0.
    383,   10.3574581,   139.035233,           0.
    384,   10.1079445,   162.478439,           0.
    385,   10.1869869,   174.281189,           0.
    386,   10.3695669,   180.352295,           0.
    387,   10.1177197,   168.325058,           0.
    388,    10.210104,   144.928146,           0.
    389,   10.1207943,   156.660034,           0.
    390,   32.2182503,   192.325241,           0.
    391,   94.0604019,   186.795654,           0.
    392,   82.0210037,   187.205521,           0.
    393,   70.2967453,   187.236893,           0.
    394,   9.80128098,   192.786591,           0.
    395,    20.535059,   192.369766,           0.
    396,   26.3660927,   192.334213,           0.
    397,   41.0016899,     187.2397,           0.
    398,    52.723484,   187.235397,           0.
    399,   14.7448673,    192.38356,           0.
    400,   46.8623428,   187.235321,           0.
    401,   58.5828667,    187.23584,           0.
    402,   64.4406586,   187.236313,           0.
    403,   76.1539001,   187.225876,           0.
    404,   88.0143509,   187.068817,           0.
    405,    54.419651,   132.179565,           0.
    406,   42.3252831,   132.177048,           0.
    407,   66.5213394,   132.161987,           0.
    408,   30.2158737,   132.167679,           0.
    409,   17.8421841,   132.281357,           0.
    410,   24.0189247,   132.324707,           0.
    411,   60.4694061,   132.173126,           0.
    412,   72.5793686,   132.126373,           0.
    413,   36.2747078,   132.171524,           0.
    414,   48.3723907,   132.177521,           0.
    415,   78.6333847,   132.011917,           0.
    416,   84.5786285,   131.950485,           0.
    417,   106.110435,   175.988007,           0.
    418,   100.975342,   148.864136,           0.
    419,   100.840858,   166.784592,           0.
    420,   100.861877,   160.706619,           0.
    421,   106.599655,   187.210052,           0.
    422,   106.174202,   182.063568,           0.
    423,   100.941605,   154.704178,           0.
    424,   90.3605194,   131.964661,           0.
    425,   100.843468,   143.239075,           0.
    426,    11.183814,   186.961227,           0.
    427,   100.701828,   185.832169,           0.
    428,   93.4997406,    137.07579,           0.
    429,   87.6856995,   137.190399,           0.
    430,   15.1539049,   171.393051,           0.
    431,   15.1386976,   177.456421,           0.
    432,   15.1730242,   165.428833,           0.
    433,   15.1878481,   159.584671,           0.
    434,   15.2049751,   153.765015,           0.
    435,   15.2270288,   147.848541,           0.
    436,    15.262825,   141.945541,           0.
    437,   29.2870522,   187.252441,           0.
    438,   23.3820782,   187.125031,           0.
    439,   17.4989796,    187.16127,           0.
    440,   49.7902031,   182.142563,           0.
    441,   55.6535187,   182.141479,           0.
    442,   43.9250336,   182.152863,           0.
    443,   67.3676605,   182.143875,           0.
    444,   61.5125618,   182.141571,           0.
    445,   73.2194672,   182.135056,           0.
    446,   85.0935898,    182.00058,           0.
    447,   79.1118164,   182.093994,           0.
    448,   91.1313248,   181.811417,           0.
    449,   35.1428947,   187.244919,           0.
    450,   11.2603474,   132.483124,           0.
    451,   33.2046013,    137.37027,           0.
    452,   63.5085793,   137.369766,           0.
    453,   51.3961411,   137.389023,           0.
    454,     39.29002,   137.379196,           0.
    455,   45.3456345,   137.383728,           0.
    456,    57.449173,   137.383179,           0.
    457,   27.1188717,   137.468948,           0.
    458,   20.5869026,   138.272171,           0.
    459,   69.5854568,   137.323105,           0.
    460,   81.7128143,   137.167328,           0.
    461,   75.6844101,   137.233063,           0.
    462,   100.759796,    172.96048,           0.
    463,   95.4693375,   163.678558,           0.
    464,   95.6651306,   157.481613,           0.
    465,   96.0477753,   151.545319,           0.
    466,   100.856369,   179.178101,           0.
    467,   91.1804657,   142.897507,           0.
    468,   96.2523727,   146.049683,           0.
    469,    9.9607811,   126.518547,           0.
    470,   20.3934727,   150.819946,           0.
    471,    20.279253,    156.71077,           0.
    472,   20.2605362,   162.510971,           0.
    473,   20.3969135,   144.806488,           0.
    474,   20.2842484,    168.56163,           0.
    475,   20.1381989,   174.698395,           0.
    476,   14.8675652,   182.638397,           0.
    477,   88.2106781,   176.864914,           0.
    478,   70.2880936,   177.035767,           0.
    479,   76.1668549,   177.006805,           0.
    480,   32.1865997,   182.251007,           0.
    481,   26.4094448,   182.122986,           0.
    482,   20.2464924,   181.241013,           0.
    483,   64.4397278,   177.038605,           0.
    484,   46.8242302,   177.039703,           0.
    485,   52.7151337,   177.038071,           0.
    486,   58.5825462,   177.036865,           0.
    487,   82.1873322,   176.945709,           0.
    488,   38.0574417,   182.214966,           0.
    489,    15.061944,   136.803482,           0.
    490,   96.3267899,   181.984344,           0.
    491,   95.3266907,   169.806458,           0.
    492,   78.7947769,   142.361801,           0.
    493,   60.4932785,   142.571518,           0.
    494,   36.1785812,   142.538742,           0.
    495,   42.3009834,   142.571579,           0.
    496,   54.4266663,   142.583481,           0.
    497,   48.3671265,   142.580597,           0.
    498,   24.8618774,   142.168655,           0.
    499,   30.0966148,   142.478241,           0.
    500,   72.7136612,   142.443802,           0.
    501,   66.5933456,   142.520767,           0.
    502,   90.2681732,    153.54071,           0.
    503,   90.2114639,   160.212891,           0.
    504,    94.758667,   176.412354,           0.
    505,   84.8157425,   142.492752,           0.
    506,   87.5400085,    147.76825,           0.
    507,   25.3987389,    159.64238,           0.
    508,   25.6002846,   165.623657,           0.
    509,   25.5251007,   153.903168,           0.
    510,   26.3586407,   147.650421,           0.
    511,   26.0517635,   172.219727,           0.
    512,   73.2543106,   171.888794,           0.
    513,   67.3690491,   171.919067,           0.
    514,   34.8624306,   177.293808,           0.
    515,   85.3544006,   171.958237,           0.
    516,   29.2467651,   177.451248,           0.
    517,   79.3086624,   171.901443,           0.
    518,   61.5134048,   171.923431,           0.
    519,   49.6137619,   171.771637,           0.
    520,   55.6208038,   171.918213,           0.
    521,   40.7538261,   177.012711,           0.
    522,   89.3073502,   166.766693,           0.
    523,   57.5387993,   147.690826,           0.
    524,   51.4577446,   147.727585,           0.
    525,   39.2051239,   147.765823,           0.
    526,   45.3694038,   147.725449,           0.
    527,   33.0072899,   147.593231,           0.
    528,   75.9393616,   147.727661,           0.
    529,   63.6160011,   147.621674,           0.
    530,   69.7410965,   147.619965,           0.
    531,    85.024826,    157.09906,           0.
    532,   81.9143982,   147.629166,           0.
    533,   84.8637619,   151.937927,           0.
    534,   30.2922516,    151.83696,           0.
    535,    31.178215,   168.387222,           0.
    536,   30.7297668,   162.494431,           0.
    537,   30.5839729,   156.782181,           0.
    538,   70.2912598,   166.889786,           0.
    539,   76.4175949,   166.756897,           0.
    540,   64.3581696,   166.930634,           0.
    541,   82.6101379,   166.799911,           0.
    542,   36.9971581,   171.496979,           0.
    543,   24.4185333,   177.546677,           0.
    544,   58.4860191,   166.992447,           0.
    545,    52.588932,   166.841461,           0.
    546,   43.4976425,   171.766037,           0.
    547,   90.5915604,   172.361725,           0.
    548,   85.3849182,   162.361847,           0.
    549,   54.6799355,   152.670288,           0.
    550,   42.4343071,   152.957352,           0.
    551,   48.5979004,   152.904694,           0.
    552,   35.8831291,   153.392075,           0.
    553,   60.7151031,   152.568222,           0.
    554,   72.8142319,   152.733673,           0.
    555,     66.78302,   152.550705,           0.
    556,   79.3455811,   153.629028,           0.
    557,   79.5952606,   160.853989,           0.
    558,   35.9947929,   165.271255,           0.
    559,   35.6587639,   159.594772,           0.
    560,   73.0627441,   161.886383,           0.
    561,   67.1363907,   162.073822,           0.
    562,   61.2010117,   162.173981,           0.
    563,   40.6441727,   167.331558,           0.
    564,    55.430294,   162.225372,           0.
    565,   46.1416664,   165.854813,           0.
    566,   92.2577591,   148.360291,           0.
    567,   52.0899353,   157.697205,           0.
    568,   45.7694359,   158.759598,           0.
    569,   69.8014679,   157.324478,           0.
    570,   74.9238586,   157.285507,           0.
    571,    40.711628,    162.35585,           0.
    572,   31.6672668,   173.369797,           0.
    573,   40.0914536,   157.411926,           0.
    574,   96.3221893,   141.309006,           0.
    575,   50.4040527,   162.275696,           0.
    576,   58.0061684,    157.44873,           0.
    577,   63.9405251,   157.356659,           0.
    578,   116.454613,   56.5618935,           0.
    579,   126.963264,   110.280113,           0.
    580,    116.45092,   32.7486382,           0.
    581,   116.452278,   38.7013893,           0.
    582,    116.45298,   44.6542091,           0.
    583,   116.453262,   50.6079597,           0.
    584,   116.454422,   62.5158043,           0.
    585,   116.454262,   68.4697647,           0.
    586,   116.453079,   74.4239426,           0.
    587,   116.447334,    80.379425,           0.
    588,   116.434708,   86.3354263,           0.
    589,   116.545349,   92.1867523,           0.
    590,   116.658966,   98.0037079,           0.
    591,   148.785568,    5.0002079,           0.
    592,   143.019379,   5.00344229,           0.
    593,   137.253113,   5.00817394,           0.
    594,   131.464157,   5.06616592,           0.
    595,   125.477188,   5.26197672,           0.
    596,   119.172859,   5.32547808,           0.
    597,   175.127335,   113.814766,           0.
    598,    175.46521,    101.46402,           0.
    599,   175.470352,   95.6496735,           0.
    600,   175.470566,   89.8495941,           0.
    601,   175.469467,   84.0521545,           0.
    602,   175.468689,   78.2552185,           0.
    603,   175.468307,   72.4584503,           0.
    604,   175.467987,   66.6617355,           0.
    605,   175.467941,   60.8650436,           0.
    606,   175.468246,   55.0683632,           0.
    607,   175.468597,   49.2716179,           0.
    608,   175.469437,   43.4747581,           0.
    609,   175.471024,   37.6779327,           0.
    610,   175.471573,   31.8793564,           0.
    611,    175.46524,   26.0711002,           0.
    612,   175.359818,   20.1213036,           0.
    613,    175.17189,    13.998064,           0.
    614,   175.179535,   7.69383192,           0.
    615,   153.164963,   116.527527,           0.
    616,   147.099426,   116.539284,           0.
    617,   141.112579,   116.603188,           0.
    618,   135.272705,   116.548828,           0.
    619,   129.599716,   116.285522,           0.
    620,   121.868042,   106.350227,           0.
    621,   116.669373,   103.628738,           0.
    622,   154.550995,   4.99945164,           0.
    623,   170.837723,   4.57459736,           0.
    624,   134.414185,   10.0613194,           0.
    625,   160.279022,   4.96519852,           0.
    626,   145.904068,   10.0097189,           0.
    627,   140.149155,   10.0275545,           0.
    628,    128.63446,   10.2199593,           0.
    629,    165.96846,    4.9691782,           0.
    630,   175.223816,   107.506645,           0.
    631,   170.441574,   92.7507095,           0.
    632,   170.436447,   52.1697159,           0.
    633,   170.230804,   16.9975986,           0.
    634,   170.381104,   23.0058746,           0.
    635,   170.406723,   98.6105499,           0.
    636,   170.439514,   86.9522171,           0.
    637,   170.437408,   81.1544495,           0.
    638,   170.435928,   75.3571701,           0.
    639,   170.435074,   69.5602188,           0.
    640,   170.437607,   46.3722687,           0.
    641,   170.435242,   57.9666367,           0.
    642,    170.44075,    40.574604,           0.
    643,   170.434326,   63.7634163,           0.
    644,   170.443314,   34.7746162,           0.
    645,   170.434021,   28.9451771,           0.
    646,   116.546738,   26.7472076,           0.
    647,   121.637672,   89.2231293,           0.
    648,   121.586136,   77.4069672,           0.
    649,   121.593559,   41.6788406,           0.
    650,   121.597565,   65.4927826,           0.
    651,   121.596626,   53.5846291,           0.
    652,   116.601341,   14.7992105,           0.
    653,   116.651535,   20.7390099,           0.
    654,   121.741692,   95.0271149,           0.
    655,   116.091568,   9.81483555,           0.
    656,   121.593399,   71.4486618,           0.
    657,   121.596123,   59.5386848,           0.
    658,    121.59391,   47.6308022,           0.
    659,   121.588615,   35.7268677,           0.
    660,   121.579376,   83.3528748,           0.
    661,   159.336823,   116.483711,           0.
    662,   150.118851,   111.371376,           0.
    663,   165.425003,   116.499168,           0.
    664,   144.184509,   111.390022,           0.
    665,   138.416626,    111.36586,           0.
    666,   132.842087,   111.206161,           0.
    667,   122.102913,   11.1092396,           0.
    668,   169.458939,   10.3984661,           0.
    669,   130.969406,   106.502365,           0.
    670,   121.776955,   100.779236,           0.
    671,     126.4935,   14.8819084,           0.
    672,   157.398697,   10.1403027,           0.
    673,   163.193146,   10.1794147,           0.
    674,   143.039688,   15.0504246,           0.
    675,   137.312561,   15.0755625,           0.
    676,   131.524658,    15.144866,           0.
    677,   151.632599,   10.0160055,           0.
    678,   170.189667,   104.500992,           0.
    679,   165.394958,   60.8650398,           0.
    680,   165.394241,   66.6619339,           0.
    681,   165.394913,   55.0677338,           0.
    682,   165.394852,   72.4591141,           0.
    683,   165.397141,   49.2693176,           0.
    684,   165.397064,    78.256958,           0.
    685,   165.400406,    84.055275,           0.
    686,   165.424057,   25.8907413,           0.
    687,   165.414642,   31.8361073,           0.
    688,   165.401779,   43.4701462,           0.
    689,   165.440384,   19.8740845,           0.
    690,   165.412231,   89.8496399,           0.
    691,   165.407867,   37.6646156,           0.
    692,   165.391953,   95.7322998,           0.
    693,   121.726105,   29.7602139,           0.
    694,   126.730026,   68.4723129,           0.
    695,   121.972809,   17.6057224,           0.
    696,   126.718895,   74.4355698,           0.
    697,   126.730644,   62.5161858,           0.
    698,   126.729904,   56.5612679,           0.
    699,   126.728203,   50.6064529,           0.
    700,     126.7257,    44.655468,           0.
    701,   126.719025,   38.7034874,           0.
    702,   126.695763,   80.4004974,           0.
    703,   126.699844,   86.2868729,           0.
    704,   126.754791,   92.1021805,           0.
    705,    121.96817,   23.7080078,           0.
    706,   156.379425,    111.21051,           0.
    707,   141.380646,   106.264397,           0.
    708,   147.262054,   106.042084,           0.
    709,   162.639999,   111.202621,           0.
    710,   126.819374,   103.811005,           0.
    711,   127.852364,   20.4531803,           0.
    712,   126.894196,   97.9426117,           0.
    713,   154.381271,   15.2177629,           0.
    714,   140.153595,   20.2964058,           0.
    715,   134.259567,   20.2996502,           0.
    716,   160.445511,   16.1073227,           0.
    717,   148.762024,   15.0980444,           0.
    718,   165.753754,   14.7113771,           0.
    719,   160.397644,   34.7862167,           0.
    720,   160.363708,   28.8078194,           0.
    721,   160.345322,   63.7636223,           0.
    722,   160.345062,   57.9658623,           0.
    723,   160.344986,   69.5611877,           0.
    724,   160.347214,   52.1662941,           0.
    725,   160.347473,   75.3599167,           0.
    726,    160.51239,   22.7073784,           0.
    727,   160.354431,    81.159111,           0.
    728,   160.369781,   40.5714722,           0.
    729,   160.385864,   86.9529114,           0.
    730,   160.354111,   46.3668938,           0.
    731,   160.429459,   92.8261337,           0.
    732,   169.241791,    111.01606,           0.
    733,   165.303162,   101.606606,           0.
    734,   135.778198,   106.270042,           0.
    735,   126.792099,   32.7951317,           0.
    736,    131.83284,   71.4231415,           0.
    737,   131.851257,   65.4906616,           0.
    738,   131.826767,   47.5937271,           0.
    739,   131.853714,   59.5377693,           0.
    740,   131.847687,   53.5766907,           0.
    741,   131.775024,   41.5510101,           0.
    742,    126.97998,   26.8918667,           0.
    743,   131.755508,   77.3033371,           0.
    744,   132.073303,   89.1806107,           0.
    745,   132.001053,    83.182724,           0.
    746,   153.344391,   105.834549,           0.
    747,   144.170242,   101.025322,           0.
    748,   159.935226,   105.201363,           0.
    749,   132.445526,   101.124008,           0.
    750,   131.939392,    94.992485,           0.
    751,   151.542511,   20.1978455,           0.
    752,   136.970154,   26.0789528,           0.
    753,   156.363235,   19.9626141,           0.
    754,   170.514862,   116.958031,           0.
    755,   155.448105,   31.8629303,           0.
    756,   154.873032,    25.482933,           0.
    757,   155.316666,   61.0434418,           0.
    758,   155.341232,    55.266674,           0.
    759,   155.360596,   66.8533859,           0.
    760,   155.406403,   72.5714493,           0.
    761,   155.390213,   37.6461983,           0.
    762,   155.347137,   90.0376587,           0.
    763,   155.374283,   78.3044205,           0.
    764,   155.369385,   49.4404488,           0.
    765,    155.31102,   84.1451721,           0.
    766,   155.368637,   43.5384369,           0.
    767,   165.461975,   106.705528,           0.
    768,   145.902344,   20.1779823,           0.
    769,    160.41777,   98.7284698,           0.
    770,   138.530258,   101.385742,           0.
    771,   131.772415,   35.5795288,           0.
    772,   136.754684,   68.3197098,           0.
    773,   136.718201,   62.4706001,           0.
    774,   136.705811,   50.4824409,           0.
    775,   136.665466,   56.5204506,           0.
    776,    136.61087,   44.3059731,           0.
    777,   150.375107,   99.9293671,           0.
    778,   131.816452,   29.7300968,           0.
    779,   136.657211,   74.0008316,           0.
    780,   136.905121,   79.6061783,           0.
    781,   138.342361,   85.7631454,           0.
    782,   155.919525,   101.114082,           0.
    783,   155.463257,   95.9913254,           0.
    784,   141.056366,   96.5115051,           0.
    785,   131.575699,   24.6907501,           0.
    786,   137.286392,   92.4025574,           0.
    787,   148.772629,   25.2730808,           0.
    788,   150.007309,   87.2866364,           0.
    789,   150.499908,   58.5803261,           0.
    790,    150.57135,   64.3414841,           0.
    791,   150.612976,   70.0078278,           0.
    792,   150.678329,    34.638607,           0.
    793,   150.553131,    75.650116,           0.
    794,   150.542343,   52.6879959,           0.
    795,   150.581665,   40.5854568,           0.
    796,   150.297394,   81.3694305,           0.
    797,   150.586136,   46.6801567,           0.
    798,   143.124222,   25.4105339,           0.
    799,   136.584091,    38.245594,           0.
    800,    145.98996,   96.3087769,           0.
    801,   141.345322,   65.1243896,           0.
    802,   141.299438,   59.2987289,           0.
    803,   141.261627,   53.2729454,           0.
    804,   141.264496,   47.1227074,           0.
    805,   141.338486,   70.7442856,           0.
    806,   136.555252,   32.3784142,           0.
    807,   143.962418,   90.8317719,           0.
    808,   150.190872,   93.3975906,           0.
    809,   144.960098,    84.134964,           0.
    810,   145.954361,    37.597599,           0.
    811,   145.756805,   78.5858002,           0.
    812,   145.925735,   43.8158531,           0.
    813,   145.978851,   31.0309811,           0.
    814,   151.150192,   29.6577072,           0.
    815,   136.251587,   97.2832565,           0.
    816,   140.777008,   29.9546871,           0.
    817,   145.896896,   49.9476547,           0.
    818,   141.266022,   40.9937134,           0.
    819,   141.488266,   80.8563309,           0.
    820,   141.185928,   35.0334969,           0.
    821,   141.337112,   76.1660004,           0.
    822,   145.881149,   55.9654541,           0.
    823,   145.919754,   73.1301041,           0.
    824,   145.919525,    61.822834,           0.
    825,   145.951233,   67.5284882,           0.
    826,   101.014893,   106.444221,           0.
    827,   93.2135696,   116.484154,           0.
    828,   106.153946,   38.7013245,           0.
    829,   106.153564,   44.6548462,           0.
    830,   106.153473,   50.6082458,           0.
    831,   106.153481,   56.5619774,           0.
    832,   106.153618,   62.5158386,           0.
    833,   106.155571,   68.4702835,           0.
    834,   106.160835,   74.4253311,           0.
    835,   106.169174,   80.3804474,           0.
    836,   106.179779,   86.3345032,           0.
    837,    106.26886,   92.2503052,           0.
    838,   106.271866,   98.0892487,           0.
    839,   106.131607,   103.686989,           0.
    840,   95.8199921,   110.533096,           0.
    841,   63.4950714,    116.51368,           0.
    842,   69.5407486,    116.52224,           0.
    843,   75.5867004,   116.536507,           0.
    844,   81.7236099,   116.442352,           0.
    845,     87.72789,   116.530037,           0.
    846,   5.00721025,    14.529705,           0.
    847,   5.01405764,   20.2788334,           0.
    848,   5.02171183,   26.0839748,           0.
    849,   5.02366114,   31.8816757,           0.
    850,   5.02419853,   37.6783943,           0.
    851,   5.02434015,   43.4750443,           0.
    852,   5.02455616,    49.271656,           0.
    853,   5.02521563,   55.0681877,           0.
    854,   5.02659607,   60.8646507,           0.
    855,   5.02853966,   66.6611404,           0.
    856,   5.03108883,   72.4577103,           0.
    857,   5.03441811,   78.2542877,           0.
    858,   5.03825617,   84.0508041,           0.
    859,   5.04271984,   89.8471603,           0.
    860,   5.04795551,   95.6435547,           0.
    861,   5.10827637,   101.460495,           0.
    862,   5.31483221,   107.472466,           0.
    863,   5.39138269,   113.810219,           0.
    864,   103.323418,   5.36907148,           0.
    865,   49.7943459,   5.07480621,           0.
    866,   43.9359627,   5.07317495,           0.
    867,   38.0776558,   5.07113457,           0.
    868,   32.2194939,   5.06901789,           0.
    869,   26.3613968,   5.06714392,           0.
    870,   20.3719978,   5.11714411,           0.
    871,    14.189723,   5.26192427,           0.
    872,   7.79868174,   5.27716255,           0.
    873,   10.1493206,   98.4935608,           0.
    874,   10.1125765,   92.7326355,           0.
    875,   10.0958471,   86.9432449,           0.
    876,   10.0837755,    81.148613,           0.
    877,   10.0741043,   75.3526611,           0.
    878,   10.0665751,   69.5566559,           0.
    879,   10.0529623,   23.1042747,           0.
    880,   10.0519171,   28.9696579,           0.
    881,   10.0522919,    34.777813,           0.
    882,   10.0525398,    40.576355,           0.
    883,   10.0529318,    46.373127,           0.
    884,   10.0540972,   52.1693077,           0.
    885,   10.0565939,   57.9652328,           0.
    886,   10.0612431,    63.760849,           0.
    887,   10.3208475,   104.292122,           0.
    888,   10.0572968,   17.2813663,           0.
    889,   4.66474819,    9.6327219,           0.
    890,   55.6526031,   5.07645798,           0.
    891,   29.2764206,   10.1651621,           0.
    892,   41.0045395,   10.1439342,           0.
    893,   35.1421738,   10.1483736,           0.
    894,   23.2822418,   10.3467598,           0.
    895,   17.1819344,   10.4644356,           0.
    896,   46.8629951,   10.1482677,           0.
    897,   96.9041977,   5.32019854,           0.
    898,   90.8149185,   5.14263678,           0.
    899,   67.3701172,   5.07847977,           0.
    900,   61.5114288,   5.07788277,           0.
    901,   101.140907,   89.3223114,           0.
    902,   101.032066,   77.4113388,           0.
    903,   101.006546,   41.6791573,           0.
    904,   101.005585,   53.5851784,           0.
    905,   101.009476,   65.4949799,           0.
    906,   106.145294,   26.7850609,           0.
    907,   106.153526,   32.7447395,           0.
    908,   101.162811,   95.1865845,           0.
    909,   101.006248,   47.6323586,           0.
    910,   101.007706,   59.5396729,           0.
    911,   101.019257,   71.4534912,           0.
    912,    106.05262,   14.8800154,           0.
    913,   106.100464,   20.7975254,           0.
    914,   101.065804,   83.3714523,           0.
    915,   57.4475136,   116.513145,           0.
    916,   66.5315857,   111.319229,           0.
    917,   45.3498993,   116.510567,           0.
    918,   51.3983803,   116.513474,           0.
    919,   39.3025551,   116.512466,           0.
    920,   33.2558365,    116.51416,           0.
    921,   27.1612015,   116.425735,           0.
    922,   21.0304527,   116.316635,           0.
    923,   15.0070791,   116.368996,           0.
    924,     9.950284,   116.902122,           0.
    925,   72.5804977,    111.34597,           0.
    926,   78.6330872,   111.314766,           0.
    927,   85.1549683,   110.640419,           0.
    928,   90.5446243,   112.250504,           0.
    929,   101.131668,   100.919754,           0.
    930,   11.2446623,   110.850876,           0.
    931,   10.5016403,   11.0505514,           0.
    932,   95.9785233,   104.056053,           0.
    933,    90.685791,    107.14682,           0.
    934,   96.0556488,   98.1796036,           0.
    935,   15.0530453,   106.433174,           0.
    936,   15.0472622,   25.9413204,           0.
    937,   15.0787697,    31.845499,           0.
    938,   15.0847178,   37.6702766,           0.
    939,   15.0862083,   43.4729767,           0.
    940,   15.0875206,   49.2699661,           0.
    941,   14.9543028,   20.0461655,           0.
    942,    15.090476,   55.0652809,           0.
    943,    15.096117,    60.859848,           0.
    944,    15.104497,   66.6539078,           0.
    945,   15.1313448,   78.2425461,           0.
    946,   15.1174479,   72.4473572,           0.
    947,   15.1513662,   84.0363693,           0.
    948,   15.1746483,    89.828743,           0.
    949,   15.2138605,   95.5815353,           0.
    950,   15.3027515,   101.385178,           0.
    951,   58.5820045,   10.1562834,           0.
    952,   73.2271957,   5.07975578,           0.
    953,   64.4410019,   10.1596041,           0.
    954,   79.0794373,   5.08107948,           0.
    955,   84.9302444,   5.09756756,           0.
    956,   20.0426636,   16.2951469,           0.
    957,   26.3544674,   15.4107475,           0.
    958,   32.1936874,   15.2588844,           0.
    959,    38.066082,   15.2211199,           0.
    960,   43.9278412,   15.2201366,           0.
    961,   52.7219162,   10.1528435,           0.
    962,   101.008568,   35.7201691,           0.
    963,    95.877037,   68.4811554,           0.
    964,   95.8630905,    50.610321,           0.
    965,   95.8646317,   44.6572227,           0.
    966,   95.8691025,   62.5205688,           0.
    967,   100.923424,   17.6974106,           0.
    968,   95.8658752,   56.5637856,           0.
    969,   100.973595,   23.6886406,           0.
    970,   95.8941269,   74.4452362,           0.
    971,   96.0348129,   92.3211365,           0.
    972,   95.9817886,   86.3978424,           0.
    973,   95.9255371,   80.4141235,           0.
    974,   101.001526,   29.7289619,           0.
    975,   60.4806671,   111.311615,           0.
    976,   42.3262863,   111.306725,           0.
    977,   30.2123661,   111.176544,           0.
    978,   17.8384342,   110.967613,           0.
    979,   24.0439243,   110.958153,           0.
    980,   48.3754005,   111.307892,           0.
    981,   36.2782822,    111.28334,           0.
    982,   69.5862122,   106.152138,           0.
    983,   75.6725235,   106.269943,           0.
    984,   80.9431076,   106.690453,           0.
    985,   54.4271393,   111.310997,           0.
    986,   93.8106461,   10.5688915,           0.
    987,   100.530159,   11.2648668,           0.
    988,   90.8361664,   101.207527,           0.
    989,   20.7109966,   105.058685,           0.
    990,   20.5022202,   92.7726212,           0.
    991,   20.3147411,   86.9359055,           0.
    992,   20.1286812,   52.1653976,           0.
    993,   20.1601906,   69.5407181,           0.
    994,   20.5440407,   98.6641617,           0.
    995,   20.1356125,   57.9580956,           0.
    996,   20.2282162,   81.1272659,           0.
    997,   20.1466675,   63.7493591,           0.
    998,   20.1266441,   46.3706017,           0.
    999,   20.1659737,   28.8191757,           0.
   1000,   20.1298771,   34.7494469,           0.
   1001,   20.1267185,   40.5688171,           0.
   1002,   20.0158234,   22.7966805,           0.
   1003,    20.187933,   75.3311768,           0.
   1004,   14.5475674,   15.0275335,           0.
   1005,   81.9451599,   10.1694288,           0.
   1006,   76.1341858,     10.16471,           0.
   1007,   61.5094795,   15.2413998,           0.
   1008,   24.2694206,   20.0869579,           0.
   1009,   55.6486778,   15.2349253,           0.
   1010,   40.9873886,   20.2844181,           0.
   1011,    35.101799,   20.2859249,           0.
   1012,   49.7875137,   15.2273712,           0.
   1013,   29.3011513,   20.3179283,           0.
   1014,   87.8177109,   10.4348392,           0.
   1015,   70.2935257,   10.1628866,           0.
   1016,   90.8359146,   83.4759521,           0.
   1017,   95.8683167,   38.6964836,           0.
   1018,   90.8936386,   89.4283295,           0.
   1019,   90.7315216,    59.545002,           0.
   1020,   90.7282028,   53.5902367,           0.
   1021,   90.7279129,   47.6360741,           0.
   1022,   95.9428635,   20.5022297,           0.
   1023,   90.7401428,   65.5088577,           0.
   1024,    95.904213,   26.6224079,           0.
   1025,   95.8770447,   32.7038116,           0.
   1026,   90.7830658,   77.4577789,           0.
   1027,   90.7567291,   71.4792557,           0.
   1028,   63.5248299,   106.129936,           0.
   1029,   45.3511314,     106.1194,           0.
   1030,   27.2717457,   105.913979,           0.
   1031,   33.2842064,   106.063896,           0.
   1032,   39.3098679,   106.110176,           0.
   1033,   51.4032669,   106.120575,           0.
   1034,   72.8667908,   100.952309,           0.
   1035,   79.7712631,   101.067177,           0.
   1036,    57.461483,   106.124123,           0.
   1037,   106.503349,   9.87512398,           0.
   1038,   90.8932648,   95.3297424,           0.
   1039,   85.7433395,   98.2838593,           0.
   1040,   26.4638634,    95.848526,           0.
   1041,   84.7062836,   15.5509825,           0.
   1042,   25.5451756,   89.6469727,           0.
   1043,   25.2068214,   66.6322556,           0.
   1044,   25.2351875,    72.417366,           0.
   1045,   25.1793308,   55.0567245,           0.
   1046,   25.1739826,   49.2653618,           0.
   1047,   25.3567791,   83.9419556,           0.
   1048,   25.7972412,   25.5346603,           0.
   1049,   25.1921902,   60.8447189,           0.
   1050,   25.2825356,   78.1905212,           0.
   1051,   25.1823559,   43.4522591,           0.
   1052,   25.1741352,   37.6122093,           0.
   1053,   25.1595535,   31.7967339,           0.
   1054,   90.8899002,    16.570364,           0.
   1055,   79.0118484,   15.3681917,           0.
   1056,   73.2089462,   15.2877941,           0.
   1057,   46.8483887,   20.2974682,           0.
   1058,   32.0323067,   25.2316303,           0.
   1059,   37.8416786,   25.3539543,           0.
   1060,   52.7110252,   20.3103142,           0.
   1061,   58.5733376,   20.3220329,           0.
   1062,   67.3640366,   15.2538471,           0.
   1063,   96.4193954,   15.3207521,           0.
   1064,   90.7302017,   41.6722069,           0.
   1065,   85.5969696,   50.6160011,           0.
   1066,   85.6000366,   56.5725021,           0.
   1067,   90.6731415,   29.5061493,           0.
   1068,   90.8827591,   23.2784882,           0.
   1069,   85.6071167,   62.5348396,           0.
   1070,   85.6832733,   80.5154953,           0.
   1071,   90.7112656,    35.642334,           0.
   1072,   85.6199265,   68.5060501,           0.
   1073,   85.5785065,    86.603653,           0.
   1074,   85.6436462,   74.4931564,           0.
   1075,   66.6198807,   100.946465,           0.
   1076,    30.232584,   100.974976,           0.
   1077,   36.2217979,   100.925407,           0.
   1078,    42.286808,   100.916122,           0.
   1079,   54.4347839,   100.946007,           0.
   1080,   48.3658447,   100.940788,           0.
   1081,   76.0987244,   95.5877304,           0.
   1082,   60.5118141,   100.948494,           0.
   1083,    85.522438,   104.172707,           0.
   1084,   85.7280884,    92.538063,           0.
   1085,   81.4050293,    95.522316,           0.
   1086,   25.0446453,   101.292068,           0.
   1087,   86.6986923,   20.4159603,           0.
   1088,   30.2567806,    91.609726,           0.
   1089,   30.2845211,   69.5029831,           0.
   1090,   30.2585506,   63.7234039,           0.
   1091,   30.3285046,   75.2734985,           0.
   1092,   30.2294292,   52.1559105,           0.
   1093,   30.4678497,   86.6791153,           0.
   1094,   30.3860817,   81.0018768,           0.
   1095,   30.2421722,   57.9408264,           0.
   1096,   30.2547512,   46.3220482,           0.
   1097,   30.4447117,   40.2841415,           0.
   1098,   30.2076378,   34.3440819,           0.
   1099,   81.7214279,    20.576088,           0.
   1100,   70.2677231,   20.3961754,           0.
   1101,   43.8003349,   25.3953419,           0.
   1102,   75.9933319,   20.4804459,           0.
   1103,   34.4531097,   30.2502766,           0.
   1104,   55.6325073,   25.4021454,           0.
   1105,   49.7396889,   25.3917961,           0.
   1106,   64.4286041,   20.3429565,           0.
   1107,   85.5994263,   44.6456184,           0.
   1108,   85.0238266,   26.0362797,           0.
   1109,     80.47332,    53.600132,           0.
   1110,   85.5877609,   32.6041183,           0.
   1111,   80.4791183,   59.5617867,           0.
   1112,   80.5358429,    77.537262,           0.
   1113,   85.6066589,   38.6203499,           0.
   1114,   80.4896164,   65.5313187,           0.
   1115,   80.4375076,   83.5156479,           0.
   1116,   69.8122177,   95.6249847,           0.
   1117,   80.5079193,   71.5193253,           0.
   1118,   33.0236053,   95.8390045,           0.
   1119,   39.1711082,   95.6778488,           0.
   1120,   51.3959465,    95.782341,           0.
   1121,   45.3219948,    95.756897,           0.
   1122,   57.4757156,   95.7836151,           0.
   1123,   29.5299702,   29.4314766,           0.
   1124,   63.6079407,    95.705513,           0.
   1125,   79.7122269,   89.9521942,           0.
   1126,   35.3387527,   66.5895309,           0.
   1127,   35.3602104,   72.3220825,           0.
   1128,   35.8284454,   90.0513153,           0.
   1129,   35.5494156,   78.0305252,           0.
   1130,   35.6195717,   83.7875671,           0.
   1131,   35.3134956,   60.8166122,           0.
   1132,   35.2966156,   55.0388336,           0.
   1133,   35.3195953,    49.225399,           0.
   1134,   35.7639809,   43.2418175,           0.
   1135,   36.7228355,    36.436348,           0.
   1136,   40.5876465,   30.5758305,           0.
   1137,    67.365509,   25.5992413,           0.
   1138,   73.1804657,   25.7029743,           0.
   1139,   78.8745499,   25.6620712,           0.
   1140,   52.7153015,   30.4531746,           0.
   1141,   46.7922096,   30.4557991,           0.
   1142,   61.5007133,   25.4671478,           0.
   1143,    80.445076,   47.5920258,           0.
   1144,   81.2687683,    30.150547,           0.
   1145,   75.3561096,   56.5896988,           0.
   1146,    80.584465,   35.2170982,           0.
   1147,   75.3645477,   62.5573845,           0.
   1148,   80.2727585,   41.3106079,           0.
   1149,   75.4034729,   74.5363922,           0.
   1150,   75.4043503,   80.5031433,           0.
   1151,    75.379631,   68.5387039,           0.
   1152,   54.4346046,   90.6374893,           0.
   1153,    48.370224,   90.6506958,           0.
   1154,   42.3496056,   90.6575089,           0.
   1155,   60.5296631,   90.5035248,           0.
   1156,   66.7434158,   90.2227936,           0.
   1157,    75.716217,   85.6753159,           0.
   1158,    40.405735,   69.3587112,           0.
   1159,   40.5799751,   74.8822098,           0.
   1160,   40.3926048,   63.6597061,           0.
   1161,   41.5032387,   80.8515091,           0.
   1162,   40.3720474,    57.909584,           0.
   1163,   40.3719063,   52.1651382,           0.
   1164,   40.6250572,   46.5637436,           0.
   1165,   70.5133133,   31.0695553,           0.
   1166,   64.4918137,   30.7624226,           0.
   1167,   49.9010315,   35.4681053,           0.
   1168,   58.5784531,   30.5627613,           0.
   1169,    75.334343,   50.5931435,           0.
   1170,    70.238266,   59.5885582,           0.
   1171,   74.2795792,   37.3063049,           0.
   1172,   75.0369568,   44.4211388,           0.
   1173,   70.2200165,   65.5736618,           0.
   1174,   70.0713654,   71.6240311,           0.
   1175,   70.1180954,   77.7139053,           0.
   1176,   73.0153503,   90.2134781,           0.
   1177,   51.3462448,   85.5949707,           0.
   1178,   45.2942276,   85.7755814,           0.
   1179,   57.4238586,   85.4207458,           0.
   1180,    63.465641,    85.176918,           0.
   1181,   70.0217514,   84.2762604,           0.
   1182,   41.6042633,   41.1196251,           0.
   1183,   40.1190186,   86.2247009,           0.
   1184,   45.4588699,   60.7557297,           0.
   1185,   76.4501877,   30.8514252,           0.
   1186,   64.0316162,   74.8751831,           0.
   1187,   48.0957603,   80.7337723,           0.
   1188,   45.5273132,   71.9375687,           0.
   1189,   64.8701782,   68.2973404,           0.
   1190,   45.0937958,   44.6547699,           0.
   1191,   43.8220558,   35.7476807,           0.
   1192,   67.3958435,   36.3053513,           0.
   1193,   65.1457062,   62.3550072,           0.
   1194,   45.4399185,   55.0350914,           0.
   1195,   45.4242821,   49.3670769,           0.
   1196,   61.4525642,    35.774147,           0.
   1197,   55.7001839,   35.5149689,           0.
   1198,   70.3082809,   53.5999832,           0.
   1199,   70.2925415,   47.7664795,           0.
   1200,   69.5136948,   42.0485764,           0.
   1201,   45.4921761,   66.4042053,           0.
   1202,   54.2503319,   80.3910675,           0.
   1203,   65.6071091,   80.4621201,           0.
   1204,   60.3636894,   80.2700729,           0.
   1205,    50.383152,   45.8271408,           0.
   1206,    50.405838,   69.1290588,           0.
   1207,   50.4211311,   63.6676292,           0.
   1208,   50.4222412,   58.0744438,           0.
   1209,   50.4433479,    52.232235,           0.
   1210,   63.9603653,   41.0868454,           0.
   1211,   47.2981148,   40.5293274,           0.
   1212,   52.9253197,   40.3817329,           0.
   1213,     58.42173,   40.6065559,           0.
   1214,   65.2985229,   56.3479919,           0.
   1215,   60.0712662,   64.6317215,           0.
   1216,    65.526474,   50.4308968,           0.
   1217,   59.4006271,   70.1527786,           0.
   1218,   50.8099861,   75.0645828,           0.
   1219,   55.5150452,   49.5909729,           0.
   1220,   55.0670929,   66.6821442,           0.
   1221,   55.2535095,   61.3044281,           0.
   1222,   55.3765335,   55.5449562,           0.
   1223,   60.7987556,   46.3800468,           0.
   1224,   60.2623863,   58.8558388,           0.
   1225,   57.2661972,    75.332756,           0.
   1226,   60.4629517,   52.8584518,           0.
   1227,    66.018364,   45.5425682,           0.
   1228,   55.6088028,   44.5572891,           0.
   1229,   54.5899467,   71.2722626,           0.
   1230,   45.3032532,    76.693924,           0.
*Element, type=S3
  1, 251,  15, 198
  2, 281,  13,  14
  3, 287, 255, 261
  4, 197,   3,  25
  5, 207,  26,  27
  6, 198,  15,  16
  7, 227,  51,  52
  8, 199, 198,  16
  9, 200, 199,  17
 10, 201, 200,  18
 11, 202, 201,  19
 12, 204, 203,  21
 13, 254, 204, 196
 14, 204,   2,  22
 15, 205,  24, 197
 16,  32,   4,  33
 17, 218,  33,  34
 18, 233, 216, 215
 19, 245,  30,  31
 20, 286, 279, 277
 21, 242,  28,  29
 22, 207,  27, 206
 23, 208,  25,  26
 24,  45,  44,   5
 25, 226,  44,  45
 26, 234,  44, 226
 27, 210,  42, 209
 28, 211,  41, 210
 29, 212,  40, 211
 30, 213,  39, 212
 31, 214,  38, 213
 32, 215,  37, 214
 33, 216,  36, 215
 34, 217,  35, 216
 35, 218,  34, 217
 36,  55,   1,  13
 37, 219,  55,  13
 38, 281, 256, 219
 39, 220,  54, 219
 40, 228,  53, 220
 41, 228,  52,  53
 42, 268, 221, 227
 43, 223,  49, 222
 44, 224,  48, 223
 45, 225,  47, 224
 46, 257, 234, 226
 47, 196,  22,  23
 48, 205,  23,  24
 49, 197,  24,   3
 50, 246, 207, 206
 51, 199,  16,  17
 52, 230, 222, 229
 53, 200,  17,  18
 54, 238, 210, 237
 55, 201,  18,  19
 56, 235, 212, 211
 57, 202,  19,  20
 58, 239, 236, 213
 59, 203, 202,  20
 60, 250, 249, 200
 61, 203,  20,  21
 62, 254, 248, 203
 63, 204,  21,   2
 64, 204,  22, 196
 65, 274, 240, 269
 66, 205, 196,  23
 67, 206,  27,  28
 68, 239, 212, 235
 69, 247, 207, 246
 70, 208,  26, 207
 71, 255, 197, 208
 72, 208, 197,  25
 73, 209,  42,  43
 74, 222,  50, 221
 75, 308, 288, 301
 76, 210,  41,  42
 77, 316, 314, 297
 78, 211,  40,  41
 79, 252, 202, 248
 80, 212,  39,  40
 81, 270, 269, 236
 82, 213,  38,  39
 83, 240, 215, 214
 84, 214,  37,  38
 85, 243, 242,  29
 86, 215,  36,  37
 87, 241, 216, 233
 88, 216,  35,  36
 89, 258, 217, 241
 90, 217,  34,  35
 91, 244,  32, 218
 92, 218,  32,  33
 93, 219,  54,  55
 94, 281, 251, 256
 95, 227, 221,  51
 96, 220,  53,  54
 97, 221,  50,  51
 98, 229, 222, 221
 99, 273, 237, 267
100, 222,  49,  50
101, 231, 223, 230
102, 223,  48,  49
103, 232, 224, 231
104, 224,  47,  48
105, 257, 226, 225
106, 225,  46,  47
107, 226,  45,  46
108, 226,  46, 225
109, 228, 227,  52
110, 265, 260, 228
111, 301, 293, 280
112, 289, 268, 260
113, 253, 199, 249
114, 263, 262, 231
115, 272, 271, 235
116, 230, 223, 222
117, 257, 237, 209
118, 231, 224, 223
119, 267, 257, 232
120, 232, 225, 224
121, 236, 214, 213
122, 322, 303, 286
123, 234, 209,  43
124, 234,  43,  44
125, 238, 211, 210
126, 252, 250, 201
127, 239, 213, 212
128, 269, 240, 236
129, 237, 210, 209
130, 316, 297, 273
131, 262, 232, 231
132, 238, 235, 211
133, 271, 270, 239
134, 317, 300, 307
135, 240, 233, 215
136, 240, 214, 236
137, 258, 245, 244
138, 241, 217, 216
139, 242, 206,  28
140, 243,  29,  30
141, 245,  31, 244
142, 286, 266, 275
143, 244,  31,  32
144, 258, 218, 217
145, 277, 258, 266
146, 245, 243,  30
147, 300, 284, 248
148, 276, 206, 242
149, 261, 255, 247
150, 247, 208, 207
151, 248, 202, 203
152, 259, 254, 196
153, 249, 199, 200
154, 250, 200, 201
155, 285, 252, 284
156, 312, 310, 295
157, 251,  14,  15
158, 280, 198, 253
159, 252, 201, 202
160, 328, 319, 302
161, 265, 220, 256
162, 253, 198, 199
163, 254, 203, 204
164, 287, 196, 205
165, 255, 205, 197
166, 255, 208, 247
167, 256, 220, 219
168, 280, 256, 251
169, 257, 209, 234
170, 257, 225, 232
171, 258, 244, 218
172, 266, 258, 241
173, 307, 287, 261
174, 300, 254, 259
175, 289, 260, 288
176, 260, 227, 228
177, 278, 247, 246
178, 291, 274, 269
179, 263, 231, 230
180, 264, 230, 229
181, 264, 263, 230
182, 305, 283, 304
183, 298, 229, 268
184, 325, 324, 310
185, 265, 228, 220
186, 293, 256, 280
187, 286, 277, 266
188, 275, 241, 233
189, 267, 237, 257
190, 267, 232, 262
191, 268, 229, 221
192, 268, 227, 260
193, 303, 279, 286
194, 270, 236, 239
195, 271, 239, 235
196, 283, 282, 249
197, 272, 235, 238
198, 290, 263, 264
199, 273, 272, 238
200, 316, 262, 263
201, 273, 238, 237
202, 273, 267, 262
203, 332, 328, 331
204, 274, 233, 240
205, 275, 266, 241
206, 275, 233, 274
207, 276, 246, 206
208, 279, 242, 243
209, 277, 243, 245
210, 277, 245, 258
211, 278, 261, 247
212, 299, 246, 276
213, 279, 276, 242
214, 279, 243, 277
215, 280, 251, 198
216, 301, 253, 282
217, 281, 219,  13
218, 281,  14, 251
219, 282, 253, 249
220, 283, 249, 250
221, 285, 250, 252
222, 304, 285, 302
223, 284, 252, 248
224, 300, 248, 254
225, 329, 323, 309
226, 285, 283, 250
227, 292, 275, 274
228, 324, 311, 310
229, 287, 259, 196
230, 287, 205, 255
231, 288, 260, 265
232, 293, 288, 265
233, 309, 289, 308
234, 330, 325, 326
235, 296, 294, 271
236, 315, 264, 298
237, 311, 291, 310
238, 295, 269, 270
239, 292, 286, 275
240, 292, 274, 291
241, 293, 265, 256
242, 301, 280, 253
243, 294, 270, 271
244, 296, 271, 272
245, 295, 291, 269
246, 295, 270, 294
247, 297, 296, 272
248, 313, 312, 294
249, 297, 272, 273
250, 316, 273, 262
251, 298, 264, 229
252, 298, 268, 289
253, 299, 278, 246
254, 303, 299, 276
255, 307, 261, 306
256, 306, 261, 278
257, 336, 308, 301
258, 301, 288, 293
259, 302, 285, 284
260, 317, 284, 300
261, 303, 276, 279
262, 322, 320, 303
263, 336, 329, 308
264, 304, 283, 285
265, 321, 304, 319
266, 305, 282, 283
267, 317, 307, 306
268, 318, 278, 299
269, 307, 300, 259
270, 307, 259, 287
271, 308, 289, 288
272, 336, 301, 282
273, 334, 329, 321
274, 309, 298, 289
275, 310, 291, 295
276, 312, 295, 294
277, 322, 311, 320
278, 311, 292, 291
279, 313, 294, 296
280, 326, 325, 312
281, 314, 313, 296
282, 333, 327, 314
283, 314, 296, 297
284, 333, 323, 327
285, 315, 290, 264
286, 315, 298, 309
287, 316, 263, 290
288, 316, 290, 314
289, 331, 328, 317
290, 317, 302, 284
291, 318, 306, 278
292, 320, 318, 299
293, 319, 304, 302
294, 328, 302, 317
295, 320, 299, 303
296, 324, 320, 311
297, 334, 326, 327
298, 321, 305, 304
299, 322, 286, 292
300, 322, 292, 311
301, 334, 327, 323
302, 323, 315, 309
303, 335, 320, 324
304, 325, 310, 312
305, 326, 312, 313
306, 332, 330, 319
307, 327, 326, 313
308, 334, 330, 326
309, 327, 313, 314
310, 333, 314, 290
311, 331, 317, 306
312, 335, 332, 331
313, 329, 309, 308
314, 329, 305, 321
315, 330, 321, 319
316, 332, 319, 328
317, 331, 306, 318
318, 335, 331, 318
319, 332, 324, 325
320, 332, 325, 330
321, 333, 290, 315
322, 333, 315, 323
323, 334, 323, 329
324, 334, 321, 330
325, 335, 318, 320
326, 335, 324, 332
327, 336, 282, 305
328, 336, 305, 329
329, 381,   2,  21
330, 337,  19,  18
331, 418, 342, 341
332, 382, 359, 344
333, 469,  86,  87
334,  13,   1,  56
335, 354,  56,  57
336, 391, 353, 352
337, 422,  15,  14
338, 417,  16,  15
339, 403, 350, 349
340, 381, 380, 103
341, 341,  19, 337
342, 342,  20, 341
343,  73,   6,  74
344, 365,  74,  75
345, 386, 363, 385
346, 387, 361, 384
347, 430, 385, 387
348, 399,  71,  72
349, 390,  68,  69
350, 357,  82,  83
351, 367, 345,  90
352, 346,  67, 343
353, 370,  93, 348
354, 401, 371, 347
355, 448, 404, 446
356, 349,  61,  62
357, 351,  60, 350
358, 352,  59, 351
359, 353,  58, 352
360, 354,  57, 353
361,  86,  85,   7
362, 355,  85,  86
363, 366,  88, 358
364, 469, 450, 355
365, 358,  89, 345
366, 359,  81, 344
367, 360,  80, 359
368, 361,  79, 360
369, 362,  78, 361
370, 363,  77, 362
371, 364,  76, 363
372, 365,  75, 364
373, 409, 366, 358
374, 413, 369, 406
375, 368,  66, 346
376, 369, 367,  91
377, 400, 368, 346
378, 371,  64, 347
379, 441, 398, 440
380, 444, 443, 402
381, 374, 373,  95
382, 375, 374,  96
383, 376, 375,  97
384, 447, 403, 445
385, 379, 378, 100
386, 424, 379, 338
387, 379,   8, 101
388, 547, 515, 522
389, 340,  18,  17
390, 461, 415, 460
391, 377, 376,  98
392, 338, 101, 102
393, 339,  17,  16
394, 350,  61, 349
395, 340, 337,  18
396, 340,  17, 339
397, 429, 416, 424
398, 341,  20,  19
399, 381,  21, 342
400, 342,  21,  20
401, 343,  67,  68
402, 388, 344, 357
403, 344,  81,  82
404, 410, 409, 358
405, 345,  89,  90
406, 367,  90,  91
407, 370,  92,  93
408, 346,  66,  67
409, 347,  64,  65
410, 368, 347,  65
411, 348,  93,  94
412, 373,  94,  95
413, 541, 522, 515
414, 372,  62,  63
415, 446, 404, 392
416, 350,  60,  61
417, 404, 352, 351
418, 351,  59,  60
419, 427, 422, 421
420, 352,  58,  59
421, 427, 353, 391
422, 353,  57,  58
423, 421,  13, 354
424, 354,  13,  56
425, 356,  84, 355
426, 355,  84,  85
427, 450, 383, 356
428, 356,  83,  84
429, 357, 344,  82
430, 357,  83, 356
431, 358,  88,  89
432, 436, 435, 388
433, 389, 359, 382
434, 359,  80,  81
435, 384, 361, 360
436, 360,  79,  80
437, 482, 438, 439
438, 361,  78,  79
439, 385, 363, 362
440, 362,  77,  78
441, 426, 365, 364
442, 363,  76,  77
443, 426, 364, 386
444, 364,  75,  76
445, 394,  73, 365
446, 365,  73,  74
447, 469, 366, 450
448, 366,  87,  88
449, 369,  91,  92
450, 510, 473, 498
451, 368,  65,  66
452, 400, 346, 397
453, 370, 369,  92
454, 474, 432, 472
455, 400, 398, 368
456, 414, 348, 405
457, 371,  63,  64
458, 401, 347, 398
459, 372, 349,  62
460, 372,  63, 371
461, 373, 348,  94
462, 374,  95,  96
463, 375,  96,  97
464, 459, 452, 407
465, 376,  97,  98
466, 412, 407, 375
467, 377,  98,  99
468, 468, 418, 465
469, 378, 377,  99
470, 415, 412, 376
471, 378,  99, 100
472, 416, 415, 377
473, 379, 100,   8
474, 379, 101, 338
475, 380, 338, 102
476, 380, 102, 103
477, 381, 103,   2
478, 425, 342, 418
479, 408, 345, 367
480, 432, 430, 387
481, 383, 357, 356
482, 410, 345, 408
483, 438, 437, 396
484, 389, 384, 360
485, 439, 395, 399
486, 387, 385, 362
487, 399, 395,  71
488, 386, 364, 363
489, 387, 362, 361
490, 475, 430, 474
491, 388, 382, 344
492, 388, 357, 383
493, 389, 360, 359
494, 435, 434, 382
495, 390, 343,  68
496, 396,  69,  70
497, 392, 351, 350
498, 466, 462, 417
499, 445, 393, 443
500, 462, 339, 417
501, 393, 349, 372
502, 402, 372, 371
503, 399,  72, 394
504, 394,  72,  73
505, 395,  70,  71
506, 431, 385, 430
507, 396, 390,  69
508, 396,  70, 395
509, 397, 346, 343
510, 449, 343, 390
511, 485, 440, 484
512, 398, 347, 368
513, 426, 399, 394
514, 439, 399, 426
515, 414, 406, 370
516, 442, 440, 400
517, 483, 478, 443
518, 444, 401, 441
519, 402, 393, 372
520, 402, 371, 401
521, 403, 392, 350
522, 403, 349, 393
523, 404, 391, 352
524, 404, 351, 392
525, 405, 348, 373
526, 411, 373, 374
527, 406, 369, 370
528, 414, 370, 348
529, 407, 374, 375
530, 412, 375, 376
531, 434, 433, 389
532, 413, 408, 367
533, 489, 450, 409
534, 410, 358, 345
535, 473, 470, 435
536, 457, 408, 451
537, 411, 405, 373
538, 411, 374, 407
539, 415, 376, 377
540, 501, 459, 500
541, 413, 367, 369
542, 455, 406, 414
543, 496, 456, 493
544, 455, 414, 453
545, 416, 377, 378
546, 425, 381, 342
547, 424, 416, 378
548, 428, 338, 380
549, 417, 339,  16
550, 422,  14, 421
551, 423, 341, 337
552, 420, 337, 340
553, 420, 340, 419
554, 419, 340, 339
555, 491, 419, 462
556, 423, 337, 420
557, 421,  14,  13
558, 427, 354, 353
559, 466, 422, 427
560, 422, 417,  15
561, 566, 502, 506
562, 423, 418, 341
563, 424, 378, 379
564, 574, 380, 425
565, 425, 380, 381
566, 465, 423, 464
567, 426, 394, 365
568, 476, 439, 426
569, 427, 421, 354
570, 490, 466, 427
571, 429, 424, 428
572, 428, 424, 338
573, 464, 420, 463
574, 460, 416, 429
575, 432, 387, 384
576, 433, 384, 389
577, 439, 438, 395
578, 431, 386, 385
579, 433, 432, 384
580, 472, 433, 471
581, 434, 389, 382
582, 473, 435, 436
583, 435, 382, 388
584, 451, 408, 413
585, 436, 388, 383
586, 499, 498, 457
587, 489, 436, 383
588, 458, 409, 410
589, 449, 390, 437
590, 437, 390, 396
591, 438, 396, 395
592, 516, 514, 480
593, 476, 426, 386
594, 482, 439, 476
595, 440, 398, 400
596, 442, 400, 397
597, 456, 411, 452
598, 441, 401, 398
599, 488, 397, 449
600, 455, 454, 406
601, 443, 393, 402
602, 444, 402, 401
603, 456, 453, 405
604, 485, 441, 440
605, 460, 415, 416
606, 445, 403, 393
607, 477, 448, 446
608, 447, 446, 392
609, 447, 392, 403
610, 479, 445, 478
611, 547, 504, 477
612, 448, 391, 404
613, 449, 397, 343
614, 481, 480, 437
615, 450, 356, 355
616, 450, 366, 409
617, 509, 507, 471
618, 454, 413, 406
619, 452, 411, 407
620, 459, 407, 412
621, 453, 414, 405
622, 456, 405, 411
623, 552, 525, 550
624, 454, 451, 413
625, 497, 453, 496
626, 495, 494, 454
627, 518, 513, 483
628, 524, 496, 523
629, 499, 451, 494
630, 457, 410, 408
631, 489, 458, 436
632, 458, 410, 457
633, 461, 412, 415
634, 500, 461, 492
635, 574, 468, 467
636, 506, 505, 467
637, 531, 502, 503
638, 461, 459, 412
639, 462, 419, 339
640, 466, 417, 422
641, 463, 420, 419
642, 503, 502, 464
643, 502, 465, 464
644, 464, 423, 420
645, 574, 467, 428
646, 465, 418, 423
647, 490, 427, 391
648, 504, 490, 448
649, 505, 429, 467
650, 467, 429, 428
651, 468, 425, 418
652, 566, 506, 467
653, 469, 355,  86
654, 469,  87, 366
655, 471, 434, 470
656, 470, 434, 435
657, 507, 472, 471
658, 471, 433, 434
659, 508, 472, 507
660, 472, 432, 433
661, 473, 436, 458
662, 498, 458, 457
663, 511, 474, 508
664, 474, 430, 432
665, 543, 482, 475
666, 475, 431, 430
667, 476, 386, 431
668, 482, 481, 438
669, 487, 446, 447
670, 557, 548, 541
671, 478, 445, 443
672, 483, 443, 444
673, 569, 555, 554
674, 479, 447, 445
675, 488, 449, 480
676, 480, 449, 437
677, 481, 437, 438
678, 543, 511, 516
679, 482, 476, 431
680, 482, 431, 475
681, 486, 444, 441
682, 529, 523, 493
683, 484, 440, 442
684, 521, 442, 488
685, 544, 540, 518
686, 486, 441, 485
687, 520, 485, 519
688, 486, 483, 444
689, 487, 477, 446
690, 487, 447, 479
691, 488, 442, 397
692, 537, 507, 509
693, 489, 383, 450
694, 489, 409, 458
695, 490, 391, 448
696, 504, 448, 477
697, 491, 463, 419
698, 504, 491, 462
699, 492, 461, 460
700, 505, 492, 460
701, 493, 456, 452
702, 501, 452, 459
703, 494, 451, 454
704, 495, 454, 455
705, 497, 455, 453
706, 536, 535, 508
707, 576, 549, 553
708, 496, 453, 456
709, 526, 497, 524
710, 497, 495, 455
711, 498, 473, 458
712, 499, 457, 451
713, 534, 510, 527
714, 510, 509, 470
715, 530, 500, 528
716, 500, 459, 461
717, 513, 512, 478
718, 501, 493, 452
719, 503, 464, 463
720, 556, 532, 533
721, 522, 463, 491
722, 517, 479, 512
723, 504, 462, 466
724, 504, 466, 490
725, 505, 460, 429
726, 566, 467, 468
727, 533, 502, 531
728, 532, 505, 506
729, 535, 511, 508
730, 509, 471, 470
731, 572, 542, 514
732, 508, 474, 472
733, 510, 470, 473
734, 563, 542, 558
735, 510, 498, 499
736, 527, 494, 525
737, 543, 516, 481
738, 511, 475, 474
739, 512, 479, 478
740, 513, 478, 483
741, 518, 483, 486
742, 530, 529, 501
743, 521, 488, 514
744, 514, 488, 480
745, 515, 477, 487
746, 517, 515, 487
747, 516, 480, 481
748, 572, 511, 535
749, 517, 487, 479
750, 539, 512, 538
751, 520, 486, 485
752, 577, 576, 553
753, 519, 485, 484
754, 546, 484, 521
755, 545, 544, 520
756, 520, 518, 486
757, 521, 484, 442
758, 572, 535, 542
759, 522, 503, 463
760, 547, 522, 491
761, 523, 496, 493
762, 529, 493, 501
763, 526, 525, 495
764, 524, 497, 496
765, 525, 494, 495
766, 526, 495, 497
767, 551, 524, 549
768, 573, 568, 571
769, 527, 510, 499
770, 527, 499, 494
771, 528, 500, 492
772, 532, 528, 492
773, 530, 501, 500
774, 540, 538, 513
775, 570, 556, 557
776, 555, 530, 554
777, 548, 522, 541
778, 570, 560, 569
779, 532, 492, 505
780, 533, 532, 506
781, 533, 506, 502
782, 556, 554, 528
783, 537, 509, 534
784, 534, 509, 510
785, 536, 508, 507
786, 558, 535, 536
787, 537, 536, 507
788, 559, 537, 552
789, 552, 527, 525
790, 559, 558, 536
791, 538, 512, 513
792, 540, 513, 518
793, 557, 541, 539
794, 539, 517, 512
795, 544, 518, 520
796, 577, 569, 561
797, 541, 515, 517
798, 541, 517, 539
799, 546, 521, 542
800, 542, 521, 514
801, 543, 481, 482
802, 543, 475, 511
803, 545, 520, 519
804, 553, 549, 523
805, 565, 519, 546
806, 551, 550, 526
807, 546, 519, 484
808, 571, 558, 559
809, 547, 491, 504
810, 547, 477, 515
811, 548, 531, 503
812, 548, 503, 522
813, 549, 524, 523
814, 553, 523, 529
815, 550, 525, 526
816, 551, 526, 524
817, 576, 567, 549
818, 571, 568, 565
819, 552, 537, 534
820, 552, 534, 527
821, 555, 529, 530
822, 576, 564, 567
823, 554, 530, 528
824, 556, 528, 532
825, 577, 561, 562
826, 555, 553, 529
827, 556, 533, 531
828, 557, 556, 531
829, 557, 531, 548
830, 560, 557, 539
831, 558, 542, 535
832, 559, 536, 537
833, 573, 552, 550
834, 568, 551, 567
835, 560, 539, 538
836, 561, 560, 538
837, 561, 538, 540
838, 562, 561, 540
839, 562, 540, 544
840, 564, 562, 544
841, 565, 546, 563
842, 563, 546, 542
843, 564, 544, 545
844, 575, 564, 545
845, 575, 568, 567
846, 565, 545, 519
847, 566, 468, 465
848, 566, 465, 502
849, 575, 567, 564
850, 567, 551, 549
851, 571, 565, 563
852, 568, 550, 551
853, 570, 569, 554
854, 569, 560, 561
855, 570, 554, 556
856, 570, 557, 560
857, 571, 563, 558
858, 573, 571, 559
859, 572, 514, 516
860, 572, 516, 511
861, 573, 559, 552
862, 573, 550, 568
863, 574, 428, 380
864, 574, 425, 468
865, 575, 545, 565
866, 575, 565, 568
867, 577, 553, 555
868, 576, 562, 564
869, 577, 555, 569
870, 577, 562, 576
 871, 621,   9, 104
 872, 604, 143, 603
 873, 631, 600, 599
 874, 770, 734, 749
 875, 754,  32,  31
 876, 120,  10, 121
 877, 596, 121, 122
 878, 624, 594, 593
 879, 655, 652, 119
 880, 711, 705, 695
 881, 646, 116, 117
 882, 609, 138, 608
 883, 581, 115, 580
 884, 582, 114, 581
 885, 632, 607, 606
 886, 584, 111, 578
 887, 585, 110, 584
 888, 586, 109, 585
 889, 587, 108, 586
 890, 588, 107, 587
 891, 589, 106, 588
 892, 590, 105, 589
 893, 131,  11, 132
 894, 614, 132, 133
 895, 634, 633, 612
 896, 689, 634, 686
 897, 629, 129, 130
 898, 622, 127, 128
 899, 592, 126, 591
 900, 593, 125, 592
 901, 594, 124, 593
 902, 595, 123, 594
 903, 596, 122, 595
 904,  32, 151,   4
 905, 597, 151,  32
 906, 630, 598, 149
 907, 709, 663, 661
 908, 635, 631, 599
 909, 636, 600, 631
 910, 637, 601, 636
 911, 638, 602, 637
 912, 639, 603, 638
 913, 603, 144, 602
 914, 605, 142, 604
 915, 606, 141, 605
 916, 700, 699, 658
 917, 640, 607, 632
 918, 608, 139, 607
 919, 610, 137, 609
 920, 611, 136, 610
 921, 612, 135, 611
 922, 613, 134, 612
 923, 614, 133, 613
 924, 661,  29, 615
 925, 706, 615, 662
 926, 615,  29,  28
 927, 616, 615,  28
 928, 617, 616,  27
 929, 619, 618,  25
 930, 666, 619, 579
 931, 619,   3, 152
 932, 647, 589, 588
 933, 578, 111, 112
 934, 583, 112, 113
 935, 579, 152, 153
 936, 620, 153, 154
 937, 580, 115, 116
 938, 674, 627, 626
 939, 607, 140, 606
 940, 581, 114, 115
 941, 583, 113, 582
 942, 582, 113, 114
 943, 643, 605, 604
 944, 583, 578, 112
 945, 602, 145, 601
 946, 584, 110, 111
 947, 601, 146, 600
 948, 585, 109, 110
 949, 600, 147, 599
 950, 586, 108, 109
 951, 599, 148, 598
 952, 587, 107, 108
 953, 654, 589, 647
 954, 588, 106, 107
 955, 704, 647, 703
 956, 589, 105, 106
 957, 621, 104, 590
 958, 590, 104, 105
 959, 591, 126, 127
 960, 642, 608, 640
 961, 627, 593, 592
 962, 592, 125, 126
 963, 653, 118, 652
 964, 593, 124, 125
 965, 628, 594, 624
 966, 594, 123, 124
 967, 667, 595, 628
 968, 595, 122, 123
 969, 655, 120, 596
 970, 596, 120, 121
 971, 597, 150, 151
 972, 663,  30, 661
 973, 598, 148, 149
 974, 630, 149, 150
 975, 690, 685, 636
 976, 599, 147, 148
 977, 685, 684, 637
 978, 600, 146, 147
 979, 684, 682, 638
 980, 601, 145, 146
 981, 682, 680, 639
 982, 602, 144, 145
 983, 643, 641, 605
 984, 603, 143, 144
 985, 643, 604, 639
 986, 604, 142, 143
 987, 681, 641, 679
 988, 605, 141, 142
 989, 658, 582, 649
 990, 606, 140, 141
 991, 688, 640, 683
 992, 607, 139, 140
 993, 675, 627, 674
 994, 608, 138, 139
 995, 644, 609, 642
 996, 609, 137, 138
 997, 688, 642, 640
 998, 610, 136, 137
 999, 673, 629, 668
1000, 611, 135, 136
1001, 668, 613, 633
1002, 612, 134, 135
1003, 629, 625, 129
1004, 613, 133, 134
1005, 623, 131, 614
1006, 614, 131, 132
1007, 616,  28,  27
1008, 748, 709, 706
1009, 617,  27,  26
1010, 692, 690, 631
1011, 618, 617,  26
1012, 731, 729, 690
1013, 618,  26,  25
1014, 665, 664, 617
1015, 619,  25,   3
1016, 619, 152, 579
1017, 620, 579, 153
1018, 621, 620, 154
1019, 621, 154,   9
1020, 670, 590, 654
1021, 622, 591, 127
1022, 625, 128, 129
1023, 629, 130, 623
1024, 623, 130, 131
1025, 626, 592, 591
1026, 752, 715, 714
1027, 633, 613, 612
1028, 625, 622, 128
1029, 677, 591, 622
1030, 726, 689, 686
1031, 627, 624, 593
1032, 627, 592, 626
1033, 695, 667, 671
1034, 628, 595, 594
1035, 668, 614, 613
1036, 673, 672, 625
1037, 630, 150, 597
1038, 754, 732, 597
1039, 635, 599, 598
1040, 660, 587, 648
1041, 641, 606, 605
1042, 683, 632, 681
1043, 673, 625, 629
1044, 634, 612, 611
1045, 645, 611, 610
1046, 718, 716, 673
1047, 678, 598, 630
1048, 662, 615, 616
1049, 702, 648, 696
1050, 636, 601, 600
1051, 656, 585, 650
1052, 637, 602, 601
1053, 737, 736, 694
1054, 638, 603, 602
1055, 657, 578, 651
1056, 639, 604, 603
1057, 659, 649, 581
1058, 640, 608, 607
1059, 722, 679, 721
1060, 641, 632, 606
1061, 742, 705, 711
1062, 642, 609, 608
1063, 680, 679, 643
1064, 697, 694, 650
1065, 687, 686, 645
1066, 644, 610, 609
1067, 645, 634, 611
1068, 645, 610, 644
1069, 646, 580, 116
1070, 653, 117, 118
1071, 712, 710, 670
1072, 660, 588, 587
1073, 648, 587, 586
1074, 656, 586, 585
1075, 649, 582, 581
1076, 659, 581, 580
1077, 650, 585, 584
1078, 657, 584, 578
1079, 651, 578, 583
1080, 658, 651, 583
1081, 652, 118, 119
1082, 667, 655, 596
1083, 711, 671, 676
1084, 653, 646, 117
1085, 670, 621, 590
1086, 654, 590, 589
1087, 655, 119, 120
1088, 667, 596, 595
1089, 725, 723, 682
1090, 656, 648, 586
1091, 698, 697, 657
1092, 657, 650, 584
1093, 658, 583, 582
1094, 724, 681, 722
1095, 693, 580, 646
1096, 701, 700, 649
1097, 743, 696, 736
1098, 660, 647, 588
1099, 783, 782, 777
1100, 661,  30,  29
1101, 664, 616, 617
1102, 664, 662, 616
1103, 754, 663, 732
1104, 663,  31,  30
1105, 665, 617, 618
1106, 734, 665, 666
1107, 666, 665, 618
1108, 669, 666, 579
1109, 666, 618, 619
1110, 710, 579, 620
1111, 671, 667, 628
1112, 667, 652, 655
1113, 668, 629, 623
1114, 668, 623, 614
1115, 781, 745, 780
1116, 734, 666, 669
1117, 670, 620, 621
1118, 704, 654, 647
1119, 711, 695, 671
1120, 676, 628, 624
1121, 716, 713, 672
1122, 672, 622, 625
1123, 718, 668, 633
1124, 753, 751, 713
1125, 717, 626, 677
1126, 720, 687, 719
1127, 785, 752, 778
1128, 675, 624, 627
1129, 676, 671, 628
1130, 676, 624, 675
1131, 677, 626, 591
1132, 677, 622, 672
1133, 678, 635, 598
1134, 732, 678, 630
1135, 679, 641, 643
1136, 680, 643, 639
1137, 682, 639, 638
1138, 723, 721, 680
1139, 699, 698, 651
1140, 681, 632, 641
1141, 684, 638, 637
1142, 696, 656, 694
1143, 691, 642, 688
1144, 683, 640, 632
1145, 685, 637, 636
1146, 760, 759, 723
1147, 690, 636, 631
1148, 703, 660, 702
1149, 686, 634, 645
1150, 687, 645, 644
1151, 691, 644, 642
1152, 820, 816, 813
1153, 730, 683, 724
1154, 730, 688, 683
1155, 718, 689, 716
1156, 689, 633, 634
1157, 692, 631, 635
1158, 745, 702, 743
1159, 761, 755, 719
1160, 691, 687, 644
1161, 733, 635, 678
1162, 708, 664, 707
1163, 693, 659, 580
1164, 705, 646, 653
1165, 694, 656, 650
1166, 697, 650, 657
1167, 695, 653, 652
1168, 695, 652, 667
1169, 727, 725, 684
1170, 696, 648, 656
1171, 698, 657, 651
1172, 739, 737, 697
1173, 699, 651, 658
1174, 773, 772, 737
1175, 700, 658, 649
1176, 740, 739, 698
1177, 701, 649, 659
1178, 730, 728, 688
1179, 735, 659, 693
1180, 714, 675, 674
1181, 729, 727, 685
1182, 702, 660, 648
1183, 770, 707, 734
1184, 703, 647, 660
1185, 749, 710, 712
1186, 712, 654, 704
1187, 705, 693, 646
1188, 705, 653, 695
1189, 706, 661, 615
1190, 746, 662, 708
1191, 707, 664, 665
1192, 750, 704, 744
1193, 782, 748, 746
1194, 708, 662, 664
1195, 767, 732, 709
1196, 709, 661, 706
1197, 710, 669, 579
1198, 710, 620, 670
1199, 715, 676, 675
1200, 820, 813, 810
1201, 712, 670, 654
1202, 786, 744, 781
1203, 787, 768, 751
1204, 713, 677, 672
1205, 768, 674, 717
1206, 814, 792, 813
1207, 715, 711, 676
1208, 715, 675, 714
1209, 716, 672, 673
1210, 726, 716, 689
1211, 717, 674, 626
1212, 717, 677, 713
1213, 718, 673, 668
1214, 718, 633, 689
1215, 719, 687, 691
1216, 728, 691, 688
1217, 756, 726, 720
1218, 720, 686, 687
1219, 721, 679, 680
1220, 723, 680, 682
1221, 740, 699, 738
1222, 722, 681, 679
1223, 725, 682, 684
1224, 791, 790, 759
1225, 758, 722, 757
1226, 724, 683, 681
1227, 727, 684, 685
1228, 763, 760, 725
1229, 753, 716, 726
1230, 726, 686, 720
1231, 729, 685, 690
1232, 779, 736, 772
1233, 741, 738, 700
1234, 728, 719, 691
1235, 731, 690, 692
1236, 745, 744, 703
1237, 764, 724, 758
1238, 766, 730, 764
1239, 769, 692, 733
1240, 815, 786, 784
1241, 732, 630, 597
1242, 732, 663, 709
1243, 733, 692, 635
1244, 767, 733, 678
1245, 734, 707, 665
1246, 749, 669, 710
1247, 735, 701, 659
1248, 742, 735, 693
1249, 736, 696, 694
1250, 737, 694, 697
1251, 739, 697, 698
1252, 759, 757, 721
1253, 738, 699, 700
1254, 741, 700, 701
1255, 740, 698, 699
1256, 775, 740, 774
1257, 822, 803, 817
1258, 824, 822, 789
1259, 771, 701, 735
1260, 797, 795, 766
1261, 742, 693, 705
1262, 785, 778, 742
1263, 765, 729, 762
1264, 743, 702, 696
1265, 744, 704, 703
1266, 745, 703, 702
1267, 780, 743, 779
1268, 821, 819, 780
1269, 746, 706, 662
1270, 777, 708, 747
1271, 783, 769, 782
1272, 747, 708, 707
1273, 767, 748, 733
1274, 748, 706, 746
1275, 749, 734, 669
1276, 750, 749, 712
1277, 750, 712, 704
1278, 815, 784, 770
1279, 787, 751, 756
1280, 751, 717, 713
1281, 785, 742, 711
1282, 798, 714, 768
1283, 753, 713, 716
1284, 756, 753, 726
1285, 754, 597,  32
1286, 754,  31, 663
1287, 755, 720, 719
1288, 761, 719, 728
1289, 756, 751, 753
1290, 756, 720, 755
1291, 757, 722, 721
1292, 759, 721, 723
1293, 794, 758, 789
1294, 758, 724, 722
1295, 760, 723, 725
1296, 825, 824, 790
1297, 763, 725, 727
1298, 805, 772, 801
1299, 766, 728, 730
1300, 820, 818, 799
1301, 762, 729, 731
1302, 783, 731, 769
1303, 765, 763, 727
1304, 821, 811, 819
1305, 776, 774, 738
1306, 764, 730, 724
1307, 765, 727, 729
1308, 796, 793, 763
1309, 795, 792, 761
1310, 766, 761, 728
1311, 767, 678, 732
1312, 767, 709, 748
1313, 768, 714, 674
1314, 768, 717, 751
1315, 769, 731, 692
1316, 769, 733, 748
1317, 770, 747, 707
1318, 815, 749, 750
1319, 771, 741, 701
1320, 778, 771, 735
1321, 772, 736, 737
1322, 773, 737, 739
1323, 775, 739, 740
1324, 790, 789, 757
1325, 774, 740, 738
1326, 776, 738, 741
1327, 822, 817, 794
1328, 775, 773, 739
1329, 799, 741, 771
1330, 797, 764, 794
1331, 777, 746, 708
1332, 800, 747, 784
1333, 778, 735, 742
1334, 806, 799, 771
1335, 793, 791, 760
1336, 779, 743, 736
1337, 796, 765, 788
1338, 780, 745, 743
1339, 808, 807, 788
1340, 781, 744, 745
1341, 782, 769, 748
1342, 782, 746, 777
1343, 807, 800, 784
1344, 783, 762, 731
1345, 808, 783, 777
1346, 784, 747, 770
1347, 785, 711, 715
1348, 785, 715, 752
1349, 786, 750, 744
1350, 807, 786, 781
1351, 814, 756, 755
1352, 814, 813, 787
1353, 788, 765, 762
1354, 808, 800, 807
1355, 789, 758, 757
1356, 790, 757, 759
1357, 791, 759, 760
1358, 824, 802, 822
1359, 793, 760, 763
1360, 825, 823, 805
1361, 792, 755, 761
1362, 795, 761, 766
1363, 796, 763, 765
1364, 819, 811, 809
1365, 817, 797, 794
1366, 794, 764, 758
1367, 797, 766, 764
1368, 818, 812, 804
1369, 809, 796, 788
1370, 811, 796, 809
1371, 817, 804, 812
1372, 817, 812, 797
1373, 798, 752, 714
1374, 798, 768, 787
1375, 799, 776, 741
1376, 806, 771, 778
1377, 808, 777, 800
1378, 800, 777, 747
1379, 801, 772, 773
1380, 802, 801, 773
1381, 802, 773, 775
1382, 803, 802, 775
1383, 803, 775, 774
1384, 804, 803, 774
1385, 804, 774, 776
1386, 818, 776, 799
1387, 825, 805, 801
1388, 805, 779, 772
1389, 806, 778, 752
1390, 816, 752, 798
1391, 807, 784, 786
1392, 809, 807, 781
1393, 808, 788, 762
1394, 808, 762, 783
1395, 809, 788, 807
1396, 819, 781, 780
1397, 810, 792, 795
1398, 812, 810, 795
1399, 823, 811, 821
1400, 811, 793, 796
1401, 812, 795, 797
1402, 818, 804, 776
1403, 813, 798, 787
1404, 813, 792, 810
1405, 814, 787, 756
1406, 814, 755, 792
1407, 815, 770, 749
1408, 815, 750, 786
1409, 816, 806, 752
1410, 816, 798, 813
1411, 822, 794, 789
1412, 817, 803, 804
1413, 820, 799, 806
1414, 818, 810, 812
1415, 819, 809, 781
1416, 821, 780, 779
1417, 820, 810, 818
1418, 820, 806, 816
1419, 821, 779, 805
1420, 823, 821, 805
1421, 824, 789, 790
1422, 822, 802, 803
1423, 823, 791, 793
1424, 823, 793, 811
1425, 825, 790, 791
1426, 824, 801, 802
1427, 825, 801, 824
1428, 825, 791, 823
1429,  864,  194,  195
1430, 1037,  120,  119
1431, 1082, 1028, 1036
1432,  827,    8,  100
1433,  926,  843,  925
1434, 1037,  912,  987
1435, 1063,  987,  967
1436,  907,  115,  828
1437,  958,  957,  891
1438,  866,  185,  865
1439,  829,  828,  114
1440,  830,  829,  113
1441,  831,  830,  112
1442,  832,  831,  111
1443,  833,  832,  110
1444,  834,  833,  109
1445,  835,  834,  108
1446,  836,  835,  107
1447,  837,  836,  106
1448,  839,  838,  104
1449,  929,  839,  826
1450,  839,    9,  155
1451,  840,  156,  157
1452,   86,    7,  158
1453,  863,  158,  159
1454,  873,  861,  860
1455,  874,  860,  859
1456,  874,  873,  860
1457,  875,  874,  859
1458,  876,  875,  858
1459,  877,  876,  857
1460, 1078, 1029, 1032
1461,  918,   93,  917
1462,  915,   95,   94
1463,  985,  915,  918
1464,  842,   96,  841
1465,  842,   97,   96
1466,  845,  100,   99
1467,  178,  177,   12
1468,  872,  177,  178
1469,  891,  869,  868
1470,  847,  175,  846
1471,  848,  174,  847
1472,  849,  173,  848
1473,  850,  172,  849
1474,  851,  171,  850
1475,  852,  170,  851
1476,  853,  169,  852
1477,  854,  168,  853
1478,  855,  167,  854
1479,  856,  166,  855
1480,  857,  165,  856
1481,  858,  164,  857
1482,  859,  163,  858
1483,  860,  162,  859
1484,  861,  161,  860
1485,  862,  160,  861
1486,  863,  159,  862
1487,  195,   10,  120
1488,  864,  195,  120
1489,  897,  194,  864
1490,  898,  193,  897
1491,  898,  192,  193
1492,  974,  907,  962
1493, 1025,  962, 1017
1494,  954,  952,  190
1495,  952,  189,  190
1496,  890,  865,  186
1497,  900,  187,  188
1498,  890,  186,  187
1499,  866,  184,  185
1500,  868,  183,  867
1501,  869,  182,  868
1502,  870,  181,  869
1503,  871,  180,  870
1504,  931,  889,  872
1505,  826,  155,  156
1506,  840,  157,  827
1507,  827,  157,    8
1508,  844,   99,   98
1509,  828,  115,  114
1510,  829,  114,  113
1511,  830,  113,  112
1512,  879,  848,  847
1513,  831,  112,  111
1514,  880,  848,  879
1515,  832,  111,  110
1516,  881,  849,  880
1517,  833,  110,  109
1518,  882,  850,  881
1519,  834,  109,  108
1520,  883,  851,  882
1521,  835,  108,  107
1522,  884,  852,  883
1523,  836,  107,  106
1524,  916,  842,  841
1525,  837,  106,  105
1526, 1034,  983,  982
1527,  838,  837,  105
1528,  908,  837,  838
1529,  838,  105,  104
1530,  908,  901,  837
1531,  839,  104,    9
1532,  839,  155,  826
1533,  844,   98,  843
1534,  840,  826,  156
1535,  841,   96,   95
1536,  885,  853,  884
1537,  925,  842,  916
1538,  843,   97,  842
1539, 1036,  975,  985
1540,  843,   98,   97
1541,  927,  844,  926
1542,  845,   99,  844
1543,  928,  827,  845
1544,  845,  827,  100
1545,  846,  175,  176
1546,  889,  177,  872
1547, 1062,  953, 1015
1548,  847,  174,  175
1549, 1010,  959,  960
1550,  848,  173,  174
1551,  937,  880,  936
1552,  849,  172,  173
1553,  938,  881,  937
1554,  850,  171,  172
1555,  939,  882,  938
1556,  851,  170,  171
1557,  940,  883,  939
1558,  852,  169,  170
1559,  944,  886,  943
1560,  853,  168,  169
1561,  911,  905,  833
1562,  854,  167,  168
1563, 1118, 1040, 1088
1564,  855,  166,  167
1565,  948,  875,  947
1566,  856,  165,  166
1567,  921,  920,   90
1568,  857,  164,  165
1569,  922,  921,   89
1570,  858,  163,  164
1571, 1031,  981,  977
1572,  859,  162,  163
1573,  923,  922,   88
1574,  860,  161,  162
1575,  887,  861,  873
1576,  861,  160,  161
1577,  930,  862,  887
1578,  862,  159,  160
1579,  924,   86,  863
1580,  863,   86,  158
1581,  912,  119,  118
1582,  913,  117,  906
1583,  865,  185,  186
1584, 1008, 1002,  956
1585,  896,  866,  865
1586,  867,  184,  866
1587,  941,  936,  879
1588,  867,  183,  184
1589,  888,  879,  847
1590,  868,  182,  183
1591, 1002,  999,  936
1592,  869,  181,  182
1593,  894,  869,  891
1594,  870,  180,  181
1595,  931,  888,  846
1596,  871,  179,  180
1597,  872,  178,  179
1598,  872,  179,  871
1599,  875,  859,  858
1600,  920,  919,   91
1601,  876,  858,  857
1602,  919,  917,   92
1603,  877,  857,  856
1604,  919,   92,   91
1605,  878,  856,  855
1606, 1155, 1122, 1152
1607,  878,  877,  856
1608,  972,  914,  901
1609,  886,  855,  854
1610,  946,  878,  944
1611,  888,  847,  846
1612,  909,  830,  904
1613, 1048, 1008, 1013
1614,  880,  849,  848
1615,  910,  832,  905
1616,  881,  850,  849
1617,  998,  992,  940
1618,  882,  851,  850
1619,  911,  834,  902
1620,  883,  852,  851
1621,  942,  884,  940
1622,  884,  853,  852
1623,  943,  885,  942
1624,  885,  854,  853
1625,  886,  878,  855
1626,  886,  854,  885
1627,  978,  930,  935
1628,  887,  862,  861
1629,  931,  846,  889
1630,  895,  871,  870
1631,  889,  846,  176
1632,  889,  176,  177
1633, 1068, 1022, 1024
1634,  896,  892,  866
1635,  893,  868,  867
1636,  892,  867,  866
1637,  961,  865,  890
1638,  959,  958,  893
1639,  893,  891,  868
1640,  893,  867,  892
1641, 1004,  956,  941
1642,  894,  870,  869
1643, 1004,  931,  895
1644,  895,  870,  894
1645,  951,  890,  900
1646,  903,  828,  829
1647,  897,  193,  194
1648,  967,  912,  913
1649,  906,  117,  116
1650,  955,  192,  898
1651,  899,  188,  189
1652,  953,  951,  900
1653,  900,  890,  187
1654,  900,  188,  899
1655,  914,  836,  901
1656,  901,  836,  837
1657,  902,  834,  835
1658,  914,  902,  835
1659,  909,  829,  830
1660, 1002,  936,  941
1661,  904,  830,  831
1662,  910,  831,  832
1663,  905,  832,  833
1664,  911,  833,  834
1665,  907,  906,  116
1666,  962,  907,  828
1667,  907,  116,  115
1668,  962,  828,  903
1669,  929,  908,  838
1670,  933,  840,  928
1671, 1000,  937,  999
1672,  909,  903,  829
1673,  966,  905,  963
1674,  910,  904,  831
1675, 1132, 1131, 1095
1676,  970,  963,  911
1677,  987,  912,  967
1678,  913,  912,  118
1679,  913,  118,  117
1680,  969,  913,  906
1681,  914,  835,  836
1682, 1039, 1038,  988
1683,  915,  841,   95
1684,  918,   94,   93
1685,  934,  908,  929
1686,  975,  841,  915
1687,  917,   93,   92
1688,  981,  919,  920
1689,  947,  876,  945
1690,  918,  915,   94
1691,  920,   91,   90
1692,  979,  921,  922
1693,  921,   90,   89
1694,  989,  979,  978
1695,  922,   89,   88
1696,  989,  978,  935
1697,  923,   88,   87
1698,  989,  935,  950
1699,  924,  923,   87
1700,  930,  924,  863
1701,  924,   87,   86
1702,  930,  863,  862
1703,  932,  929,  826
1704,  925,  843,  842
1705,  984,  927,  926
1706,  926,  844,  843
1707,  933,  932,  840
1708,  927,  845,  844
1709,  928,  840,  827
1710,  928,  845,  927
1711,  929,  838,  839
1712,  932,  826,  840
1713,  935,  930,  887
1714,  930,  923,  924
1715,  931,  872,  871
1716,  931,  871,  895
1717,  983,  925,  982
1718,  934,  929,  932
1719,  933,  928,  927
1720,  984,  926,  983
1721,  971,  908,  934
1722,  988,  932,  933
1723,  950,  887,  873
1724,  949,  874,  948
1725,  936,  880,  879
1726,  941,  879,  888
1727,  965,  909,  964
1728,  937,  881,  880
1729, 1000,  938,  937
1730,  938,  882,  881
1731,  966,  910,  905
1732,  939,  883,  882
1733,  968,  910,  966
1734,  940,  884,  883
1735, 1004,  941,  888
1736,  956,  895,  894
1737, 1020,  968, 1019
1738,  942,  885,  884
1739,  995,  942,  992
1740,  943,  886,  885
1741, 1003,  946,  993
1742,  944,  878,  886
1743,  945,  876,  877
1744,  946,  945,  877
1745,  946,  877,  878
1746, 1026,  970,  973
1747, 1086, 1076, 1030
1748,  947,  875,  876
1749, 1086, 1040, 1076
1750,  948,  874,  875
1751,  990,  949,  948
1752,  949,  873,  874
1753,  950,  935,  887
1754,  950,  873,  949
1755, 1009,  951, 1007
1756,  953,  900,  899
1757,  952,  899,  189
1758,  954,  190,  191
1759, 1015,  899,  952
1760, 1164, 1163, 1133
1761,  955,  191,  192
1762,  955,  954,  191
1763, 1022,  967,  969
1764, 1014, 1005,  955
1765,  957,  894,  891
1766,  957,  956,  894
1767,  958,  891,  893
1768,  959,  893,  892
1769,  960,  892,  896
1770, 1048, 1002, 1008
1771,  960,  959,  892
1772, 1011,  959, 1010
1773, 1012,  896,  961
1774, 1226, 1224, 1222
1775,  961,  896,  865
1776,  961,  890,  951
1777, 1017,  903,  965
1778, 1063, 1054,  986
1779,  963,  905,  911
1780,  970,  911,  902
1781,  964,  909,  904
1782,  968,  904,  910
1783, 1055, 1006, 1005
1784,  965,  903,  909
1785, 1069, 1066, 1019
1786, 1023, 1019,  966
1787,  969,  967,  913
1788,  987,  986,  897
1789, 1066, 1065, 1020
1790,  968,  964,  904
1791,  974,  969,  906
1792, 1054, 1041, 1014
1793,  973,  902,  914
1794, 1050, 1003, 1044
1795,  972,  901,  971
1796,  971,  901,  908
1797, 1018, 1016,  972
1798,  973,  914,  972
1799,  982,  925,  916
1800,  973,  970,  902
1801,  974,  906,  907
1802, 1108, 1087, 1068
1803,  975,  916,  841
1804,  980,  918,  917
1805,  980,  917,  976
1806,  976,  917,  919
1807,  977,  920,  921
1808, 1030,  979,  989
1809,  978,  922,  923
1810,  978,  923,  930
1811,  979,  977,  921
1812,  979,  922,  978
1813,  991,  990,  948
1814, 1128, 1088, 1093
1815,  981,  976,  919
1816,  981,  920,  977
1817, 1018,  972,  971
1818, 1028,  916,  975
1819, 1035,  983, 1034
1820,  983,  926,  925
1821, 1083,  988,  933
1822, 1083,  927,  984
1823,  985,  975,  915
1824,  985,  918,  980
1825, 1014,  898,  986
1826,  986,  898,  897
1827,  987,  897,  864
1828, 1037,  987,  864
1829, 1038,  934,  988
1830,  988,  934,  932
1831,  994,  950,  949
1832, 1086, 1030,  989
1833,  991,  948,  947
1834,  996,  947,  945
1835, 1027,  970, 1026
1836, 1032,  976,  981
1837,  992,  942,  940
1838,  998,  940,  939
1839,  993,  946,  944
1840,  997,  944,  943
1841,  994,  989,  950
1842,  994,  949,  990
1843,  995,  943,  942
1844, 1090, 1089, 1043
1845,  996,  991,  947
1846, 1003,  996,  945
1847,  997,  993,  944
1848,  997,  943,  995
1849, 1001,  939,  938
1850, 1051, 1046,  998
1851,  999,  937,  936
1852, 1061, 1060, 1009
1853, 1053, 1000,  999
1854, 1001,  938, 1000
1855, 1096, 1092, 1046
1856, 1001,  998,  939
1857, 1002,  941,  956
1858, 1008,  956,  957
1859, 1003,  945,  946
1860, 1044,  993, 1043
1861, 1004,  888,  931
1862, 1004,  895,  956
1863, 1006,  954, 1005
1864, 1005,  954,  955
1865, 1056, 1006, 1055
1866, 1006,  952,  954
1867, 1009,  961,  951
1868, 1007,  951,  953
1869, 1013,  957,  958
1870, 1097, 1096, 1051
1871, 1021,  964, 1020
1872, 1060, 1012, 1009
1873, 1058, 1013, 1011
1874, 1057,  960, 1012
1875, 1052, 1051, 1001
1876, 1011,  958,  959
1877, 1012,  960,  896
1878, 1012,  961, 1009
1879, 1013, 1008,  957
1880, 1013,  958, 1011
1881, 1014,  955,  898
1882, 1063, 1022, 1054
1883, 1015,  953,  899
1884, 1015,  952, 1006
1885, 1026,  973, 1016
1886, 1016,  973,  972
1887, 1017,  962,  903
1888, 1064,  965, 1021
1889, 1038, 1018,  971
1890, 1124, 1075, 1082
1891, 1019,  968,  966
1892, 1023,  966,  963
1893, 1046, 1045,  992
1894, 1020,  964,  968
1895, 1102, 1056, 1055
1896, 1021,  965,  964
1897, 1024,  969,  974
1898, 1024, 1022,  969
1899, 1027,  963,  970
1900, 1074, 1027, 1026
1901, 1025, 1024,  974
1902, 1071, 1017, 1064
1903, 1025,  974,  962
1904, 1102, 1100, 1056
1905, 1115, 1112, 1070
1906, 1074, 1072, 1027
1907, 1117, 1072, 1074
1908, 1027, 1023,  963
1909, 1028,  982,  916
1910, 1118, 1076, 1040
1911, 1033,  980, 1029
1912, 1029,  980,  976
1913, 1031,  977, 1030
1914, 1030,  977,  979
1915, 1040,  994,  990
1916, 1032,  981, 1031
1917, 1088, 1040, 1042
1918, 1032, 1029,  976
1919, 1080, 1033, 1029
1920, 1033,  985,  980
1921, 1084, 1073, 1018
1922, 1075,  982, 1028
1923, 1083, 1035, 1039
1924, 1035,  984,  983
1925, 1036, 1028,  975
1926, 1036,  985, 1033
1927, 1037,  864,  120
1928, 1037,  119,  912
1929, 1038,  971,  934
1930, 1083, 1039,  988
1931, 1073, 1070, 1016
1932, 1084, 1038, 1039
1933, 1042,  990,  991
1934, 1042, 1040,  990
1935, 1055, 1005, 1041
1936, 1041, 1005, 1014
1937, 1047,  991,  996
1938, 1121, 1080, 1078
1939, 1043,  993,  997
1940, 1049,  997,  995
1941, 1074, 1026, 1070
1942, 1044, 1003,  993
1943, 1045,  995,  992
1944, 1046,  992,  998
1945, 1051,  998, 1001
1946, 1133, 1132, 1092
1947, 1047, 1042,  991
1948, 1050, 1047,  996
1949, 1053,  999, 1048
1950, 1048,  999, 1002
1951, 1049, 1043,  997
1952, 1049,  995, 1045
1953, 1050,  996, 1003
1954, 1091, 1044, 1089
1955, 1052, 1001, 1000
1956, 1105, 1057, 1060
1957, 1053, 1052, 1000
1958, 1098, 1097, 1052
1959, 1058, 1048, 1013
1960, 1123, 1048, 1058
1961, 1054, 1014,  986
1962, 1068, 1054, 1022
1963, 1067, 1024, 1025
1964, 1071, 1067, 1025
1965, 1100, 1062, 1056
1966, 1056, 1015, 1006
1967, 1057, 1010,  960
1968, 1060, 1057, 1012
1969, 1059, 1011, 1010
1970, 1059, 1058, 1011
1971, 1134, 1133, 1096
1972, 1101, 1010, 1057
1973, 1061, 1009, 1007
1974, 1142, 1061, 1106
1975, 1106, 1007, 1062
1976, 1146, 1144, 1110
1977, 1062, 1007,  953
1978, 1062, 1015, 1056
1979, 1063,  986,  987
1980, 1063,  967, 1022
1981, 1064, 1017,  965
1982, 1107, 1021, 1065
1983, 1065, 1021, 1020
1984, 1066, 1020, 1019
1985, 1069, 1019, 1023
1986, 1131, 1126, 1090
1987, 1108, 1068, 1067
1988, 1071, 1025, 1017
1989, 1087, 1054, 1068
1990, 1068, 1024, 1067
1991, 1072, 1023, 1027
1992, 1147, 1145, 1111
1993, 1070, 1026, 1016
1994, 1073, 1016, 1018
1995, 1138, 1137, 1100
1996, 1113, 1064, 1107
1997, 1117, 1074, 1112
1998, 1072, 1069, 1023
1999, 1085, 1035, 1081
2000, 1081, 1035, 1034
2001, 1122, 1079, 1120
2002, 1117, 1114, 1072
2003, 1075, 1034,  982
2004, 1080, 1079, 1033
2005, 1077, 1031, 1076
2006, 1076, 1031, 1030
2007, 1078, 1032, 1077
2008, 1077, 1032, 1031
2009, 1127, 1089, 1126
2010, 1080, 1029, 1078
2011, 1082, 1036, 1079
2012, 1079, 1036, 1033
2013, 1128, 1118, 1088
2014, 1128, 1119, 1118
2015, 1125, 1084, 1085
2016, 1116, 1034, 1075
2017, 1082, 1075, 1028
2018, 1173, 1170, 1147
2019, 1083,  933,  927
2020, 1083,  984, 1035
2021, 1084, 1018, 1038
2022, 1085, 1084, 1039
2023, 1085, 1039, 1035
2024, 1176, 1157, 1125
2025, 1086,  989,  994
2026, 1086,  994, 1040
2027, 1099, 1041, 1087
2028, 1087, 1041, 1054
2029, 1093, 1042, 1047
2030, 1094, 1050, 1091
2031, 1089, 1044, 1043
2032, 1090, 1043, 1049
2033, 1095, 1049, 1045
2034, 1111, 1109, 1066
2035, 1121, 1120, 1080
2036, 1091, 1050, 1044
2037, 1092, 1045, 1046
2038, 1096, 1046, 1051
2039, 1093, 1088, 1042
2040, 1094, 1093, 1047
2041, 1094, 1047, 1050
2042, 1129, 1091, 1127
2043, 1095, 1090, 1049
2044, 1095, 1045, 1092
2045, 1097, 1051, 1052
2046, 1140, 1105, 1104
2047, 1098, 1052, 1053
2048, 1135, 1098, 1103
2049, 1123, 1098, 1053
2050, 1103, 1058, 1059
2051, 1102, 1055, 1099
2052, 1099, 1055, 1041
2053, 1110, 1108, 1067
2054, 1137, 1106, 1100
2055, 1101, 1059, 1010
2056, 1105, 1060, 1104
2057, 1108, 1099, 1087
2058, 1139, 1099, 1108
2059, 1123, 1103, 1098
2060, 1136, 1059, 1101
2061, 1104, 1060, 1061
2062, 1172, 1171, 1148
2063, 1135, 1097, 1098
2064, 1105, 1101, 1057
2065, 1106, 1061, 1007
2066, 1106, 1062, 1100
2067, 1107, 1064, 1021
2068, 1143, 1065, 1109
2069, 1110, 1067, 1071
2070, 1113, 1071, 1064
2071, 1109, 1065, 1066
2072, 1111, 1066, 1069
2073, 1113, 1110, 1071
2074, 1144, 1139, 1108
2075, 1114, 1069, 1072
2076, 1193, 1173, 1189
2077, 1112, 1074, 1070
2078, 1115, 1070, 1073
2079, 1185, 1138, 1139
2080, 1148, 1107, 1143
2081, 1151, 1117, 1149
2082, 1114, 1111, 1069
2083, 1125, 1115, 1073
2084, 1176, 1081, 1116
2085, 1116, 1081, 1034
2086, 1122, 1082, 1079
2087, 1175, 1174, 1149
2088, 1203, 1186, 1175
2089, 1119, 1077, 1118
2090, 1118, 1077, 1076
2091, 1121, 1078, 1119
2092, 1119, 1078, 1077
2093, 1120, 1079, 1080
2094, 1153, 1120, 1121
2095, 1154, 1119, 1128
2096, 1187, 1178, 1161
2097, 1207, 1201, 1184
2098, 1124, 1082, 1122
2099, 1123, 1053, 1048
2100, 1123, 1058, 1103
2101, 1150, 1149, 1112
2102, 1124, 1116, 1075
2103, 1125, 1073, 1084
2104, 1125, 1085, 1081
2105, 1126, 1089, 1090
2106, 1131, 1090, 1095
2107, 1153, 1152, 1120
2108, 1127, 1091, 1089
2109, 1130, 1093, 1094
2110, 1189, 1174, 1186
2111, 1129, 1094, 1091
2112, 1159, 1127, 1158
2113, 1130, 1128, 1093
2114, 1130, 1094, 1129
2115, 1132, 1095, 1092
2116, 1162, 1160, 1131
2117, 1133, 1092, 1096
2118, 1163, 1162, 1132
2119, 1134, 1096, 1097
2120, 1191, 1182, 1135
2121, 1135, 1134, 1097
2122, 1211, 1182, 1191
2123, 1136, 1103, 1059
2124, 1136, 1135, 1103
2125, 1141, 1101, 1105
2126, 1141, 1105, 1140
2127, 1166, 1137, 1165
2128, 1138, 1100, 1102
2129, 1139, 1138, 1102
2130, 1185, 1139, 1144
2131, 1139, 1102, 1099
2132, 1144, 1108, 1110
2133, 1168, 1104, 1142
2134, 1196, 1168, 1166
2135, 1191, 1141, 1167
2136, 1141, 1136, 1101
2137, 1142, 1104, 1061
2138, 1142, 1106, 1137
2139, 1143, 1107, 1065
2140, 1169, 1109, 1145
2141, 1146, 1110, 1113
2142, 1148, 1113, 1107
2143, 1145, 1109, 1111
2144, 1147, 1111, 1114
2145, 1148, 1146, 1113
2146, 1185, 1165, 1138
2147, 1151, 1114, 1117
2148, 1160, 1158, 1126
2149, 1192, 1165, 1171
2150, 1171, 1146, 1148
2151, 1149, 1117, 1112
2152, 1150, 1112, 1115
2153, 1181, 1176, 1156
2154, 1156, 1116, 1124
2155, 1174, 1173, 1151
2156, 1151, 1147, 1114
2157, 1152, 1122, 1120
2158, 1178, 1177, 1153
2159, 1154, 1153, 1121
2160, 1161, 1129, 1159
2161, 1154, 1121, 1119
2162, 1183, 1128, 1130
2163, 1179, 1152, 1177
2164, 1155, 1124, 1122
2165, 1157, 1150, 1115
2166, 1156, 1124, 1155
2167, 1157, 1115, 1125
2168, 1176, 1125, 1081
2169, 1158, 1127, 1126
2170, 1160, 1126, 1131
2171, 1183, 1178, 1154
2172, 1159, 1129, 1127
2173, 1162, 1131, 1132
2174, 1229, 1218, 1206
2175, 1183, 1161, 1178
2176, 1161, 1130, 1129
2177, 1163, 1132, 1133
2178, 1209, 1195, 1205
2179, 1164, 1133, 1134
2180, 1195, 1164, 1190
2181, 1182, 1134, 1135
2182, 1167, 1141, 1140
2183, 1166, 1142, 1137
2184, 1165, 1137, 1138
2185, 1172, 1143, 1169
2186, 1210, 1192, 1200
2187, 1197, 1140, 1168
2188, 1216, 1198, 1214
2189, 1168, 1140, 1104
2190, 1168, 1142, 1166
2191, 1169, 1143, 1109
2192, 1198, 1145, 1170
2193, 1170, 1145, 1147
2194, 1173, 1147, 1151
2195, 1185, 1171, 1165
2196, 1172, 1148, 1143
2197, 1199, 1169, 1198
2198, 1200, 1171, 1172
2199, 1174, 1151, 1149
2200, 1201, 1160, 1184
2201, 1175, 1149, 1150
2202, 1218, 1188, 1206
2203, 1203, 1181, 1180
2204, 1180, 1156, 1155
2205, 1176, 1116, 1156
2206, 1181, 1156, 1180
2207, 1177, 1152, 1153
2208, 1202, 1177, 1187
2209, 1178, 1153, 1154
2210, 1230, 1161, 1159
2211, 1204, 1203, 1180
2212, 1179, 1155, 1152
2213, 1181, 1175, 1150
2214, 1180, 1155, 1179
2215, 1181, 1150, 1157
2216, 1181, 1157, 1176
2217, 1182, 1164, 1134
2218, 1191, 1135, 1136
2219, 1183, 1154, 1128
2220, 1183, 1130, 1161
2221, 1184, 1160, 1162
2222, 1194, 1162, 1163
2223, 1185, 1144, 1146
2224, 1185, 1146, 1171
2225, 1230, 1188, 1218
2226, 1186, 1174, 1175
2227, 1187, 1177, 1178
2228, 1188, 1159, 1158
2229, 1201, 1188, 1158
2230, 1229, 1225, 1218
2231, 1220, 1215, 1217
2232, 1189, 1173, 1174
2233, 1190, 1164, 1182
2234, 1222, 1221, 1208
2235, 1191, 1136, 1141
2236, 1211, 1191, 1167
2237, 1196, 1166, 1192
2238, 1192, 1166, 1165
2239, 1208, 1207, 1184
2240, 1193, 1170, 1173
2241, 1194, 1184, 1162
2242, 1195, 1194, 1163
2243, 1195, 1163, 1164
2244, 1213, 1212, 1197
2245, 1228, 1219, 1205
2246, 1197, 1168, 1196
2247, 1212, 1211, 1167
2248, 1197, 1167, 1140
2249, 1198, 1169, 1145
2250, 1214, 1170, 1193
2251, 1227, 1200, 1199
2252, 1199, 1172, 1169
2253, 1200, 1192, 1171
2254, 1200, 1172, 1199
2255, 1201, 1158, 1160
2256, 1207, 1206, 1201
2257, 1204, 1186, 1203
2258, 1202, 1179, 1177
2259, 1203, 1175, 1181
2260, 1204, 1180, 1179
2261, 1204, 1179, 1202
2262, 1225, 1204, 1202
2263, 1205, 1195, 1190
2264, 1211, 1205, 1190
2265, 1217, 1215, 1189
2266, 1206, 1188, 1201
2267, 1208, 1184, 1194
2268, 1221, 1220, 1207
2269, 1209, 1208, 1194
2270, 1221, 1215, 1220
2271, 1209, 1194, 1195
2272, 1228, 1223, 1219
2273, 1210, 1196, 1192
2274, 1227, 1223, 1210
2275, 1211, 1190, 1182
2276, 1212, 1167, 1197
2277, 1213, 1197, 1196
2278, 1212, 1205, 1211
2279, 1213, 1196, 1210
2280, 1227, 1216, 1223
2281, 1214, 1198, 1170
2282, 1224, 1221, 1222
2283, 1215, 1193, 1189
2284, 1217, 1189, 1186
2285, 1226, 1222, 1219
2286, 1216, 1199, 1198
2287, 1225, 1186, 1204
2288, 1229, 1220, 1217
2289, 1218, 1202, 1187
2290, 1230, 1218, 1187
2291, 1219, 1209, 1205
2292, 1228, 1205, 1212
2293, 1220, 1206, 1207
2294, 1221, 1207, 1208
2295, 1222, 1208, 1209
2296, 1224, 1215, 1221
2297, 1222, 1209, 1219
2298, 1226, 1219, 1223
2299, 1223, 1213, 1210
2300, 1226, 1223, 1216
2301, 1224, 1214, 1193
2302, 1224, 1193, 1215
2303, 1225, 1217, 1186
2304, 1225, 1202, 1218
2305, 1226, 1216, 1214
2306, 1226, 1214, 1224
2307, 1227, 1210, 1200
2308, 1227, 1199, 1216
2309, 1228, 1212, 1213
2310, 1228, 1213, 1223
2311, 1229, 1206, 1220
2312, 1229, 1217, 1225
2313, 1230, 1187, 1161
2314, 1230, 1159, 1188
*Orientation, name=Ori-1
1., 0., 0., 0., 1., 0.
3, 0.
** Region: (CompositeLayup-1-1: Generated From Layup)
*Elset, elset=CompositeLayup-1-1, generate
    1,  2314,     1
** Section: CompositeLayup-1-1
*Shell Section, elset=CompositeLayup-1-1, composite, orientation=Ori-1, layup=CompositeLayup-1
0.25, 1, ABQ_PLY_FABRIC, 45., Ply-1
0.25, 1, ABQ_PLY_FABRIC, -45., Ply-2
0.25, 1, ABQ_PLY_FABRIC, -45., Ply-3
0.25, 1, ABQ_PLY_FABRIC, 45., Ply-4
*End Part
**  
**
** ASSEMBLY
**
*Assembly, name=Assembly
**  
*Instance, name=Plate-1, part=PLATE
*End Instance
**  
*Nset, nset=Set-1, instance=Plate-1
   6,   7,  12,  74,  75,  76,  77,  78,  79,  80,  81,  82,  83,  84,  85, 158
 159, 160, 161, 162, 163, 164, 165, 166, 167, 168, 169, 170, 171, 172, 173, 174
 175, 176, 177
*Elset, elset=Set-1, instance=Plate-1
  343,  344,  350,  361,  403,  426,  428,  434,  436,  438,  440,  442,  444, 1452, 1453, 1467
 1545, 1548, 1550, 1552, 1554, 1556, 1558, 1560, 1562, 1564, 1566, 1568, 1570, 1572, 1574, 1576
 1578, 1632
*Nset, nset=Set-2, instance=Plate-1
   4,   5,  11,  33,  34,  35,  36,  37,  38,  39,  40,  41,  42,  43,  44, 132
 133, 134, 135, 136, 137, 138, 139, 140, 141, 142, 143, 144, 145, 146, 147, 148
 149, 150, 151
*Elset, elset=Set-2, instance=Plate-1
   16,   17,   24,   73,   76,   78,   80,   82,   84,   86,   88,   90,  124,  893,  894,  904
  971,  973,  974,  976,  978,  980,  982,  984,  986,  988,  990,  992,  994,  996,  998, 1000
 1002, 1004
*End Assembly
*Amplitude, name=Ramp, time=TOTAL TIME
             0.,              0.,            0.01,              1.
** 
** MATERIALS
** 
*Material, name=ABQ_PLY_FABRIC
*Density
 1.594e-09,
*Depvar, delete=16
     16,
*User Material, constants=40
27500., 27500.,   0.11,  2900., 27500., 27500.,   0.11,     0.
   604.,   291.,   604.,   291.,    75.,     0.,     0.,     0.
 20.438, 4.6257, 20.438, 4.6257, 0.3221,     1.,     0.,     0.
    75., 0.0008,  0.552,     0.,     0.,     0.,     0.,     0.
     0.,     1.,  1e+09,  1e+09, -1e+09,     0.,     0.,     0.
** ----------------------------------------------------------------
** 
** STEP: Step-1
** 
*Step, name=Step-1, nlgeom=NO
*Dynamic, Explicit
, 0.01
*Bulk Viscosity
0.06, 1.2
** 
** BOUNDARY CONDITIONS
** 
** Name: BC-1 Type: Symmetry/Antisymmetry/Encastre
*Boundary
Set-1, ENCASTRE
** Name: BC-2 Type: Displacement/Rotation
*Boundary, amplitude=Ramp
Set-2, 1, 1, 3.
** 
** OUTPUT REQUESTS
** 
*Restart, write, number interval=1, time marks=NO
** 
** FIELD OUTPUT: F-Output-1
** 
*Output, field, number interval=1
*Element Output, position=NODES, directions=YES
LE, PEEQ, SDV
** 
** HISTORY OUTPUT: H-Output-1
** 
*Output, history, variable=PRESELECT
*End Step
