*Heading
** Job name: Plate_195 Model name: Model-1
** Generated by: Abaqus/CAE 2024.HF3
*Preprint, echo=NO, model=NO, history=NO, contact=NO
**
** PARTS
**
*Part, name=PLATE
*Node
      1,   66.7287521,    150.54718,           0.
      2,   66.7287521,   81.0940857,           0.
      3,   80.0766068,   67.7462311,           0.
      4,   148.286118,   67.7462311,           0.
      5,   148.286118,    150.54718,           0.
      6,           0.,    150.54718,           0.
      7,           0.,   67.7462311,           0.
      8,   53.3808937,   67.7462311,           0.
      9,   66.7287521,   54.3983727,           0.
     10,   66.7287521,           0.,           0.
     11,   148.286118,           0.,           0.
     12,           0.,           0.,           0.
     13,   66.7287521,   145.916977,           0.
     14,   66.7287521,   141.286774,           0.
     15,   66.7287521,   136.656555,           0.
     16,   66.7287521,   132.026352,           0.
     17,   66.7287521,   127.396149,           0.
     18,   66.7287521,   122.765945,           0.
     19,   66.7287521,   118.135735,           0.
     20,   66.7287521,   113.505531,           0.
     21,   66.7287521,   108.875328,           0.
     22,   66.7287521,   104.245117,           0.
     23,   66.7287521,   99.6149139,           0.
     24,   66.7287521,   94.9847031,           0.
     25,   66.7287521,   90.3544998,           0.
     26,   66.7287521,   85.7242966,           0.
     27,   70.8534622,   80.4407959,           0.
     28,   74.5744247,   78.5448761,           0.
     29,   77.5273972,   75.5919037,           0.
     30,    79.423317,   71.8709488,           0.
     31,    84.623909,   67.7462311,           0.
     32,   89.1712112,   67.7462311,           0.
     33,   93.7185059,   67.7462311,           0.
     34,   98.2658081,   67.7462311,           0.
     35,    102.81311,   67.7462311,           0.
     36,   107.360413,   67.7462311,           0.
     37,   111.907707,   67.7462311,           0.
     38,   116.455009,   67.7462311,           0.
     39,   121.002312,   67.7462311,           0.
     40,   125.549614,   67.7462311,           0.
     41,   130.096909,   67.7462311,           0.
     42,   134.644211,   67.7462311,           0.
     43,   139.191513,   67.7462311,           0.
     44,   143.738815,   67.7462311,           0.
     45,   148.286118,    72.346283,           0.
     46,   148.286118,   76.9463348,           0.
     47,   148.286118,   81.5463867,           0.
     48,   148.286118,   86.1464386,           0.
     49,   148.286118,   90.7464905,           0.
     50,   148.286118,     95.34655,           0.
     51,   148.286118,   99.9466019,           0.
     52,   148.286118,   104.546654,           0.
     53,   148.286118,   109.146706,           0.
     54,   148.286118,   113.746758,           0.
     55,   148.286118,   118.346809,           0.
     56,   148.286118,   122.946861,           0.
     57,   148.286118,   127.546913,           0.
     58,   148.286118,   132.146973,           0.
     59,   148.286118,   136.747025,           0.
     60,   148.286118,   141.347076,           0.
     61,   148.286118,   145.947128,           0.
     62,   143.488617,    150.54718,           0.
     63,   138.691132,    150.54718,           0.
     64,   133.893631,    150.54718,           0.
     65,   129.096146,    150.54718,           0.
     66,   124.298653,    150.54718,           0.
     67,    119.50116,    150.54718,           0.
     68,   114.703667,    150.54718,           0.
     69,   109.906181,    150.54718,           0.
     70,   105.108688,    150.54718,           0.
     71,   100.311195,    150.54718,           0.
     72,   95.5137024,    150.54718,           0.
     73,   90.7162094,    150.54718,           0.
     74,   85.9187164,    150.54718,           0.
     75,   81.1212234,    150.54718,           0.
     76,   76.3237381,    150.54718,           0.
     77,   71.5262451,    150.54718,           0.
     78,     61.96241,    150.54718,           0.
     79,   57.1960716,    150.54718,           0.
     80,   52.4297333,    150.54718,           0.
     81,   47.6633949,    150.54718,           0.
     82,   42.8970528,    150.54718,           0.
     83,   38.1307144,    150.54718,           0.
     84,   33.3643761,    150.54718,           0.
     85,   28.5980358,    150.54718,           0.
     86,   23.8316975,    150.54718,           0.
     87,   19.0653572,    150.54718,           0.
     88,   14.2990179,    150.54718,           0.
     89,    9.5326786,    150.54718,           0.
     90,    4.7663393,    150.54718,           0.
     91,           0.,   145.947128,           0.
     92,           0.,   141.347076,           0.
     93,           0.,   136.747025,           0.
     94,           0.,   132.146973,           0.
     95,           0.,   127.546913,           0.
     96,           0.,   122.946861,           0.
     97,           0.,   118.346809,           0.
     98,           0.,   113.746758,           0.
     99,           0.,   109.146706,           0.
    100,           0.,   104.546654,           0.
    101,           0.,   99.9466019,           0.
    102,           0.,     95.34655,           0.
    103,           0.,   90.7464905,           0.
    104,           0.,   86.1464386,           0.
    105,           0.,   81.5463867,           0.
    106,           0.,   76.9463348,           0.
    107,           0.,    72.346283,           0.
    108,   4.85280848,   67.7462311,           0.
    109,   9.70561695,   67.7462311,           0.
    110,   14.5584249,   67.7462311,           0.
    111,   19.4112339,   67.7462311,           0.
    112,   24.2640419,   67.7462311,           0.
    113,   29.1168499,   67.7462311,           0.
    114,   33.9696579,   67.7462311,           0.
    115,   38.8224678,   67.7462311,           0.
    116,   43.6752739,   67.7462311,           0.
    117,   48.5280838,   67.7462311,           0.
    118,   54.0341835,   71.8709488,           0.
    119,   55.9301071,   75.5919037,           0.
    120,   58.8830757,   78.5448761,           0.
    121,   62.6040344,   80.4407959,           0.
    122,   66.7287521,   49.8651733,           0.
    123,   66.7287521,   45.3319778,           0.
    124,   66.7287521,   40.7987785,           0.
    125,   66.7287521,    36.265583,           0.
    126,   66.7287521,   31.7323837,           0.
    127,   66.7287521,   27.1991863,           0.
    128,   66.7287521,   22.6659889,           0.
    129,   66.7287521,   18.1327915,           0.
    130,   66.7287521,   13.5995932,           0.
    131,   66.7287521,   9.06639576,           0.
    132,   66.7287521,   4.53319788,           0.
    133,   71.5262451,           0.,           0.
    134,   76.3237381,           0.,           0.
    135,   81.1212234,           0.,           0.
    136,   85.9187164,           0.,           0.
    137,   90.7162094,           0.,           0.
    138,   95.5137024,           0.,           0.
    139,   100.311195,           0.,           0.
    140,   105.108688,           0.,           0.
    141,   109.906181,           0.,           0.
    142,   114.703667,           0.,           0.
    143,    119.50116,           0.,           0.
    144,   124.298653,           0.,           0.
    145,   129.096146,           0.,           0.
    146,   133.893631,           0.,           0.
    147,   138.691132,           0.,           0.
    148,   143.488617,           0.,           0.
    149,   148.286118,    4.5164156,           0.
    150,   148.286118,   9.03283119,           0.
    151,   148.286118,   13.5492458,           0.
    152,   148.286118,   18.0656624,           0.
    153,   148.286118,    22.582077,           0.
    154,   148.286118,   27.0984917,           0.
    155,   148.286118,   31.6149082,           0.
    156,   148.286118,   36.1313248,           0.
    157,   148.286118,   40.6477394,           0.
    158,   148.286118,   45.1641541,           0.
    159,   148.286118,   49.6805687,           0.
    160,   148.286118,   54.1969833,           0.
    161,   148.286118,    58.713398,           0.
    162,   148.286118,   63.2298164,           0.
    163,    79.423317,   63.6215172,           0.
    164,   77.5273972,   59.9005547,           0.
    165,   74.5744247,   56.9475861,           0.
    166,   70.8534622,   55.0516624,           0.
    167,   62.6040344,   55.0516624,           0.
    168,   58.8830757,   56.9475861,           0.
    169,   55.9301071,   59.9005547,           0.
    170,   54.0341835,   63.6215172,           0.
    171,           0.,   63.2298164,           0.
    172,           0.,    58.713398,           0.
    173,           0.,   54.1969833,           0.
    174,           0.,   49.6805687,           0.
    175,           0.,   45.1641541,           0.
    176,           0.,   40.6477394,           0.
    177,           0.,   36.1313248,           0.
    178,           0.,   31.6149082,           0.
    179,           0.,   27.0984917,           0.
    180,           0.,    22.582077,           0.
    181,           0.,   18.0656624,           0.
    182,           0.,   13.5492458,           0.
    183,           0.,   9.03283119,           0.
    184,           0.,    4.5164156,           0.
    185,    4.7663393,           0.,           0.
    186,    9.5326786,           0.,           0.
    187,   14.2990179,           0.,           0.
    188,   19.0653572,           0.,           0.
    189,   23.8316975,           0.,           0.
    190,   28.5980358,           0.,           0.
    191,   33.3643761,           0.,           0.
    192,   38.1307144,           0.,           0.
    193,   42.8970528,           0.,           0.
    194,   47.6633949,           0.,           0.
    195,   52.4297333,           0.,           0.
    196,   57.1960716,           0.,           0.
    197,     61.96241,           0.,           0.
    198,   71.1255188,   144.339676,           0.
    199,   82.2352142,   75.0241776,           0.
    200,   82.5325394,    70.782486,           0.
    201,   70.7471313,   125.080185,           0.
    202,   70.7421799,   120.450645,           0.
    203,   70.7384949,   115.820061,           0.
    204,   70.7328568,   111.189049,           0.
    205,   70.7228546,   106.557137,           0.
    206,   70.7070389,   101.925255,           0.
    207,   70.6891937,   97.3010483,           0.
    208,    70.720047,   92.7803497,           0.
    209,   74.9132004,   82.0951004,           0.
    210,   70.8180084,   88.3340073,           0.
    211,   70.8453445,   83.9990616,           0.
    212,   78.7080841,   79.1785736,           0.
    213,   105.079063,   71.6662369,           0.
    214,   100.533073,   71.6525116,           0.
    215,   95.9085388,   71.6694031,           0.
    216,   91.0861969,   71.7558975,           0.
    217,   86.2676315,   71.5499268,           0.
    218,   143.899185,   144.328491,           0.
    219,     144.1716,    134.50415,           0.
    220,   144.277573,   129.856979,           0.
    221,   144.296539,   125.248627,           0.
    222,    144.30069,   120.647064,           0.
    223,   144.302063,   116.046677,           0.
    224,    144.30336,   111.446503,           0.
    225,   144.304764,   106.846436,           0.
    226,   144.305817,   102.246422,           0.
    227,   144.306519,   97.6463623,           0.
    228,   144.307144,   93.0463028,           0.
    229,   144.305847,   88.4460373,           0.
    230,   144.270401,   83.8181152,           0.
    231,    144.15152,   79.0108032,           0.
    232,   144.150696,   73.9743805,           0.
    233,   78.7939682,   146.470291,           0.
    234,   112.310257,   146.409805,           0.
    235,   117.105873,   146.412842,           0.
    236,   121.901306,   146.415939,           0.
    237,   126.695557,   146.419754,           0.
    238,   131.451553,   146.433899,           0.
    239,   136.203552,    146.44371,           0.
    240,   109.627731,   71.6731033,           0.
    241,   140.731125,    71.505928,           0.
    242,   98.1835403,   75.5528717,           0.
    243,   118.728012,   71.6841888,           0.
    244,   114.178284,    71.678688,           0.
    245,    102.77446,   75.5621414,           0.
    246,   93.4407272,    75.608902,           0.
    247,   88.0066147,   76.2989578,           0.
    248,   123.275864,   71.6863327,           0.
    249,   127.824677,   71.7341614,           0.
    250,   136.871704,   71.8125916,           0.
    251,   143.944565,   139.296677,           0.
    252,   140.218735,   81.4755173,           0.
    253,   140.329788,   90.7451477,           0.
    254,   140.331192,   95.3455505,           0.
    255,   140.330139,   99.9457397,           0.
    256,    140.32785,   104.545502,           0.
    257,   140.320282,   113.745544,           0.
    258,   140.178818,   132.169128,           0.
    259,   140.312546,   122.946556,           0.
    260,   140.316452,   118.345955,           0.
    261,   140.324478,   109.145103,           0.
    262,    140.30072,   86.1389847,           0.
    263,   140.282257,   127.552078,           0.
    264,   70.7737885,   129.707596,           0.
    265,   74.6544342,   99.6016464,           0.
    266,   70.8756561,   134.401169,           0.
    267,   74.7044144,   95.0749283,           0.
    268,   74.7513275,    118.13308,           0.
    269,   74.7395935,   113.499489,           0.
    270,   74.7204971,   108.863853,           0.
    271,   74.6896362,   104.226585,           0.
    272,   74.7656097,   122.762077,           0.
    273,   107.512154,   146.410553,           0.
    274,   133.984924,   142.204025,           0.
    275,   74.7246399,   146.794327,           0.
    276,   83.5305252,   146.429169,           0.
    277,   88.3191376,   146.413116,           0.
    278,   93.1151581,   146.408127,           0.
    279,   97.9133072,   146.408539,           0.
    280,   102.712509,   146.410858,           0.
    281,   114.716423,   142.289993,           0.
    282,   119.509407,    142.29747,           0.
    283,   124.299347,   142.306107,           0.
    284,   129.170059,   142.162598,           0.
    285,   83.5923309,    79.966835,           0.
    286,   79.7527618,   83.8983078,           0.
    287,   139.632828,    76.222435,           0.
    288,   71.0669098,   139.246857,           0.
    289,   75.8226776,    142.07283,           0.
    290,   74.8092499,   90.6340485,           0.
    291,   107.336296,   75.5823898,           0.
    292,   132.367508,   71.8157806,           0.
    293,   125.677513,   75.7956619,           0.
    294,   121.134483,   75.8482971,           0.
    295,   116.489853,   75.6829681,           0.
    296,   95.7711792,   79.3446655,           0.
    297,    100.44101,   79.4273148,           0.
    298,   111.903107,   75.6148682,           0.
    299,   136.316986,   120.644348,           0.
    300,   136.258682,   125.252045,           0.
    301,   136.130096,   129.879929,           0.
    302,   136.355667,   102.243614,           0.
    303,   136.359711,   97.6441193,           0.
    304,   136.331039,     116.0429,           0.
    305,   136.350006,   106.842293,           0.
    306,   136.347137,   88.4341507,           0.
    307,   136.359512,   93.0422745,           0.
    308,   136.341827,   111.441895,           0.
    309,   136.368866,   83.7569962,           0.
    310,   139.947144,   136.841095,           0.
    311,   74.8994598,   132.078369,           0.
    312,   78.7521973,   115.806572,           0.
    313,   78.7828674,   120.440201,           0.
    314,   78.7251129,   111.165123,           0.
    315,   78.6841049,   106.518532,           0.
    316,    78.631279,   101.883591,           0.
    317,   78.6269531,   97.3091202,           0.
    318,   74.8073654,   127.405083,           0.
    319,   136.644958,   79.6200943,           0.
    320,   139.200912,    142.07132,           0.
    321,   109.918251,   142.288712,           0.
    322,   81.0129929,   142.212051,           0.
    323,   90.7064667,   142.261307,           0.
    324,   95.5133209,   142.277802,           0.
    325,   100.314812,   142.283401,           0.
    326,   121.916008,   138.203217,           0.
    327,   117.126976,    138.19278,           0.
    328,   126.662628,   138.098785,           0.
    329,   131.768097,   137.455307,           0.
    330,   85.8316345,   142.126434,           0.
    331,   105.116493,   142.288345,           0.
    332,   75.0890274,   136.820496,           0.
    333,   132.340973,   80.5880814,           0.
    334,   105.025635,   79.4708786,           0.
    335,   79.0066299,   134.477875,           0.
    336,   75.0002899,    86.245079,           0.
    337,   97.9641647,   83.2665482,           0.
    338,   123.761147,   80.4858627,           0.
    339,    118.72982,   79.7594299,           0.
    340,   114.156464,    79.584938,           0.
    341,   78.6793594,    92.852356,           0.
    342,    134.65921,   75.9891357,           0.
    343,    130.14679,   75.8651733,           0.
    344,   109.593468,   79.5157623,           0.
    345,   132.369034,   109.136063,           0.
    346,   132.380707,   104.537811,           0.
    347,    131.96228,   127.556534,           0.
    348,   132.183472,   122.907959,           0.
    349,   132.383682,   90.7124176,           0.
    350,   132.389404,   99.9403687,           0.
    351,   132.391525,   95.3349991,           0.
    352,   132.342514,   85.9119873,           0.
    353,   132.351212,   113.735031,           0.
    354,   132.300125,   118.325325,           0.
    355,   136.016006,   134.539551,           0.
    356,   82.7950211,     118.1008,           0.
    357,   78.9636536,    129.78183,           0.
    358,   78.8755798,   125.094742,           0.
    359,   82.7415543,   113.459892,           0.
    360,   82.6279373,   104.160416,           0.
    361,    82.689003,   108.807007,           0.
    362,   82.5652695,   99.5469208,           0.
    363,   136.183411,   138.622253,           0.
    364,   112.328171,   138.186478,           0.
    365,   83.2574158,   137.426468,           0.
    366,   119.561958,    134.01413,           0.
    367,    93.123497,   138.146484,           0.
    368,   97.9180832,   138.167313,           0.
    369,   124.292557,   134.068222,           0.
    370,   128.373337,   134.365875,           0.
    371,   88.4020844,   138.057129,           0.
    372,   102.719879,   138.176132,           0.
    373,   107.524048,   138.183701,           0.
    374,   78.8377457,   138.601944,           0.
    375,   140.296677,   146.787582,           0.
    376,   128.144577,   83.3910904,           0.
    377,   102.671623,   83.3412857,           0.
    378,    92.685257,   83.2000046,           0.
    379,   120.455185,   83.4554443,           0.
    380,   116.472435,   83.5884399,           0.
    381,   128.014206,    79.225174,           0.
    382,   111.881554,   83.4799347,           0.
    383,   82.5137863,   95.0436172,           0.
    384,   107.279785,   83.4049988,           0.
    385,   128.023941,    124.96019,           0.
    386,   128.401413,   106.827049,           0.
    387,   128.417343,   102.231628,           0.
    388,   128.226395,   120.490036,           0.
    389,   128.414429,   97.6255875,           0.
    390,   128.239273,   88.2078094,           0.
    391,   128.324753,   92.9447784,           0.
    392,    128.37706,   111.420868,           0.
    393,   128.324875,   115.983101,           0.
    394,   131.913925,   132.285965,           0.
    395,   83.1552887,   127.435913,           0.
    396,   86.7850266,   115.739525,           0.
    397,   82.9418411,   122.723122,           0.
    398,    86.637291,   106.434776,           0.
    399,   86.7091904,   111.088799,           0.
    400,   86.5310364,   101.818558,           0.
    401,   114.764801,   134.021912,           0.
    402,   95.5530396,   134.079773,           0.
    403,   122.089134,   129.865616,           0.
    404,   86.7124786,   134.332275,           0.
    405,   127.280556,   129.912872,           0.
    406,   100.328362,   134.081161,           0.
    407,    90.813591,   134.085144,           0.
    408,   105.129333,   134.089096,           0.
    409,   109.942551,   134.075684,           0.
    410,   124.022293,   85.6463852,           0.
    411,   95.5631485,   87.2284012,           0.
    412,   91.6113968,   79.1340714,           0.
    413,   100.297401,   87.2237625,           0.
    414,   82.5070038,   90.7516327,           0.
    415,   119.403801,   87.9724731,           0.
    416,   114.210907,   87.6037521,           0.
    417,   109.550362,   87.3983459,           0.
    418,   124.161972,   122.584061,           0.
    419,   124.440308,   104.515396,           0.
    420,   124.455391,   99.9407196,           0.
    421,    124.27729,   118.165039,           0.
    422,     86.46595,   97.2679062,           0.
    423,   124.410698,   109.102997,           0.
    424,   124.374138,   95.3501129,           0.
    425,   124.120125,   90.5718079,           0.
    426,   87.1363754,     124.9244,           0.
    427,   124.358658,   113.660553,           0.
    428,   104.933716,   87.2944412,           0.
    429,    86.926857,   120.352142,           0.
    430,   90.7901382,   113.356697,           0.
    431,   83.1641464,   132.220749,           0.
    432,   90.6684036,   108.701523,           0.
    433,   90.5046082,   104.097343,           0.
    434,   117.222878,   129.804367,           0.
    435,    97.891243,   129.897705,           0.
    436,   124.285553,   126.507835,           0.
    437,   102.727341,   129.993179,           0.
    438,   93.0420532,   129.955566,           0.
    439,    87.846756,   129.926788,           0.
    440,   107.545341,    130.00354,           0.
    441,   112.352516,   129.933502,           0.
    442,   88.2033234,   81.2681503,           0.
    443,   119.908936,    125.30175,           0.
    444,   78.8620682,   88.5750122,           0.
    445,   97.9429474,   91.0856857,           0.
    446,    91.005188,    87.586792,           0.
    447,   86.3399582,   92.8567886,           0.
    448,   116.172081,   91.8973541,           0.
    449,   111.733673,   91.4572678,           0.
    450,   120.290756,   120.449623,           0.
    451,    120.43293,   102.175316,           0.
    452,   120.443298,   106.780937,           0.
    453,    120.53508,   97.6558304,           0.
    454,   91.0360565,    122.56031,           0.
    455,   120.338348,    93.175148,           0.
    456,   120.336967,   115.974869,           0.
    457,   102.578186,   91.1650467,           0.
    458,   120.390938,   111.389725,           0.
    459,    107.17482,    91.251152,           0.
    460,   90.3514175,   99.6306305,           0.
    461,   90.9635315,   117.983704,           0.
    462,   94.8036118,   110.921875,           0.
    463,   94.6906281,   106.245575,           0.
    464,   84.8218918,   84.2205124,           0.
    465,   100.401794,   125.876175,           0.
    466,   105.132576,   125.961754,           0.
    467,   95.3107452,   125.335098,           0.
    468,   109.905846,   125.845436,           0.
    469,   114.734085,   125.759407,           0.
    470,   90.8743973,   126.540436,           0.
    471,   116.718506,   122.265945,           0.
    472,   82.4634933,   87.1441116,           0.
    473,   88.6178741,   84.9101105,           0.
    474,   93.3859863,   91.0850143,           0.
    475,   86.4669189,   88.3400269,           0.
    476,   90.7664719,   94.9279633,           0.
    477,    100.12487,   95.0039062,           0.
    478,   113.791313,   95.3267288,           0.
    479,   116.337769,   104.389664,           0.
    480,    116.06485,   99.3681641,           0.
    481,   116.410202,   118.338966,           0.
    482,   116.391335,   109.068497,           0.
    483,   109.505043,   95.1787872,           0.
    484,   116.399986,    113.72361,           0.
    485,   94.3399048,   101.668236,           0.
    486,   104.876961,   95.2258224,           0.
    487,   95.1150665,    115.56221,           0.
    488,    99.095108,   108.454132,           0.
    489,   102.775375,    122.00399,           0.
    490,   98.7085266,   122.270798,           0.
    491,   107.378334,   121.925781,           0.
    492,   112.371689,   121.238777,           0.
    493,   89.5929031,   90.9593124,           0.
    494,   95.5737076,   94.7864761,           0.
    495,   112.052979,     102.1353,           0.
    496,   112.150421,   106.703758,           0.
    497,   112.366158,   116.181602,           0.
    498,   112.107422,      111.431,           0.
    499,   102.234245,   99.0755463,           0.
    500,   95.1646805,   120.263382,           0.
    501,   107.491455,   99.5632019,           0.
    502,   99.3161011,     103.3004,           0.
    503,   99.2264481,   113.029755,           0.
    504,   104.958885,   118.140854,           0.
    505,   99.8694916,   117.986565,           0.
    506,   97.5454102,     98.62883,           0.
    507,   107.788231,   104.370399,           0.
    508,   107.731644,   108.956764,           0.
    509,   104.040787,   102.547577,           0.
    510,   103.554192,   106.394409,           0.
    511,    103.39357,   110.923317,           0.
    512,   93.7153854,   97.9284286,           0.
    513,   103.012993,    114.83007,           0.
    514,   107.508865,   114.115135,           0.
    515,   108.916786,   118.320435,           0.
    516,   111.781128,   98.3144379,           0.
    517,   117.380333,    95.484642,           0.
    518,   58.6923828,   82.0691986,           0.
    519,   62.7290802,   106.557732,           0.
    520,   52.4074135,   75.6592865,           0.
    521,   62.4809875,    144.22699,           0.
    522,   62.5293961,   139.186691,           0.
    523,   62.6738548,   134.383072,           0.
    524,   62.7013931,   129.718628,           0.
    525,    62.710022,   125.081505,           0.
    526,   62.7145348,   120.450325,           0.
    527,    62.717453,   115.820282,           0.
    528,   62.7217979,   111.189278,           0.
    529,   62.7437401,   101.925804,           0.
    530,   62.7631111,   97.2952652,           0.
    531,   62.7051964,   92.7851944,           0.
    532,   62.6147041,   88.3259048,           0.
    533,   30.9844398,    146.43129,           0.
    534,   35.7496223,   146.432053,           0.
    535,   40.5147476,   146.433517,           0.
    536,   45.2808685,    146.43541,           0.
    537,   50.1073532,   146.389252,           0.
    538,   54.8629837,   146.384018,           0.
    539,   4.33459568,   74.0082855,           0.
    540,   4.00122166,   88.4510574,           0.
    541,   3.98293829,   93.0469894,           0.
    542,   3.98143053,    97.646019,           0.
    543,   3.98278117,   102.246185,           0.
    544,   3.98399091,   106.846466,           0.
    545,   3.98521018,   111.446541,           0.
    546,   3.98677182,    116.04641,           0.
    547,   3.98920488,   120.646225,           0.
    548,   3.99327302,   125.245827,           0.
    549,   3.99819469,   129.845566,           0.
    550,   4.03013563,   134.454926,           0.
    551,   4.18293858,   139.226776,           0.
    552,   4.24748087,   144.268387,           0.
    553,   12.0964251,   71.8961258,           0.
    554,    31.568882,    71.872261,           0.
    555,   36.4149132,   71.8432312,           0.
    556,   41.2322083,   71.7173309,           0.
    557,   45.9483566,    71.630249,           0.
    558,   50.4135399,   71.6893692,           0.
    559,     55.18507,   79.2907028,           0.
    560,   62.6328201,   83.9858246,           0.
    561,   48.1610451,    75.724472,           0.
    562,   4.05503988,   83.8352203,           0.
    563,   8.04030991,   132.152206,           0.
    564,   7.97047186,   109.145584,           0.
    565,   4.26192284,   79.0312347,           0.
    566,   7.96053171,   95.3443832,           0.
    567,   7.98539209,   90.7574921,           0.
    568,   7.97986412,   118.344093,           0.
    569,    7.9635253,   99.9441376,           0.
    570,   7.96718025,   104.544922,           0.
    571,    7.9748621,   113.744789,           0.
    572,    7.9887948,    122.94236,           0.
    573,   8.00847816,   127.545761,           0.
    574,   8.19794559,   136.840744,           0.
    575,   58.5205956,   136.786514,           0.
    576,   58.6828346,   127.394073,           0.
    577,   58.7835274,   99.5983887,           0.
    578,   58.7028503,   118.133087,           0.
    579,   58.7109795,   113.501862,           0.
    580,   58.6989517,   95.0702896,           0.
    581,   58.6062813,   90.5838318,           0.
    582,   58.7267838,   108.865616,           0.
    583,   58.7536507,   104.227524,           0.
    584,   58.6934509,   122.761864,           0.
    585,    58.628437,   132.099045,           0.
    586,   26.2164154,   146.433334,           0.
    587,   16.6218452,   146.392685,           0.
    588,   21.4318485,   146.424408,           0.
    589,   33.3714752,   142.326523,           0.
    590,   38.1358681,   142.329132,           0.
    591,   42.9003448,   142.333282,           0.
    592,   47.7803268,   142.195618,           0.
    593,   52.6480484,   142.165436,           0.
    594,   11.8427143,   146.367645,           0.
    595,   16.9387894,   71.9036179,           0.
    596,   34.0375328,   75.9117432,           0.
    597,   21.8334446,   71.8961411,           0.
    598,    26.709856,   71.8792953,           0.
    599,   38.8456154,   75.7780609,           0.
    600,   43.5388069,   75.7016144,           0.
    601,   50.6268578,    80.416893,           0.
    602,   54.7218285,   83.6587601,           0.
    603,   58.6402359,   86.1447372,           0.
    604,   8.07187653,   86.1247406,           0.
    605,   11.9613438,   111.442047,           0.
    606,   11.9544401,   106.842155,           0.
    607,   11.9476414,   102.240631,           0.
    608,   11.9712162,   116.039276,           0.
    609,   11.9849892,    120.63562,           0.
    610,   11.9408045,    97.643486,           0.
    611,    12.007329,   125.236603,           0.
    612,    11.958127,   93.0605927,           0.
    613,   12.1157074,   134.585526,           0.
    614,   12.0523357,   129.907211,           0.
    615,   54.6968269,   115.810585,           0.
    616,   54.7187729,   111.170258,           0.
    617,   54.6812325,   120.439423,           0.
    618,   54.6579399,   129.794724,           0.
    619,   54.6407051,   134.496155,           0.
    620,   54.6717453,   125.090363,           0.
    621,    54.756031,   106.522141,           0.
    622,   54.7306213,   92.7716904,           0.
    623,   54.7965088,   97.3169403,           0.
    624,   54.7974854,   101.887489,           0.
    625,   57.8274574,   141.999481,           0.
    626,    45.787899,   79.7552414,           0.
    627,   28.6037045,    142.32782,           0.
    628,   7.84705544,   146.733643,           0.
    629,   14.1078615,   142.210815,           0.
    630,   18.9736118,   142.178696,           0.
    631,   35.7603989,   138.235825,           0.
    632,   40.5488472,   138.237122,           0.
    633,   45.3216782,   138.130753,           0.
    634,   50.4566536,   137.447784,           0.
    635,   23.8250637,   142.293289,           0.
    636,   29.1769085,   75.9570923,           0.
    637,   14.3313522,   76.1162415,           0.
    638,   41.2350616,    79.775116,           0.
    639,   36.5052567,   79.8707809,           0.
    640,   19.2814808,   76.1681824,           0.
    641,   24.2606888,   76.0325546,           0.
    642,   8.27995491,   81.4465256,           0.
    643,   9.04738045,   76.2528915,           0.
    644,   8.91165161,   142.051636,           0.
    645,   47.4830894,   83.4710159,           0.
    646,   54.7210693,   88.2020111,           0.
    647,   12.1533155,   83.7796783,           0.
    648,   12.0193586,   88.4376678,           0.
    649,   16.2017403,   127.651855,           0.
    650,   15.9599552,   113.732445,           0.
    651,   16.0590057,   122.954872,           0.
    652,   15.9930372,   118.332741,           0.
    653,   16.2231503,   132.396317,           0.
    654,   15.9463024,   109.135246,           0.
    655,   15.9349947,   104.535133,           0.
    656,   15.9224367,   99.9427567,           0.
    657,   15.9249849,      95.3638,           0.
    658,   11.9373598,   138.647812,           0.
    659,   50.6750565,   118.111961,           0.
    660,   50.6720848,   122.733719,           0.
    661,   50.8578453,   99.5704269,           0.
    662,   50.8621483,   95.0014191,           0.
    663,   50.7048187,   113.470863,           0.
    664,   50.6013412,   132.247009,           0.
    665,   50.5470924,   127.461769,           0.
    666,   58.8659821,   146.740967,           0.
    667,   50.7507515,   108.813019,           0.
    668,   50.8077888,   104.166534,           0.
    669,   54.8186913,   138.579071,           0.
    670,   30.9963665,   138.237122,           0.
    671,   31.6618195,   79.9905319,           0.
    672,   16.3711281,   137.527527,           0.
    673,   47.0837173,   134.385483,           0.
    674,   38.2428207,   134.110657,           0.
    675,   42.9952202,   134.138229,           0.
    676,   21.5019321,   138.155807,           0.
    677,   26.2382946,   138.230133,           0.
    678,   8.00736523,    71.529953,           0.
    679,   16.4766655,   80.8686676,           0.
    680,   38.9727669,   83.7950439,           0.
    681,   21.7621136,    80.383194,           0.
    682,   26.7013149,   80.2895813,           0.
    683,   50.8068008,   85.6604767,           0.
    684,   16.0361176,   86.0416794,           0.
    685,   20.8839684,   130.116867,           0.
    686,   19.9757576,    116.01651,           0.
    687,   20.1800518,   125.131927,           0.
    688,    20.037344,   120.579666,           0.
    689,    15.957798,   90.7261353,           0.
    690,   19.9466572,    111.42157,           0.
    691,   19.9270172,   106.825035,           0.
    692,   19.9094753,   102.233215,           0.
    693,   19.9660549,   97.6127396,           0.
    694,   12.0577335,   79.6928024,           0.
    695,   43.5763321,   83.7169571,           0.
    696,   46.6824112,   120.368362,           0.
    697,   46.6893158,   115.759239,           0.
    698,   46.6003799,   124.934372,           0.
    699,   45.9446487,   129.952637,           0.
    700,   46.9651222,   97.2231064,           0.
    701,   50.7687798,   90.3689423,           0.
    702,   46.7367783,   111.102089,           0.
    703,    46.884037,   101.802544,           0.
    704,   46.8056145,   106.437965,           0.
    705,   34.1784897,   83.9536972,           0.
    706,   33.4157982,   134.092087,           0.
    707,   23.8479366,   134.210739,           0.
    708,   19.7656231,   134.481461,           0.
    709,    40.763504,   129.995987,           0.
    710,   28.5901089,   134.128983,           0.
    711,   19.6499901,   84.1654434,           0.
    712,      24.1833,   85.1083221,           0.
    713,   29.4213943,   84.2214737,           0.
    714,   46.3745041,   87.8139191,           0.
    715,   46.9387207,   92.7204132,           0.
    716,   19.9744892,   88.2487259,           0.
    717,    43.150074,   94.9253082,           0.
    718,   41.3981819,   87.7363815,           0.
    719,   23.9028072,   126.711227,           0.
    720,    23.961134,   118.250801,           0.
    721,   23.8873844,   113.695053,           0.
    722,   24.0656738,   122.767441,           0.
    723,   20.0334702,   92.9075928,           0.
    724,   23.8488731,   109.105957,           0.
    725,   23.8356514,   104.511009,           0.
    726,   23.9583836,    99.885994,           0.
    727,   42.7534561,   117.945457,           0.
    728,   42.7288971,   122.537712,           0.
    729,   42.7928925,   113.329994,           0.
    730,     36.66959,   87.9324646,           0.
    731,   43.0185661,   99.4231339,           0.
    732,   42.9194641,   104.052055,           0.
    733,   42.8697662,   108.710098,           0.
    734,   42.9055061,   126.557144,           0.
    735,   35.8782692,    129.88382,           0.
    736,   30.9523277,    129.91571,           0.
    737,   31.8735447,   88.0750427,           0.
    738,   38.4951401,   125.186462,           0.
    739,   39.3073158,   97.0630722,           0.
    740,   24.1941376,     90.30439,           0.
    741,    27.710783,    115.85479,           0.
    742,   28.2493706,   125.463326,           0.
    743,   27.8721828,   120.434425,           0.
    744,     27.62994,   111.308495,           0.
    745,   24.1750584,   95.1347122,           0.
    746,   27.6421604,   102.320595,           0.
    747,   38.9421349,   120.017227,           0.
    748,   27.5830822,   106.786369,           0.
    749,   39.0192375,   115.522858,           0.
    750,   39.0697479,   110.978127,           0.
    751,   39.0852013,   101.674026,           0.
    752,   26.0710869,   130.091141,           0.
    753,   39.1041412,   106.389801,           0.
    754,    33.308445,   125.711464,           0.
    755,   39.1778374,   92.2683411,           0.
    756,    27.705471,   88.0338593,           0.
    757,   34.1588707,   92.0024261,           0.
    758,   43.4078636,   91.0928726,           0.
    759,    31.252039,   122.165733,           0.
    760,   31.8961754,   117.736015,           0.
    761,   34.8031425,   104.262459,           0.
    762,   28.9356976,    92.458992,           0.
    763,   35.5254478,   99.1418076,           0.
    764,   36.1137924,   95.3001328,           0.
    765,   34.9093246,   113.284554,           0.
    766,   28.1150894,   97.7329941,           0.
    767,    34.961525,   121.403221,           0.
    768,   31.7635212,   108.912994,           0.
    769,   32.4047775,   96.2014999,           0.
    770,   31.5364475,   100.698959,           0.
    771,   35.9456787,   117.592773,           0.
    772,   30.7819481,   113.419373,           0.
    773,   30.6656704,   104.596275,           0.
    774,   35.9299774,   108.765587,           0.
    775,   74.9535294,   53.4014359,           0.
    776,   70.9879379,   6.20072412,           0.
    777,    70.908638,   11.1332369,           0.
    778,   70.7353134,   15.8311367,           0.
    779,   70.6890564,   20.3948555,           0.
    780,   70.6709213,   24.9343452,           0.
    781,   70.6548386,   29.4698048,           0.
    782,   70.6379547,    34.003418,           0.
    783,   70.6200256,   38.5359421,           0.
    784,   70.6967316,   42.9404144,           0.
    785,   70.8414536,   47.2933884,           0.
    786,   117.099136,   4.14007759,           0.
    787,   112.302818,   4.14043665,           0.
    788,   107.506577,   4.13864756,           0.
    789,   102.709358,   4.13620615,           0.
    790,   97.9118729,   4.13324738,           0.
    791,   93.1142426,   4.13019276,           0.
    792,   88.3093414,   4.12642956,           0.
    793,   83.4499054,   4.15233707,           0.
    794,    78.655571,   4.11933327,           0.
    795,   144.116974,   61.6790504,           0.
    796,   144.368271,   38.3921204,           0.
    797,   144.365265,   33.8751526,           0.
    798,   144.360657,   29.3581486,           0.
    799,   144.354584,   24.8422337,           0.
    800,    144.34491,   20.3276615,           0.
    801,   144.293015,   15.7993593,           0.
    802,   144.117416,   11.1228542,           0.
    803,   144.034805,   6.18407536,           0.
    804,   136.853638,   63.8023872,           0.
    805,   132.353378,    63.812397,           0.
    806,   127.818649,   63.8116798,           0.
    807,   123.274918,   63.8098297,           0.
    808,   118.728752,   63.8075867,           0.
    809,   114.181908,   63.8053055,           0.
    810,   109.633835,   63.8052826,           0.
    811,   105.084305,   63.8106422,           0.
    812,   100.535004,   63.8240128,           0.
    813,   95.9918823,   63.8410263,           0.
    814,   91.5433655,   63.8236732,           0.
    815,   81.0285263,   59.8003197,           0.
    816,   87.1708679,   63.7549095,           0.
    817,   82.9167328,   63.7326698,           0.
    818,   78.4592361,   56.2270355,           0.
    819,   70.8782806,   51.5461388,           0.
    820,   144.366974,    42.909256,           0.
    821,   140.161148,   13.5052032,           0.
    822,   140.313858,    18.045475,           0.
    823,   140.383133,   22.5838757,           0.
    824,   144.284775,   51.9991188,           0.
    825,   144.346893,   47.4282265,           0.
    826,   140.438583,   36.1403465,           0.
    827,   144.151917,   56.7254295,           0.
    828,   140.428482,   31.6227531,           0.
    829,   140.411209,   27.1051254,           0.
    830,    74.533493,   36.2788696,           0.
    831,   74.5990829,   27.2160664,           0.
    832,   74.6405258,   40.6962929,           0.
    833,   74.8623352,     45.01614,           0.
    834,   74.6966858,   18.0931396,           0.
    835,   74.8863907,   13.4943886,           0.
    836,    74.565918,   31.7526703,           0.
    837,   74.6392899,   22.6709518,           0.
    838,    98.250267,   59.9236984,           0.
    839,   102.797256,   59.8898277,           0.
    840,   134.697266,   59.8677444,           0.
    841,   130.151672,   59.8687668,           0.
    842,   125.558563,   59.8718758,           0.
    843,   121.005318,   59.8677826,           0.
    844,   116.457474,   59.8626633,           0.
    845,   111.907692,   59.8607864,           0.
    846,   107.353073,   59.8684387,           0.
    847,   93.8135452,   59.8921356,           0.
    848,   121.904037,   4.13883018,           0.
    849,   131.592896,   4.17080212,           0.
    850,    109.90004,   8.26894951,           0.
    851,   100.308113,   8.25603104,           0.
    852,   90.7024841,   8.23855209,           0.
    853,   80.8601074,    8.2778492,           0.
    854,   136.391739,   4.14312649,           0.
    855,   140.414047,   3.76648068,           0.
    856,   114.696358,   8.26778603,           0.
    857,   95.5081558,   8.24461365,           0.
    858,   105.104378,   8.26074696,           0.
    859,   85.7699966,   8.33707142,           0.
    860,   126.739578,   4.15433025,           0.
    861,   82.8361969,   55.8633614,           0.
    862,   79.8593521,   51.6368637,           0.
    863,   139.386307,   8.39698124,           0.
    864,   75.6398468,   8.40531445,           0.
    865,   136.386078,   11.7675991,           0.
    866,   89.4390335,   59.8319931,           0.
    867,   140.418243,   45.1385307,           0.
    868,   140.241653,   49.6836586,           0.
    869,   136.470337,   29.3777752,           0.
    870,   136.487411,   33.8977127,           0.
    871,   136.436295,   24.8581619,           0.
    872,   136.264877,   15.7718678,           0.
    873,   136.367966,   20.3177299,           0.
    874,   75.0908585,   49.3191109,           0.
    875,   140.437576,   40.6508827,           0.
    876,   78.6262894,   20.3756027,           0.
    877,   78.7239609,   15.7924013,           0.
    878,   78.5635147,   24.9686852,           0.
    879,   78.5779724,   42.7311783,           0.
    880,   78.4803619,   38.4648247,           0.
    881,   78.4709778,   34.0332298,           0.
    882,   78.5159607,   29.5150871,           0.
    883,   139.625961,   59.5389862,           0.
    884,   123.291206,     55.93013,           0.
    885,   127.947433,   55.9484329,           0.
    886,   132.577362,   56.0158157,           0.
    887,   118.736763,   55.9179688,           0.
    888,   109.625076,   55.9157104,           0.
    889,   114.183792,   55.9116058,           0.
    890,   105.056244,   55.9400253,           0.
    891,   100.493729,   55.9850349,           0.
    892,   96.0260391,    55.993145,           0.
    893,   119.504105,   8.26394272,           0.
    894,   129.247955,   8.37137222,           0.
    895,   134.162613,   8.30128479,           0.
    896,   112.292038,   12.3827925,           0.
    897,   102.700256,   12.3668375,           0.
    898,   97.8926849,   12.3508396,           0.
    899,   93.0371475,   12.3402691,           0.
    900,   107.494057,   12.3758144,           0.
    901,   88.1682968,   12.3908625,           0.
    902,   82.9688187,   12.9690447,           0.
    903,   124.338013,    8.2870388,           0.
    904,    140.09462,   54.3750458,           0.
    905,   74.6266632,   3.74507427,           0.
    906,   131.991669,   12.9717112,           0.
    907,   78.9587097,   46.8128166,           0.
    908,   135.557846,   52.0979843,           0.
    909,   85.1113205,   59.8069878,           0.
    910,   91.6417999,   55.9720039,           0.
    911,   132.433563,   22.5470943,           0.
    912,   136.450699,   42.8884964,           0.
    913,    132.48317,   27.1177826,           0.
    914,     136.2733,   47.3144798,           0.
    915,   132.385925,   17.9778938,           0.
    916,   132.513855,   31.6582851,           0.
    917,   82.3704834,   36.2968178,           0.
    918,   82.7146759,   18.0588856,           0.
    919,   82.4246597,   31.8213158,           0.
    920,   82.2663269,   40.7200279,           0.
    921,   136.482605,   38.4092293,           0.
    922,   136.510605,   56.3791161,           0.
    923,   116.461845,   51.9605408,           0.
    924,   82.7115707,   22.7100315,           0.
    925,   121.004723,   51.9914894,           0.
    926,   82.5288239,   27.3061123,           0.
    927,   130.415024,   52.1171112,           0.
    928,   125.676804,   51.9695435,           0.
    929,   111.900139,   51.9562035,           0.
    930,   98.2191544,   52.0710907,           0.
    931,   102.745224,   52.0169449,           0.
    932,   107.320694,   51.9753342,           0.
    933,   78.6158218,   11.7877998,           0.
    934,   117.106781,   12.3959036,           0.
    935,   105.081604,   16.4687271,           0.
    936,   90.4771957,   16.3265572,           0.
    937,   100.275337,   16.4452648,           0.
    938,   95.3854599,   16.3831062,           0.
    939,   86.3312988,    16.024044,           0.
    940,     109.8806,   16.4778633,           0.
    941,   126.802414,   12.5634518,           0.
    942,   121.970238,   12.5550938,           0.
    943,   140.705383,   64.1025772,           0.
    944,   132.567947,   48.8803062,           0.
    945,   87.2764282,   55.9234467,           0.
    946,    132.48674,   40.6596184,           0.
    947,   128.508041,   20.1838036,           0.
    948,   128.452148,   24.7927132,           0.
    949,   132.417557,    45.054203,           0.
    950,   128.478394,   29.3849869,           0.
    951,   81.8147202,    44.357235,           0.
    952,   93.8352737,   52.1396637,           0.
    953,   86.1687317,   38.7882309,           0.
    954,   86.3188629,   34.1680336,           0.
    955,   87.4369812,   20.3162746,           0.
    956,   123.290657,   48.1033401,           0.
    957,   86.4717712,   29.6473274,           0.
    958,   128.270477,   47.6700249,           0.
    959,   118.758453,   48.0546265,           0.
    960,   114.186974,   48.0051613,           0.
    961,   86.7175674,   25.1629829,           0.
    962,   132.511826,   36.1720467,           0.
    963,   109.593285,   48.0036316,           0.
    964,   104.988403,   48.0400963,           0.
    965,   100.375633,    48.066494,           0.
    966,   114.679916,   16.4936066,           0.
    967,   102.655708,   20.5333939,           0.
    968,   124.442703,   17.2456818,           0.
    969,   97.7085419,   20.5365677,           0.
    970,   92.7397079,   20.3476715,           0.
    971,   107.459282,   20.5542068,           0.
    972,   119.372231,   16.5892353,           0.
    973,   128.826157,    16.188509,           0.
    974,     83.20858,   47.7971954,           0.
    975,   85.8077621,   43.7731934,           0.
    976,   85.0440674,   51.9336624,           0.
    977,   90.4941711,   23.6402988,           0.
    978,   89.5140991,   52.1163025,           0.
    979,   128.463943,   38.3714371,           0.
    980,   128.443619,   42.8347664,           0.
    981,   124.468307,    27.002533,           0.
    982,   121.100189,   44.3065834,           0.
    983,   90.4806366,   32.0230179,           0.
    984,   90.3900146,   36.7046204,           0.
    985,   116.537003,   44.1409798,           0.
    986,   90.6282654,   27.5702419,           0.
    987,   111.898178,    44.053688,           0.
    988,   95.8549118,   48.1827202,           0.
    989,   128.529709,   33.8800697,           0.
    990,   107.262833,   44.0544205,           0.
    991,    102.57373,   44.0409584,           0.
    992,   112.263542,   20.5576096,           0.
    993,   100.251854,   24.5659065,           0.
    994,   95.0037231,   24.9749279,           0.
    995,   105.041725,   24.5728512,           0.
    996,   121.013123,   20.2935867,           0.
    997,   116.988716,   20.5514603,           0.
    998,   90.0142059,   41.4091377,           0.
    999,   124.371368,   35.8015518,           0.
   1000,   91.6075439,   48.3829575,           0.
   1001,   118.920456,   40.4772873,           0.
   1002,   94.7690582,   29.9122372,           0.
   1003,   94.6942139,   34.5158653,           0.
   1004,   114.267128,   40.2194138,           0.
   1005,   124.462021,   31.3616257,           0.
   1006,   124.458145,   22.3751545,           0.
   1007,   97.8288651,   44.0472565,           0.
   1008,   109.578499,   40.1181488,           0.
   1009,   87.4760284,   48.2056084,           0.
   1010,   123.882278,   40.5402908,           0.
   1011,   104.861076,   40.1219215,           0.
   1012,   109.826538,   24.5545387,           0.
   1013,   98.4221649,   28.0752621,           0.
   1014,   102.541039,   28.4070663,           0.
   1015,   119.948708,    24.671917,           0.
   1016,   114.668259,   24.5918999,           0.
   1017,   124.997444,   44.6910019,           0.
   1018,   93.3044586,   44.4727058,           0.
   1019,   89.6419983,   45.2487221,           0.
   1020,   94.9469147,   39.6737289,           0.
   1021,   119.848549,   33.0361214,           0.
   1022,   116.721375,   36.6037674,           0.
   1023,   100.149094,   40.1192284,           0.
   1024,   111.988297,   36.3258209,           0.
   1025,   107.208176,   36.2581482,           0.
   1026,   107.319374,    28.443449,           0.
   1027,   99.4109192,   32.2961617,           0.
   1028,   117.025963,   28.7145824,           0.
   1029,   112.164589,   28.5224857,           0.
   1030,   121.150711,   28.9573555,           0.
   1031,    120.74881,   37.2918015,           0.
   1032,   114.565392,   32.5924416,           0.
   1033,   102.444588,   36.2763748,           0.
   1034,   104.761276,   32.3388481,           0.
   1035,   109.667854,   32.4135323,           0.
   1036,   98.3291473,   36.5762711,           0.
   1037,   62.3716278,   6.09682941,           0.
   1038,   51.0221214,   60.3095627,           0.
   1039,   50.7480545,   64.6514816,           0.
   1040,   62.7708321,   20.4018421,           0.
   1041,   62.7941628,   24.9332314,           0.
   1042,    62.805603,   29.4678764,           0.
   1043,   62.8194008,      34.0028,           0.
   1044,   62.8347664,   38.5321808,           0.
   1045,   62.8159485,   42.9656258,           0.
   1046,   58.7337036,   53.4901962,           0.
   1047,   62.7414932,   47.3262291,           0.
   1048,   62.7062988,   51.5760841,           0.
   1049,   54.8218155,   56.2371712,           0.
   1050,   31.5646839,   63.6065979,           0.
   1051,   36.5038528,   63.6006775,           0.
   1052,   41.6569786,    63.577198,           0.
   1053,   46.7791443,   63.8501816,           0.
   1054,   4.35195351,   6.12150097,           0.
   1055,   4.05294895,   15.7605219,           0.
   1056,   3.93883014,   20.3154545,           0.
   1057,   3.91933584,    24.838604,           0.
   1058,   3.91675878,   29.3558559,           0.
   1059,   3.91911077,   33.8721352,           0.
   1060,    3.9237988,   38.3884468,           0.
   1061,   3.93070745,   42.9041634,           0.
   1062,    3.9396286,   47.4197311,           0.
   1063,   3.99553776,   51.9452858,           0.
   1064,   4.18655396,   56.6142921,           0.
   1065,   4.28409004,   61.5534058,           0.
   1066,   54.7507439,   4.03153229,           0.
   1067,   30.9733543,   4.10210323,           0.
   1068,   26.2098007,   4.09748459,           0.
   1069,    21.446497,   4.09370756,           0.
   1070,   16.7219925,   4.08016682,           0.
   1071,   11.9998007,   4.06184435,           0.
   1072,   4.29514074,    11.065402,           0.
   1073,   7.93524456,   49.6196709,           0.
   1074,    7.8645978,   40.6401024,           0.
   1075,   7.84125757,   31.6111221,           0.
   1076,   7.98071766,   18.0583649,           0.
   1077,   7.86616898,   22.5787811,           0.
   1078,   7.84360838,   27.0960579,           0.
   1079,   7.89193773,   45.1382942,           0.
   1080,   7.85224819,   36.1248207,           0.
   1081,   8.11124516,   54.1162872,           0.
   1082,   62.6554909,   15.8184662,           0.
   1083,    58.933567,   36.2783852,           0.
   1084,   58.8972816,   40.6976852,           0.
   1085,   58.8749046,   27.2067051,           0.
   1086,   58.9020767,   31.7475796,           0.
   1087,   58.8327332,   22.6829433,           0.
   1088,   35.7405396,   4.10057354,           0.
   1089,   58.7949562,   3.69747257,           0.
   1090,   50.0408173,   4.07900429,           0.
   1091,   45.2789421,   4.09622192,           0.
   1092,   40.5104904,   4.09909821,           0.
   1093,   19.0099964,   8.28570747,           0.
   1094,   28.5798569,   8.17831802,           0.
   1095,   23.8105793,    8.1868906,           0.
   1096,   14.1765947,   8.26705551,           0.
   1097,   26.6985493,   63.5907631,           0.
   1098,   34.0806808,   59.5165405,           0.
   1099,   16.8376694,   63.4615822,           0.
   1100,   21.7715111,   63.5136108,           0.
   1101,   11.9857645,   63.5210114,           0.
   1102,   7.94141817,    63.955677,           0.
   1103,   39.1907196,   59.4384651,           0.
   1104,    45.024765,   58.8443108,           0.
   1105,   54.5900688,   51.8084412,           0.
   1106,   49.8095093,   54.7038269,           0.
   1107,   8.91741085,    59.217144,           0.
   1108,   62.4460297,   11.0848436,           0.
   1109,   57.7227402,   8.34256744,           0.
   1110,    11.889945,    55.765419,           0.
   1111,   58.8096771,   45.0835266,           0.
   1112,   11.8214073,   24.8358917,           0.
   1113,   11.9786444,   20.3145142,           0.
   1114,   11.7986574,   38.3693466,           0.
   1115,   11.7789755,   29.3491745,           0.
   1116,   11.7828083,   33.8582916,           0.
   1117,     11.83039,   42.8689308,           0.
   1118,   12.0167265,   51.8605461,           0.
   1119,   11.9029694,   47.3761139,           0.
   1120,   8.23869705,   13.4891262,           0.
   1121,   54.8638649,   24.9630699,           0.
   1122,   54.9584503,   29.5023689,           0.
   1123,   55.0158119,   34.0411606,           0.
   1124,   55.0181885,   38.4852066,           0.
   1125,   58.7012901,   18.1152496,           0.
   1126,   9.00431633,   8.35847855,           0.
   1127,   33.3472977,   8.17998791,           0.
   1128,   52.5617294,   8.23524475,           0.
   1129,   29.1614246,   59.4962158,           0.
   1130,   42.9061356,   8.20612717,           0.
   1131,   26.1807308,   12.2288408,           0.
   1132,   21.4558392,   12.3158407,           0.
   1133,   16.3668518,   12.9215269,           0.
   1134,   47.7635574,   8.33327103,           0.
   1135,   38.1242867,   8.18622112,           0.
   1136,   58.4804268,   13.4863329,           0.
   1137,   14.1949215,   59.2877731,           0.
   1138,   19.2003288,   59.2682343,           0.
   1139,   36.5177383,    55.468586,           0.
   1140,   24.2253819,   59.4277649,           0.
   1141,   16.3743668,   54.6731796,           0.
   1142,   54.6124306,   15.8105831,           0.
   1143,   58.7225494,   49.4384689,           0.
   1144,   54.9381905,   42.8968239,           0.
   1145,   15.8461275,   45.1703949,           0.
   1146,   15.7738085,   40.6175079,           0.
   1147,    15.827836,   27.1049461,           0.
   1148,   15.7333174,   31.5968494,           0.
   1149,   16.1109066,   22.5606537,           0.
   1150,   15.9393358,   49.7137718,           0.
   1151,   15.7383852,    36.100338,           0.
   1152,   50.8885422,   27.3032188,           0.
   1153,   12.1264629,    15.759284,           0.
   1154,   54.6895866,   20.3907185,           0.
   1155,   51.0566673,   31.8198681,           0.
   1156,   51.1217422,   36.2971115,           0.
   1157,   31.6242905,   55.4422684,           0.
   1158,    11.982585,   11.7590942,           0.
   1159,   30.9492893,   12.2322788,           0.
   1160,    50.350872,   12.9515476,           0.
   1161,    23.795948,   16.1750622,           0.
   1162,   19.7246361,   15.9167032,           0.
   1163,   45.2139206,   12.3529215,           0.
   1164,   40.4775772,    12.261301,           0.
   1165,   35.7221832,   12.2385435,           0.
   1166,   21.6905193,   55.1503983,           0.
   1167,   54.7456398,    11.765255,           0.
   1168,    26.648035,   55.2305069,           0.
   1169,    7.9310174,   3.70836473,           0.
   1170,   54.7956314,    47.309742,           0.
   1171,    19.796545,   47.5334435,           0.
   1172,   19.7885036,    29.360569,           0.
   1173,   19.7322388,   42.9300537,           0.
   1174,   51.0865593,   40.6893349,           0.
   1175,   19.7001324,   33.8375816,           0.
   1176,   20.0415001,    24.941679,           0.
   1177,   19.7031918,   38.3604851,           0.
   1178,   16.1866665,   17.9425411,           0.
   1179,   50.5611992,   22.7262554,           0.
   1180,   46.9803925,   29.6543427,           0.
   1181,   47.1671677,   34.1233788,           0.
   1182,   28.5384426,    16.209383,           0.
   1183,   34.0048141,   51.4136009,           0.
   1184,   46.9255295,   16.0086002,           0.
   1185,   20.8264275,   20.1359253,           0.
   1186,    38.092083,   16.2723751,           0.
   1187,   42.8417816,   16.2656689,           0.
   1188,   33.3208809,   16.2481899,           0.
   1189,   23.9716072,   50.5127831,           0.
   1190,   29.1630135,   51.2451363,           0.
   1191,   50.4918671,   18.0491943,           0.
   1192,   50.5935249,   49.6830063,           0.
   1193,   50.8067093,   45.1531601,           0.
   1194,   23.8144226,   45.3984642,           0.
   1195,   23.8701172,   27.1977787,           0.
   1196,   23.7187176,   31.6061459,           0.
   1197,   23.8447437,   40.7356186,           0.
   1198,   23.7160549,   36.1200714,           0.
   1199,   47.2083893,    38.490551,           0.
   1200,   46.6611137,   25.2101154,           0.
   1201,   19.5544758,    51.516716,           0.
   1202,   43.1387291,   32.1597824,           0.
   1203,   38.8400917,   51.4156837,           0.
   1204,   26.0175285,    20.118948,           0.
   1205,   45.8419037,     20.31777,           0.
   1206,   40.6582413,   20.2916679,           0.
   1207,   35.8370056,   20.3847103,           0.
   1208,    30.893177,   20.3165436,           0.
   1209,    27.379488,   47.5636902,           0.
   1210,   31.5680199,   47.3755035,           0.
   1211,   28.5415783,   43.2845993,           0.
   1212,   27.6839027,   29.4071198,           0.
   1213,   27.8171558,   38.3919792,           0.
   1214,   27.6848278,   33.8753166,           0.
   1215,   47.0296745,   42.7932014,           0.
   1216,   23.7873611,   23.4035034,           0.
   1217,   43.4190254,   36.5202332,           0.
   1218,   42.8866005,   27.6429157,           0.
   1219,   36.4525146,   47.3487701,           0.
   1220,   41.3778839,   55.1786194,           0.
   1221,   38.5361671,    25.031744,           0.
   1222,   42.9168053,    23.698843,           0.
   1223,   33.2611732,   24.4570866,           0.
   1224,   28.0981464,   24.6571007,           0.
   1225,   46.2404289,   47.4980545,           0.
   1226,   43.4088402,   44.2783508,           0.
   1227,   31.4243355,   31.5320053,           0.
   1228,    31.620306,   35.9825439,           0.
   1229,   43.3986893,   40.6453056,           0.
   1230,    39.511097,   34.9286003,           0.
   1231,   43.3718414,   51.2857819,           0.
   1232,   31.5309391,   39.9315376,           0.
   1233,   41.2389984,   47.4788513,           0.
   1234,   33.8332253,   43.2680359,           0.
   1235,   34.8187141,   28.7077942,           0.
   1236,   31.0572548,   27.7522221,           0.
   1237,   39.1891785,   42.9119568,           0.
   1238,   35.9039574,   38.4379539,           0.
   1239,   35.3930397,   33.3026924,           0.
   1240,   40.2843895,   38.6888084,           0.
   1241,     39.04739,   30.2955875,           0.
   1242,     47.07164,   51.5308342,           0.
   1243,   45.3311272,   54.3086739,           0.
*Element, type=S3
  1, 289, 275, 198
  2, 275,  77, 198
  3, 271, 206, 265
  4, 198,  13,  14
  5, 200, 199,  30
  6, 200,   3,  31
  7, 264,  17, 201
  8, 201,  17,  18
  9, 273,  69,  70
 10, 202, 201,  18
 11, 203, 202,  19
 12, 204, 203,  20
 13, 206,  22,  23
 14, 205, 204,  21
 15, 207, 206,  23
 16, 442, 412, 378
 17, 208, 207,  24
 18, 336, 290, 210
 19, 336, 211, 209
 20, 211,   2,  27
 21, 212,  29, 199
 22,  44,   4,  45
 23, 232,  45,  46
 24, 319, 252, 309
 25, 343, 249, 292
 26, 307, 306, 253
 27, 255, 254, 227
 28, 410, 338, 376
 29, 248,  39,  40
 30, 244,  38, 243
 31, 240,  36,  37
 32, 214,  35, 213
 33, 215,  34, 214
 34, 216,  33, 215
 35, 217,  32, 216
 36,  62,  61,   5
 37, 218,  61,  62
 38, 239,  64, 238
 39, 371, 367, 323
 40, 220,  58, 219
 41, 221,  57, 220
 42, 222,  56, 221
 43, 223,  55, 222
 44, 224,  54, 223
 45, 225,  53, 224
 46, 226,  52, 225
 47, 227,  51, 226
 48, 228,  50, 227
 49, 229,  49, 228
 50, 230,  48, 229
 51, 231,  47, 230
 52, 232,  46, 231
 53,  77,   1,  13
 54, 198,  77,  13
 55, 275, 233,  76
 56, 374, 289, 332
 57, 276,  75, 233
 58, 431, 404, 365
 59, 277,  74, 276
 60, 356, 313, 312
 61, 278,  72,  73
 62, 280,  70,  71
 63, 235,  68, 234
 64, 236,  67, 235
 65, 237,  66, 236
 66, 363, 329, 355
 67, 238,  65, 237
 68, 375,  62,  63
 69, 288,  15, 266
 70, 266,  16, 264
 71, 199,  29,  30
 72, 270, 269, 204
 73, 200,  30,   3
 74, 217,  31,  32
 75, 202,  18,  19
 76, 281, 235, 234
 77, 203,  19,  20
 78, 310, 219, 251
 79, 204,  20,  21
 80, 263, 220, 258
 81, 205,  21,  22
 82, 259, 222, 221
 83, 206, 205,  22
 84, 267, 207, 208
 85, 207,  23,  24
 86, 296, 246, 242
 87, 208,  24,  25
 88, 290, 208, 210
 89, 210,  25,  26
 90, 209,  27,  28
 91, 212,  28,  29
 92, 212, 209,  28
 93, 210, 208,  25
 94, 211, 210,  26
 95, 211,  26,   2
 96, 211,  27, 209
 97, 317, 316, 265
 98, 267, 265, 207
 99, 213,  35,  36
100, 245, 242, 214
101, 242, 215, 214
102, 214,  34,  35
103, 246, 215, 242
104, 215,  33,  34
105, 247, 216, 246
106, 216,  32,  33
107, 217, 199, 200
108, 217, 200,  31
109, 251, 219,  59
110, 218,  60,  61
111, 219,  58,  59
112, 251,  59,  60
113, 282, 235, 281
114, 220,  57,  58
115, 269, 268, 203
116, 221,  56,  57
117, 260, 222, 259
118, 222,  55,  56
119, 271, 205, 206
120, 223,  54,  55
121, 308, 257, 304
122, 224,  53,  54
123, 295, 243, 294
124, 225,  52,  53
125, 248, 243,  39
126, 226,  51,  52
127, 249, 248,  40
128, 227,  50,  51
129, 250,  42,  43
130, 228,  49,  50
131, 262, 229, 253
132, 229,  48,  49
133, 287, 232, 231
134, 230,  47,  48
135, 292,  42, 250
136, 231,  46,  47
137, 241,  44, 232
138, 232,  44,  45
139, 233,  75,  76
140, 311, 266, 264
141, 234,  68,  69
142, 272, 202, 268
143, 301, 300, 263
144, 235,  67,  68
145, 282, 236, 235
146, 236,  66,  67
147, 363, 355, 310
148, 237,  65,  66
149, 274, 239, 238
150, 238,  64,  65
151, 375, 239, 320
152, 239,  63,  64
153, 240, 213,  36
154, 244,  37,  38
155, 250,  43, 241
156, 241,  43,  44
157, 246, 216, 215
158, 245, 214, 213
159, 243,  38,  39
160, 307, 254, 303
161, 254, 253, 228
162, 244, 240,  37
163, 291, 213, 240
164, 256, 255, 226
165, 475, 414, 472
166, 247, 217, 216
167, 285, 199, 247
168, 247, 199, 217
169, 249,  40,  41
170, 306, 262, 253
171, 292,  41,  42
172, 252, 231, 230
173, 287, 241, 232
174, 333, 319, 309
175, 251,  60, 218
176, 320, 239, 274
177, 262, 230, 229
178, 253, 229, 228
179, 254, 228, 227
180, 255, 227, 226
181, 256, 226, 225
182, 294, 243, 248
183, 261, 225, 224
184, 302, 255, 256
185, 257, 224, 223
186, 382, 340, 380
187, 260, 223, 222
188, 308, 305, 261
189, 324, 279, 278
190, 258, 220, 219
191, 263, 259, 221
192, 327, 326, 282
193, 304, 260, 299
194, 260, 257, 223
195, 261, 256, 225
196, 261, 224, 257
197, 309, 262, 306
198, 262, 252, 230
199, 263, 221, 220
200, 366, 326, 327
201, 264,  16,  17
202, 318, 201, 272
203, 265, 206, 207
204, 297, 296, 242
205, 332, 266, 311
206, 266,  15,  16
207, 286, 209, 212
208, 378, 296, 337
209, 268, 202, 203
210, 269, 203, 204
211, 270, 204, 205
212, 354, 299, 348
213, 271, 270, 205
214, 314, 312, 269
215, 316, 315, 271
216, 315, 314, 270
217, 278,  73, 277
218, 272, 201, 202
219, 273, 234,  69
220, 279,  72, 278
221, 284, 238, 237
222, 283, 236, 282
223, 275,  76,  77
224, 289, 198, 288
225, 276,  74,  75
226, 322, 233, 289
227, 330, 323, 277
228, 277,  73,  74
229, 467, 465, 435
230, 279,  71,  72
231, 324, 278, 323
232, 280,  71, 279
233, 313, 268, 312
234, 280, 273,  70
235, 300, 299, 259
236, 321, 234, 273
237, 394, 355, 329
238, 283, 237, 236
239, 369, 326, 366
240, 284, 237, 283
241, 394, 329, 370
242, 284, 274, 238
243, 285, 212, 199
244, 412, 246, 296
245, 341, 317, 267
246, 286, 212, 285
247, 287, 250, 241
248, 287, 231, 252
249, 288, 198,  14
250, 288,  14,  15
251, 335, 332, 311
252, 289, 233, 275
253, 290, 267, 208
254, 336, 210, 211
255, 291, 245, 213
256, 298, 240, 244
257, 292, 249,  41
258, 342, 287, 319
259, 294, 248, 293
260, 293, 248, 249
261, 420, 387, 419
262, 295, 244, 243
263, 303, 255, 302
264, 298, 244, 295
265, 297, 242, 245
266, 334, 245, 291
267, 344, 291, 298
268, 463, 462, 432
269, 339, 295, 294
270, 298, 291, 240
271, 299, 260, 259
272, 300, 259, 263
273, 301, 263, 258
274, 326, 283, 282
275, 355, 258, 310
276, 328, 283, 326
277, 305, 256, 261
278, 362, 316, 317
279, 381, 376, 338
280, 303, 254, 255
281, 346, 305, 345
282, 304, 257, 260
283, 305, 302, 256
284, 308, 261, 257
285, 352, 309, 306
286, 307, 253, 254
287, 376, 333, 352
288, 349, 306, 307
289, 354, 353, 304
290, 359, 356, 312
291, 381, 333, 376
292, 309, 252, 262
293, 310, 258, 219
294, 320, 310, 251
295, 318, 311, 264
296, 357, 335, 311
297, 312, 268, 269
298, 314, 269, 270
299, 492, 469, 468
300, 313, 272, 268
301, 315, 270, 271
302, 361, 315, 360
303, 316, 271, 265
304, 432, 430, 399
305, 317, 265, 267
306, 411, 378, 337
307, 341, 267, 290
308, 337, 296, 297
309, 318, 264, 201
310, 358, 272, 313
311, 342, 319, 333
312, 319, 287, 252
313, 320, 251, 218
314, 375, 320, 218
315, 321, 281, 234
316, 331, 273, 280
317, 330, 276, 322
318, 322, 276, 233
319, 323, 278, 277
320, 330, 277, 276
321, 470, 426, 454
322, 325, 279, 324
323, 368, 324, 367
324, 325, 280, 279
325, 327, 282, 281
326, 364, 281, 321
327, 438, 435, 402
328, 403, 369, 366
329, 405, 394, 370
330, 328, 284, 283
331, 329, 274, 284
332, 329, 284, 328
333, 374, 335, 365
334, 374, 365, 322
335, 331, 321, 273
336, 331, 280, 325
337, 332, 289, 288
338, 332, 288, 266
339, 390, 352, 349
340, 343, 342, 333
341, 334, 297, 245
342, 340, 295, 339
343, 357, 311, 318
344, 439, 395, 426
345, 336, 209, 286
346, 444, 414, 341
347, 362, 360, 316
348, 377, 297, 334
349, 339, 294, 338
350, 338, 294, 293
351, 517, 448, 455
352, 340, 298, 295
353, 350, 302, 346
354, 344, 298, 340
355, 444, 290, 336
356, 464, 286, 285
357, 342, 292, 250
358, 342, 250, 287
359, 343, 293, 249
360, 343, 292, 342
361, 380, 340, 339
362, 344, 334, 291
363, 345, 305, 308
364, 353, 308, 304
365, 389, 350, 387
366, 346, 302, 305
367, 348, 300, 347
368, 347, 300, 301
369, 393, 354, 388
370, 348, 299, 300
371, 351, 307, 303
372, 351, 303, 350
373, 350, 303, 302
374, 416, 382, 380
375, 391, 351, 389
376, 351, 349, 307
377, 352, 333, 309
378, 352, 306, 349
379, 393, 353, 354
380, 353, 345, 308
381, 354, 304, 299
382, 388, 348, 385
383, 355, 301, 258
384, 363, 310, 320
385, 434, 403, 366
386, 359, 312, 314
387, 358, 357, 318
388, 407, 371, 404
389, 358, 318, 272
390, 397, 313, 356
391, 361, 314, 315
392, 393, 392, 353
393, 360, 315, 316
394, 400, 398, 360
395, 399, 361, 398
396, 361, 359, 314
397, 383, 317, 341
398, 413, 411, 337
399, 363, 320, 274
400, 363, 274, 329
401, 364, 327, 281
402, 373, 321, 331
403, 371, 330, 365
404, 365, 330, 322
405, 405, 347, 394
406, 401, 327, 364
407, 367, 324, 323
408, 371, 323, 330
409, 372, 325, 368
410, 368, 325, 324
411, 405, 385, 347
412, 369, 328, 326
413, 370, 329, 328
414, 370, 328, 369
415, 431, 335, 357
416, 395, 357, 358
417, 406, 368, 402
418, 372, 331, 325
419, 373, 364, 321
420, 373, 331, 372
421, 374, 322, 289
422, 374, 332, 335
423, 375, 218,  62
424, 375,  63, 239
425, 455, 448, 415
426, 381, 338, 293
427, 377, 337, 297
428, 384, 334, 344
429, 473, 464, 442
430, 442, 247, 412
431, 380, 339, 379
432, 379, 339, 338
433, 451, 420, 419
434, 382, 344, 340
435, 381, 293, 343
436, 381, 343, 333
437, 387, 346, 386
438, 384, 344, 382
439, 383, 362, 317
440, 414, 383, 341
441, 459, 417, 449
442, 384, 377, 334
443, 443, 436, 403
444, 385, 348, 347
445, 386, 346, 345
446, 392, 345, 353
447, 415, 379, 410
448, 387, 350, 346
449, 436, 385, 405
450, 388, 354, 348
451, 410, 376, 390
452, 389, 351, 350
453, 390, 376, 352
454, 391, 390, 349
455, 391, 349, 351
456, 424, 389, 420
457, 427, 423, 392
458, 392, 386, 345
459, 421, 388, 418
460, 427, 393, 421
461, 394, 347, 301
462, 394, 301, 355
463, 397, 395, 358
464, 439, 438, 407
465, 396, 356, 359
466, 399, 359, 361
467, 397, 358, 313
468, 429, 356, 396
469, 398, 361, 360
470, 400, 360, 362
471, 482, 479, 452
472, 399, 396, 359
473, 422, 362, 383
474, 509, 501, 507
475, 401, 366, 327
476, 409, 364, 373
477, 402, 368, 367
478, 407, 367, 371
479, 436, 418, 385
480, 434, 366, 401
481, 404, 371, 365
482, 431, 365, 335
483, 405, 370, 369
484, 405, 369, 403
485, 408, 372, 406
486, 406, 372, 368
487, 426, 395, 397
488, 407, 402, 367
489, 437, 406, 435
490, 408, 373, 372
491, 409, 401, 364
492, 409, 373, 408
493, 410, 379, 338
494, 425, 390, 391
495, 413, 337, 377
496, 428, 377, 384
497, 412, 247, 246
498, 412, 296, 378
499, 417, 382, 416
500, 493, 476, 447
501, 444, 341, 290
502, 475, 473, 446
503, 416, 380, 415
504, 415, 380, 379
505, 455, 415, 425
506, 417, 384, 382
507, 419, 387, 386
508, 428, 384, 417
509, 469, 434, 441
510, 418, 388, 385
511, 423, 386, 392
512, 452, 451, 419
513, 453, 424, 420
514, 420, 389, 387
515, 468, 440, 466
516, 421, 393, 388
517, 422, 400, 362
518, 493, 474, 476
519, 423, 419, 386
520, 427, 392, 393
521, 425, 415, 410
522, 424, 391, 389
523, 425, 410, 390
524, 425, 391, 424
525, 429, 426, 397
526, 470, 454, 467
527, 456, 421, 450
528, 471, 450, 443
529, 433, 432, 398
530, 428, 413, 377
531, 429, 397, 356
532, 461, 396, 430
533, 430, 396, 399
534, 432, 399, 398
535, 431, 357, 395
536, 439, 431, 395
537, 433, 398, 400
538, 480, 453, 451
539, 460, 400, 422
540, 459, 428, 417
541, 441, 401, 409
542, 515, 492, 491
543, 435, 406, 402
544, 470, 467, 438
545, 436, 405, 403
546, 443, 403, 434
547, 440, 408, 437
548, 437, 408, 406
549, 438, 402, 407
550, 454, 426, 429
551, 439, 407, 404
552, 439, 404, 431
553, 466, 437, 465
554, 440, 409, 408
555, 441, 434, 401
556, 441, 409, 440
557, 473, 378, 446
558, 442, 285, 247
559, 450, 418, 443
560, 443, 418, 436
561, 444, 336, 286
562, 472, 286, 464
563, 445, 411, 413
564, 457, 413, 428
565, 446, 378, 411
566, 474, 411, 445
567, 447, 422, 383
568, 447, 383, 414
569, 449, 416, 448
570, 448, 416, 415
571, 459, 457, 428
572, 449, 417, 416
573, 484, 456, 481
574, 450, 421, 418
575, 452, 419, 423
576, 495, 480, 479
577, 458, 423, 427
578, 496, 495, 479
579, 517, 455, 453
580, 453, 420, 451
581, 461, 454, 429
582, 500, 490, 467
583, 455, 425, 424
584, 455, 424, 453
585, 456, 427, 421
586, 490, 489, 465
587, 506, 494, 477
588, 457, 445, 413
589, 458, 452, 423
590, 458, 427, 456
591, 483, 449, 478
592, 516, 495, 501
593, 460, 433, 400
594, 494, 445, 477
595, 461, 429, 396
596, 487, 430, 462
597, 462, 430, 432
598, 463, 432, 433
599, 485, 433, 460
600, 483, 459, 449
601, 475, 472, 464
602, 464, 285, 442
603, 465, 437, 435
604, 505, 487, 503
605, 513, 503, 511
606, 466, 440, 437
607, 467, 435, 438
608, 505, 500, 487
609, 471, 443, 469
610, 468, 441, 440
611, 469, 443, 434
612, 469, 441, 468
613, 470, 438, 439
614, 470, 439, 426
615, 491, 466, 489
616, 481, 450, 471
617, 472, 414, 444
618, 472, 444, 286
619, 473, 442, 378
620, 493, 475, 446
621, 474, 446, 411
622, 494, 474, 445
623, 475, 447, 414
624, 475, 464, 473
625, 476, 460, 422
626, 476, 422, 447
627, 477, 445, 457
628, 486, 457, 459
629, 478, 449, 448
630, 510, 507, 508
631, 479, 451, 452
632, 482, 452, 458
633, 517, 480, 478
634, 480, 451, 479
635, 508, 507, 496
636, 481, 456, 450
637, 484, 482, 458
638, 515, 514, 497
639, 486, 459, 483
640, 516, 480, 495
641, 484, 458, 456
642, 497, 481, 492
643, 485, 463, 433
644, 512, 494, 506
645, 506, 499, 502
646, 486, 477, 457
647, 487, 461, 430
648, 503, 462, 488
649, 488, 462, 463
650, 502, 463, 485
651, 505, 504, 489
652, 489, 466, 465
653, 490, 465, 467
654, 500, 467, 454
655, 492, 481, 471
656, 491, 468, 466
657, 492, 471, 469
658, 492, 468, 491
659, 493, 447, 475
660, 493, 446, 474
661, 512, 476, 494
662, 494, 476, 474
663, 516, 501, 483
664, 496, 479, 482
665, 498, 482, 484
666, 508, 496, 498
667, 497, 484, 481
668, 514, 511, 508
669, 498, 496, 482
670, 498, 484, 497
671, 499, 477, 486
672, 501, 499, 486
673, 500, 454, 461
674, 500, 461, 487
675, 501, 486, 483
676, 507, 501, 495
677, 502, 488, 463
678, 506, 502, 485
679, 503, 487, 462
680, 511, 488, 510
681, 515, 504, 514
682, 504, 491, 489
683, 505, 489, 490
684, 505, 490, 500
685, 512, 506, 485
686, 506, 477, 499
687, 510, 502, 509
688, 507, 495, 496
689, 514, 508, 498
690, 510, 509, 507
691, 509, 502, 499
692, 509, 499, 501
693, 511, 510, 508
694, 510, 488, 502
695, 514, 513, 511
696, 511, 503, 488
697, 512, 485, 460
698, 512, 460, 476
699, 513, 504, 505
700, 513, 505, 503
701, 514, 498, 497
702, 514, 504, 513
703, 515, 497, 492
704, 515, 491, 504
705, 516, 483, 478
706, 516, 478, 480
707, 517, 478, 448
708, 517, 453, 480
 709, 560,   2,  26
 710, 603, 560, 532
 711, 541, 103, 540
 712, 624, 577, 583
 713, 597, 595, 111
 714, 678, 108, 109
 715,  13,   1,  78
 716, 521,  13,  78
 717, 538,  80, 537
 718, 522,  15,  14
 719, 523,  16,  15
 720, 524,  17,  16
 721, 525,  18,  17
 722, 585, 576, 524
 723, 527,  19, 526
 724, 564, 545, 544
 725, 529,  22, 519
 726, 529,  23,  22
 727, 531,  24, 530
 728, 532,  26,  25
 729,  90,   6,  91
 730, 552,  91,  92
 731, 563, 550, 549
 732, 573, 549, 548
 733, 614, 573, 611
 734, 594,  88,  89
 735, 586,  85,  86
 736, 630, 588, 587
 737, 590, 534, 589
 738, 535,  83, 534
 739, 660, 659, 617
 740, 591, 535, 590
 741, 666,  78,  79
 742, 108, 107,   7
 743, 539, 107, 108
 744, 565, 562, 105
 745, 562, 540, 104
 746, 695, 626, 645
 747, 662, 623, 661
 748, 542, 102, 541
 749, 543, 101, 542
 750, 544, 100, 543
 751, 608, 571, 605
 752, 545,  99, 544
 753, 547,  97, 546
 754, 548,  96, 547
 755, 549,  95, 548
 756, 550,  94, 549
 757, 551,  93, 550
 758, 552,  92, 551
 759, 694, 647, 642
 760, 604, 567, 540
 761, 598, 597, 112
 762, 598, 113, 554
 763, 554, 113, 114
 764, 555, 554, 114
 765, 556, 555, 115
 766, 558, 557, 117
 767, 561, 558, 520
 768, 558,   8, 118
 769, 559, 120, 518
 770, 518, 120, 121
 771, 566, 542, 541
 772, 519,  22,  21
 773, 528,  21,  20
 774, 520, 118, 119
 775, 559, 119, 120
 776, 522,  14, 521
 777, 521,  14,  13
 778, 537,  81, 536
 779, 523,  15, 522
 780, 536,  82, 535
 781, 524,  16, 523
 782, 534,  84, 533
 783, 525,  17, 524
 784, 571, 568, 546
 785, 526,  18, 525
 786, 546,  98, 545
 787, 526,  19,  18
 788, 528,  20, 527
 789, 527,  20,  19
 790, 579, 527, 578
 791, 528, 519,  21
 792, 567, 566, 541
 793, 530,  23, 529
 794, 580, 530, 577
 795, 530,  24,  23
 796, 581, 531, 580
 797, 531,  25,  24
 798, 560, 518, 121
 799, 532,  25, 531
 800, 533,  84,  85
 801, 568, 547, 546
 802, 592, 536, 591
 803, 534,  83,  84
 804, 625, 575, 522
 805, 535,  82,  83
 806, 666, 625, 521
 807, 536,  81,  82
 808, 593, 538, 537
 809, 537,  80,  81
 810, 666, 538, 625
 811, 538,  79,  80
 812, 539, 106, 107
 813, 553, 109, 110
 814, 540, 103, 104
 815, 562, 104, 105
 816, 583, 519, 582
 817, 541, 102, 103
 818, 569, 542, 566
 819, 542, 101, 102
 820, 569, 543, 542
 821, 543, 100, 101
 822, 582, 528, 579
 823, 544,  99, 100
 824, 571, 545, 564
 825, 545,  98,  99
 826, 584, 525, 576
 827, 546,  97,  98
 828, 609, 568, 608
 829, 547,  96,  97
 830, 588,  87, 587
 831, 548,  95,  96
 832, 594, 587,  88
 833, 549,  94,  95
 834, 574, 550, 563
 835, 550,  93,  94
 836, 644, 551, 574
 837, 551,  92,  93
 838, 628,  90, 552
 839, 552,  90,  91
 840, 678, 553, 643
 841, 595, 110, 111
 842, 555, 114, 115
 843, 596, 554, 555
 844, 556, 115, 116
 845, 600, 556, 557
 846, 557, 556, 116
 847, 600, 557, 561
 848, 557, 116, 117
 849, 561, 557, 558
 850, 558, 117,   8
 851, 558, 118, 520
 852, 559, 520, 119
 853, 580, 531, 530
 854, 560, 121,   2
 855, 560,  26, 532
 856, 601, 520, 559
 857, 612, 610, 566
 858, 565, 105, 106
 859, 694, 643, 637
 860, 572, 547, 568
 861, 708, 707, 676
 862, 570, 544, 543
 863, 697, 659, 696
 864, 565, 106, 539
 865, 678, 643, 539
 866, 567, 541, 540
 867, 610, 607, 569
 868, 604, 540, 562
 869, 679, 637, 640
 870, 752, 707, 685
 871, 627, 533, 586
 872, 607, 606, 570
 873, 570, 543, 569
 874, 621, 582, 616
 875, 570, 564, 544
 876, 571, 546, 545
 877, 663, 615, 659
 878, 611, 572, 609
 879, 572, 548, 547
 880, 573, 563, 549
 881, 573, 548, 572
 882, 658, 629, 644
 883, 574, 551, 550
 884, 585, 523, 575
 885, 575, 523, 522
 886, 576, 525, 524
 887, 619, 585, 575
 888, 577, 530, 529
 889, 583, 529, 519
 890, 578, 527, 526
 891, 584, 578, 526
 892, 616, 579, 615
 893, 579, 528, 527
 894, 638, 600, 626
 895, 581, 532, 531
 896, 603, 602, 518
 897, 603, 532, 581
 898, 606, 605, 564
 899, 582, 519, 528
 900, 624, 583, 621
 901, 583, 577, 529
 902, 584, 526, 525
 903, 699, 664, 673
 904, 585, 524, 523
 905, 631, 590, 589
 906, 586, 533,  85
 907, 588,  86,  87
 908, 587,  87,  88
 909, 672, 629, 658
 910, 613, 574, 563
 911, 588, 586,  86
 912, 589, 534, 533
 913, 652, 608, 650
 914, 619, 618, 585
 915, 590, 535, 534
 916, 632, 590, 631
 917, 591, 536, 535
 918, 633, 591, 632
 919, 592, 537, 536
 920, 669, 625, 593
 921, 593, 537, 592
 922, 628, 594,  89
 923, 644, 628, 552
 924, 595, 553, 110
 925, 597, 111, 112
 926, 599, 555, 556
 927, 599, 596, 555
 928, 636, 598, 554
 929, 640, 637, 595
 930, 598, 112, 113
 931, 636, 554, 596
 932, 600, 599, 556
 933, 701, 683, 646
 934, 601, 561, 520
 935, 626, 561, 601
 936, 602, 601, 559
 937, 646, 603, 581
 938, 602, 559, 518
 939, 622, 581, 580
 940, 603, 518, 560
 941, 646, 581, 622
 942, 642, 562, 565
 943, 637, 553, 595
 944, 605, 571, 564
 945, 606, 564, 570
 946, 607, 570, 569
 947, 667, 616, 663
 948, 610, 569, 566
 949, 623, 622, 580
 950, 617, 615, 578
 951, 608, 568, 571
 952, 688, 652, 686
 953, 609, 572, 568
 954, 612, 566, 567
 955, 695, 638, 626
 956, 676, 630, 672
 957, 611, 573, 572
 958, 648, 604, 647
 959, 730, 680, 718
 960, 630, 587, 629
 961, 614, 613, 563
 962, 614, 563, 573
 963, 708, 685, 707
 964, 615, 579, 578
 965, 617, 578, 584
 966, 654, 650, 605
 967, 616, 582, 579
 968, 620, 584, 576
 969, 736, 735, 706
 970, 618, 576, 585
 971, 759, 742, 743
 972, 669, 619, 575
 973, 634, 593, 592
 974, 620, 617, 584
 975, 620, 576, 618
 976, 655, 654, 606
 977, 621, 583, 582
 978, 695, 680, 638
 979, 623, 580, 577
 980, 624, 623, 577
 981, 656, 655, 607
 982, 667, 621, 616
 983, 692, 691, 655
 984, 625, 522, 521
 985, 625, 538, 593
 986, 626, 600, 561
 987, 683, 601, 602
 988, 627, 589, 533
 989, 635, 586, 588
 990, 628,  89,  90
 991, 644, 552, 551
 992, 629, 587, 594
 993, 644, 629, 594
 994, 653, 614, 649
 995, 754, 735, 736
 996, 670, 589, 627
 997, 698, 660, 665
 998, 664, 619, 634
 999, 632, 591, 590
1000, 673, 634, 633
1001, 633, 592, 591
1002, 669, 634, 619
1003, 634, 592, 633
1004, 635, 627, 586
1005, 635, 588, 630
1006, 641, 598, 636
1007, 671, 596, 639
1008, 640, 595, 597
1009, 641, 640, 597
1010, 639, 599, 638
1011, 638, 599, 600
1012, 657, 656, 610
1013, 639, 596, 599
1014, 711, 679, 681
1015, 694, 679, 647
1016, 641, 597, 598
1017, 711, 684, 679
1018, 642, 604, 562
1019, 643, 642, 565
1020, 643, 565, 539
1021, 643, 553, 637
1022, 658, 644, 574
1023, 644, 594, 628
1024, 645, 626, 601
1025, 726, 725, 692
1026, 646, 602, 603
1027, 662, 622, 623
1028, 684, 647, 679
1029, 647, 604, 642
1030, 648, 612, 567
1031, 648, 567, 604
1032, 649, 614, 611
1033, 651, 611, 609
1034, 650, 608, 605
1035, 654, 605, 606
1036, 651, 649, 611
1037, 652, 651, 609
1038, 652, 609, 608
1039, 747, 728, 738
1040, 672, 658, 613
1041, 653, 613, 614
1042, 655, 606, 607
1043, 702, 663, 697
1044, 656, 607, 610
1045, 704, 703, 668
1046, 657, 610, 612
1047, 693, 692, 656
1048, 689, 648, 684
1049, 682, 681, 641
1050, 658, 574, 613
1051, 672, 613, 653
1052, 659, 615, 617
1053, 660, 617, 620
1054, 665, 620, 618
1055, 674, 632, 631
1056, 661, 623, 624
1057, 668, 624, 621
1058, 714, 683, 701
1059, 701, 622, 662
1060, 690, 686, 650
1061, 663, 616, 615
1062, 664, 618, 619
1063, 673, 664, 634
1064, 665, 660, 620
1065, 665, 618, 664
1066, 666, 521,  78
1067, 666,  79, 538
1068, 691, 690, 654
1069, 668, 621, 667
1070, 725, 724, 691
1071, 668, 661, 624
1072, 669, 575, 625
1073, 669, 593, 634
1074, 670, 631, 589
1075, 677, 627, 635
1076, 671, 636, 596
1077, 705, 639, 680
1078, 708, 672, 653
1079, 672, 630, 629
1080, 675, 633, 632
1081, 675, 632, 674
1082, 698, 696, 660
1083, 706, 631, 670
1084, 699, 698, 665
1085, 675, 673, 633
1086, 676, 635, 630
1087, 685, 653, 649
1088, 677, 670, 627
1089, 677, 635, 676
1090, 678, 539, 108
1091, 678, 109, 553
1092, 681, 640, 641
1093, 681, 679, 640
1094, 680, 639, 638
1095, 700, 662, 661
1096, 682, 641, 636
1097, 716, 689, 684
1098, 682, 636, 671
1099, 713, 712, 682
1100, 683, 645, 601
1101, 683, 602, 646
1102, 716, 684, 711
1103, 684, 648, 647
1104, 752, 685, 719
1105, 687, 649, 651
1106, 686, 652, 650
1107, 690, 650, 654
1108, 687, 685, 649
1109, 688, 687, 651
1110, 688, 651, 652
1111, 760, 759, 743
1112, 689, 657, 612
1113, 689, 612, 648
1114, 691, 654, 655
1115, 749, 727, 747
1116, 692, 655, 656
1117, 704, 667, 702
1118, 693, 656, 657
1119, 703, 700, 661
1120, 723, 689, 716
1121, 713, 671, 705
1122, 694, 642, 643
1123, 694, 637, 679
1124, 714, 645, 683
1125, 715, 714, 701
1126, 696, 659, 660
1127, 728, 727, 696
1128, 721, 720, 686
1129, 697, 663, 659
1130, 699, 665, 664
1131, 709, 699, 675
1132, 699, 673, 675
1133, 709, 675, 674
1134, 718, 695, 714
1135, 703, 661, 668
1136, 701, 646, 622
1137, 715, 662, 700
1138, 724, 721, 690
1139, 702, 667, 663
1140, 704, 668, 667
1141, 732, 731, 703
1142, 733, 732, 704
1143, 774, 768, 761
1144, 705, 671, 639
1145, 758, 755, 718
1146, 706, 674, 631
1147, 710, 670, 677
1148, 707, 677, 676
1149, 719, 685, 687
1150, 708, 676, 672
1151, 708, 653, 685
1152, 734, 699, 709
1153, 735, 674, 706
1154, 710, 706, 670
1155, 710, 677, 707
1156, 712, 681, 682
1157, 712, 711, 681
1158, 713, 682, 671
1159, 756, 740, 712
1160, 737, 713, 705
1161, 769, 757, 764
1162, 758, 718, 714
1163, 714, 695, 645
1164, 715, 701, 662
1165, 717, 715, 700
1166, 756, 712, 713
1167, 716, 711, 712
1168, 731, 700, 703
1169, 757, 730, 755
1170, 718, 680, 695
1171, 758, 714, 715
1172, 722, 687, 688
1173, 759, 754, 742
1174, 720, 688, 686
1175, 721, 686, 690
1176, 724, 690, 691
1177, 729, 697, 727
1178, 722, 719, 687
1179, 722, 688, 720
1180, 723, 693, 657
1181, 723, 657, 689
1182, 725, 691, 692
1183, 733, 702, 729
1184, 726, 692, 693
1185, 763, 751, 761
1186, 745, 723, 740
1187, 751, 731, 732
1188, 727, 697, 696
1189, 728, 696, 698
1190, 734, 728, 698
1191, 738, 734, 709
1192, 744, 741, 721
1193, 729, 702, 697
1194, 730, 705, 680
1195, 764, 755, 739
1196, 731, 717, 700
1197, 732, 703, 704
1198, 733, 704, 702
1199, 753, 733, 750
1200, 750, 729, 749
1201, 753, 751, 732
1202, 734, 698, 699
1203, 738, 709, 735
1204, 735, 709, 674
1205, 736, 706, 710
1206, 752, 736, 710
1207, 742, 719, 722
1208, 762, 740, 756
1209, 737, 705, 730
1210, 743, 720, 741
1211, 738, 728, 734
1212, 769, 766, 762
1213, 739, 717, 731
1214, 740, 723, 716
1215, 740, 716, 712
1216, 741, 720, 721
1217, 744, 721, 724
1218, 752, 742, 736
1219, 743, 742, 722
1220, 743, 722, 720
1221, 771, 747, 767
1222, 748, 724, 725
1223, 765, 750, 749
1224, 745, 726, 693
1225, 745, 693, 723
1226, 746, 725, 726
1227, 766, 726, 745
1228, 747, 727, 728
1229, 767, 738, 754
1230, 748, 744, 724
1231, 748, 725, 746
1232, 772, 760, 741
1233, 749, 729, 727
1234, 772, 768, 765
1235, 750, 733, 729
1236, 751, 739, 731
1237, 753, 732, 733
1238, 752, 710, 707
1239, 752, 719, 742
1240, 774, 765, 768
1241, 773, 761, 768
1242, 754, 738, 735
1243, 754, 736, 742
1244, 755, 730, 718
1245, 755, 717, 739
1246, 756, 713, 737
1247, 762, 756, 737
1248, 757, 737, 730
1249, 773, 770, 761
1250, 758, 715, 717
1251, 758, 717, 755
1252, 760, 743, 741
1253, 767, 759, 760
1254, 772, 765, 760
1255, 771, 767, 760
1256, 770, 766, 769
1257, 761, 751, 753
1258, 762, 745, 740
1259, 762, 737, 757
1260, 770, 769, 763
1261, 763, 739, 751
1262, 764, 757, 755
1263, 764, 739, 763
1264, 771, 765, 749
1265, 768, 744, 748
1266, 766, 746, 726
1267, 766, 745, 762
1268, 767, 747, 738
1269, 767, 754, 759
1270, 773, 768, 748
1271, 774, 761, 753
1272, 769, 762, 757
1273, 769, 764, 763
1274, 770, 763, 761
1275, 770, 746, 766
1276, 771, 749, 747
1277, 771, 760, 765
1278, 772, 741, 744
1279, 772, 744, 768
1280, 773, 748, 746
1281, 773, 746, 770
1282, 774, 753, 750
1283, 774, 750, 765
1284,  819,    9,  122
1285,  874,  819,  785
1286,  789,  140,  788
1287,  856,  850,  787
1288,  830,  783,  782
1289,  943,   44,   43
1290,  132,   10,  133
1291,  776,  132,  133
1292,  794,  135,  793
1293,  777,  130,  131
1294,  778,  129,  130
1295,  779,  128,  129
1296,  780,  127,  128
1297,  781,  126,  127
1298,  783,  125,  782
1299,  784,  124,  783
1300,  785,  122,  123
1301,  148,   11,  149
1302,  803,  149,  150
1303,  822,  821,  801
1304,  823,  800,  799
1305,  895,  863,  865
1306,  854,  146,  147
1307,  848,  143,  144
1308,  787,  142,  786
1309,  788,  141,  787
1310,  845,  844,  809
1311,  961,  926,  924
1312,  880,  879,  832
1313,  851,  790,  789
1314,  857,  852,  791
1315,  859,  792,  852
1316,  905,  133,  134
1317,   44,  162,    4
1318,  795,  162,   44
1319,  804,   43,   42
1320,  827,  160,  161
1321,  904,  827,  883
1322,  868,  825,  824
1323,  820,  157,  158
1324,  797,  156,  796
1325,  798,  155,  797
1326,  799,  154,  798
1327,  800,  153,  799
1328,  801,  152,  800
1329,  802,  151,  801
1330,  803,  150,  802
1331,  805,   42,   41
1332,  943,  804,  883
1333,  805,  804,   42
1334,  806,  805,   41
1335,  807,  806,   40
1336,  808,  807,   39
1337,  809,  808,   38
1338,  813,   34,   33
1339,  920,  879,  880
1340,  812,  811,   35
1341,  814,  813,   33
1342,  909,  866,  816
1343,  909,  817,  815
1344,  817,    3,  163
1345,  818,  165,  775
1346,  775,  165,  166
1347,  931,  891,  930
1348,  777,  131,  776
1349,  776,  131,  132
1350,  793,  136,  792
1351,  778,  130,  777
1352,  792,  137,  791
1353,  779,  129,  778
1354,  791,  138,  790
1355,  780,  128,  779
1356,  790,  139,  789
1357,  781,  127,  780
1358,  837,  780,  779
1359,  782,  126,  781
1360,  839,  812,  838
1361,  782,  125,  126
1362,  832,  783,  830
1363,  783,  124,  125
1364,  833,  784,  832
1365,  784,  123,  124
1366,  819,  775,  166
1367,  785,  123,  784
1368,  786,  142,  143
1369,  875,  796,  820
1370,  811,  810,   36
1371,  787,  141,  142
1372,  847,  813,  814
1373,  788,  140,  141
1374,  837,  779,  834
1375,  789,  139,  140
1376,  835,  778,  777
1377,  790,  138,  139
1378,  835,  834,  778
1379,  791,  137,  138
1380,  877,  876,  834
1381,  792,  136,  137
1382,  905,  864,  776
1383,  793,  135,  136
1384,  905,  794,  864
1385,  794,  134,  135
1386,  827,  161,  795
1387,  795,  161,  162
1388,  796,  156,  157
1389,  913,  911,  871
1390,  828,  798,  797
1391,  797,  155,  156
1392,  823,  822,  800
1393,  798,  154,  155
1394,  822,  801,  800
1395,  799,  153,  154
1396,  854,  849,  146
1397,  800,  152,  153
1398,  821,  802,  801
1399,  801,  151,  152
1400,  863,  802,  821
1401,  802,  150,  151
1402,  855,  148,  803
1403,  803,  148,  149
1404,  806,   41,   40
1405,  827,  824,  160
1406,  807,   40,   39
1407,  868,  867,  825
1408,  808,   39,   38
1409,  842,  841,  806
1410,  809,   38,   37
1411,  959,  956,  925
1412,  810,   37,   36
1413,  927,  886,  885
1414,  810,  809,   37
1415,  844,  843,  808
1416,  811,   36,   35
1417,  846,  810,  811
1418,  812,   35,   34
1419,  846,  811,  839
1420,  813,  812,   34
1421,  892,  891,  838
1422,  814,   33,   32
1423,  866,  814,  816
1424,  816,   32,   31
1425,  815,  163,  164
1426,  818,  164,  165
1427,  818,  815,  164
1428,  816,  814,   32
1429,  817,  816,   31
1430,  817,   31,    3
1431,  817,  163,  815
1432,  832,  784,  783
1433,  847,  838,  813
1434,  819,  166,    9
1435,  819,  122,  785
1436,  820,  796,  157
1437,  825,  158,  159
1438,  941,  894,  906
1439,  860,  145,  849
1440,  829,  799,  798
1441,  873,  823,  871
1442,  828,  797,  826
1443, 1006,  947,  948
1444,  824,  159,  160
1445,  922,  904,  883
1446,  825,  820,  158
1447,  825,  159,  824
1448,  826,  797,  796
1449,  949,  946,  912
1450,  883,  804,  840
1451,  840,  804,  805
1452,  871,  829,  869
1453,  869,  829,  828
1454,  829,  823,  799
1455,  829,  798,  828
1456,  836,  782,  781
1457,  882,  836,  831
1458,  831,  781,  780
1459,  857,  790,  851
1460,  920,  880,  917
1461,  833,  785,  784
1462,  874,  862,  775
1463,  874,  785,  833
1464,  834,  779,  778
1465,  859,  853,  793
1466,  864,  835,  777
1467,  853,  794,  793
1468,  836,  830,  782
1469,  836,  781,  831
1470,  852,  792,  791
1471,  837,  831,  780
1472,  891,  890,  839
1473,  838,  812,  813
1474,  858,  788,  850
1475,  839,  811,  812
1476,  841,  805,  806
1477,  841,  840,  805
1478,  842,  806,  807
1479,  885,  842,  884
1480,  843,  807,  808
1481,  843,  842,  807
1482,  844,  808,  809
1483,  950,  948,  913
1484,  845,  809,  810
1485,  887,  884,  843
1486,  846,  845,  810
1487,  889,  845,  888
1488,  890,  888,  846
1489,  932,  890,  931
1490,  861,  815,  818
1491,  910,  892,  847
1492,  848,  786,  143
1493,  860,  144,  145
1494,  849,  145,  146
1495,  906,  895,  865
1496,  850,  788,  787
1497,  856,  787,  786
1498,  878,  831,  837
1499,  858,  851,  789
1500,  877,  834,  835
1501,  857,  791,  790
1502,  933,  864,  853
1503,  859,  793,  792
1504,  855,  854,  147
1505,  863,  855,  803
1506,  855,  147,  148
1507,  863,  803,  802
1508,  893,  786,  848
1509,  981,  948,  950
1510,  919,  917,  881
1511,  899,  857,  898
1512,  858,  789,  788
1513,  900,  850,  896
1514,  926,  878,  924
1515,  901,  852,  899
1516,  895,  894,  849
1517,  860,  848,  144
1518,  862,  861,  818
1519,  907,  874,  833
1520,  862,  818,  775
1521,  879,  833,  832
1522,  865,  863,  821
1523,  863,  854,  855
1524,  864,  777,  776
1525,  864,  794,  853
1526,  872,  821,  822
1527,  973,  968,  941
1528,  866,  847,  814
1529,  909,  816,  817
1530,  914,  912,  867
1531,  867,  820,  825
1532,  922,  883,  840
1533,  886,  841,  885
1534,  870,  828,  826
1535,  870,  869,  828
1536,  921,  826,  875
1537,  884,  842,  843
1538,  973,  906,  915
1539,  871,  823,  829
1540,  872,  865,  821
1541,  873,  872,  822
1542,  873,  822,  823
1543,  973,  947,  968
1544,  874,  775,  819
1545,  907,  833,  879
1546,  875,  826,  796
1547,  875,  820,  867
1548,  878,  837,  876
1549,  876,  837,  834
1550,  933,  877,  835
1551,  902,  853,  859
1552,  898,  851,  897
1553,  882,  831,  878
1554,  880,  832,  830
1555,  881,  830,  836
1556,  881,  880,  830
1557,  917,  880,  881
1558,  882,  881,  836
1559, 1019, 1018, 1000
1560,  936,  901,  899
1561,  924,  878,  876
1562,  883,  827,  795
1563,  943,  883,  795
1564,  887,  843,  844
1565,  956,  928,  925
1566,  928,  884,  925
1567,  885,  841,  842
1568,  922,  908,  904
1569,  886,  840,  841
1570,  889,  844,  845
1571,  997,  972,  996
1572,  888,  845,  846
1573,  890,  846,  839
1574,  929,  923,  889
1575,  889,  887,  844
1576,  891,  839,  838
1577,  900,  897,  858
1578,  892,  838,  847
1579,  975,  920,  953
1580,  910,  847,  866
1581,  953,  920,  917
1582,  893,  856,  786
1583,  903,  848,  860
1584,  894,  860,  849
1585,  906,  865,  872
1586,  895,  849,  854
1587,  895,  854,  863
1588,  896,  850,  856
1589,  934,  856,  893
1590,  897,  851,  858
1591,  900,  858,  850
1592,  937,  897,  935
1593,  898,  857,  851
1594,  918,  877,  902
1595,  899,  852,  857
1596,  940,  935,  900
1597,  964,  963,  932
1598,  939,  902,  901
1599,  901,  859,  852
1600,  933,  902,  877
1601,  902,  859,  901
1602,  903,  893,  848
1603,  903,  860,  894
1604,  904,  868,  824
1605,  904,  824,  827
1606,  905,  776,  133
1607,  905,  134,  794
1608,  906,  894,  895
1609,  915,  873,  911
1610,  974,  862,  907
1611,  907,  862,  874
1612,  914,  868,  908
1613,  908,  868,  904
1614,  909,  815,  861
1615,  945,  909,  861
1616,  945,  866,  909
1617,  945,  910,  866
1618,  911,  873,  871
1619,  913,  871,  869
1620,  949,  912,  914
1621,  912,  875,  867
1622,  916,  869,  870
1623,  916,  913,  869
1624,  914,  867,  868
1625,  927,  908,  886
1626,  915,  906,  872
1627,  915,  872,  873
1628,  962,  870,  921
1629,  925,  887,  923
1630,  952,  892,  910
1631,  919,  881,  882
1632,  924,  876,  918
1633,  918,  876,  877
1634,  926,  882,  878
1635,  938,  898,  937
1636, 1009,  976,  974
1637,  951,  879,  920
1638,  921,  870,  826
1639,  921,  875,  912
1640,  922,  840,  886
1641,  922,  886,  908
1642,  923,  887,  889
1643,  929,  889,  888
1644,  955,  939,  936
1645,  955,  918,  939
1646,  958,  928,  956
1647,  925,  884,  887
1648,  970,  936,  938
1649,  926,  919,  882
1650,  944,  908,  927
1651,  928,  927,  885
1652,  928,  885,  884
1653,  979,  962,  946
1654,  932,  888,  890
1655,  960,  959,  923
1656,  986,  957,  961
1657,  930,  891,  892
1658,  965,  964,  931
1659,  931,  890,  891
1660,  963,  960,  929
1661,  932,  929,  888
1662,  933,  835,  864
1663,  933,  853,  902
1664,  934,  896,  856
1665,  942,  893,  903
1666,  935,  897,  900
1667,  940,  900,  896
1668,  938,  899,  898
1669,  937,  898,  897
1670,  991,  990,  964
1671, 1014, 1013,  993
1672,  961,  957,  926
1673,  938,  936,  899
1674,  939,  918,  902
1675,  939,  901,  936
1676,  966,  896,  934
1677,  987,  985,  960
1678,  941,  903,  894
1679,  947,  915,  911
1680,  942,  934,  893
1681,  942,  903,  941
1682,  943,  795,   44
1683,  943,   43,  804
1684,  949,  914,  944
1685,  944,  914,  908
1686,  976,  862,  974
1687,  975,  951,  920
1688,  980,  946,  949
1689,  946,  921,  912
1690,  948,  911,  913
1691,  948,  947,  911
1692,  950,  913,  916
1693, 1015,  996, 1006
1694,  958,  927,  928
1695,  982,  956,  959
1696,  989,  916,  962
1697, 1031, 1010, 1001
1698,  951,  907,  879
1699,  975,  974,  951
1700,  952,  930,  892
1701,  978,  910,  945
1702,  954,  917,  919
1703,  954,  953,  917
1704,  957,  919,  926
1705,  994,  969,  993
1706,  961,  924,  955
1707,  955,  924,  918
1708,  980,  979,  946
1709,  959,  925,  923
1710,  969,  937,  967
1711,  957,  954,  919
1712,  958,  949,  944
1713,  958,  944,  927
1714,  960,  923,  929
1715,  999,  989,  979
1716,  963,  929,  932
1717, 1016,  997, 1015
1718,  970,  955,  936
1719,  993,  969,  967
1720,  962,  916,  870
1721,  962,  921,  946
1722,  964,  932,  931
1723,  971,  967,  935
1724,  965,  931,  930
1725,  995,  993,  967
1726,  988,  930,  952
1727,  984,  954,  983
1728,  966,  940,  896
1729,  972,  934,  942
1730,  967,  937,  935
1731,  971,  935,  940
1732,  968,  942,  941
1733, 1006,  996,  968
1734,  986,  983,  957
1735,  969,  938,  937
1736,  977,  955,  970
1737,  970,  938,  969
1738,  992,  940,  966
1739,  990,  987,  963
1740,  972,  966,  934
1741,  972,  942,  968
1742,  973,  941,  906
1743,  973,  915,  947
1744, 1019, 1009,  975
1745,  974,  907,  951
1746,  998,  953,  984
1747, 1019, 1000, 1009
1748,  976,  945,  861
1749,  976,  861,  862
1750,  986,  961,  977
1751,  977,  961,  955
1752,  978,  952,  910
1753,  978,  945,  976
1754, 1017,  982, 1010
1755, 1010,  999,  979
1756,  980,  949,  958
1757, 1017,  958,  956
1758, 1005,  950,  989
1759,  985,  982,  959
1760, 1017, 1010,  980
1761,  985,  959,  960
1762, 1036, 1027, 1033
1763,  983,  954,  957
1764, 1020,  984, 1003
1765,  984,  953,  954
1766,  987,  960,  963
1767, 1004, 1001,  985
1768,  994,  970,  969
1769, 1013,  994,  993
1770,  990,  963,  964
1771, 1030, 1015,  981
1772,  988,  965,  930
1773, 1000,  952,  978
1774,  989,  950,  916
1775,  989,  962,  979
1776,  991,  964,  965
1777, 1008, 1004,  987
1778, 1007,  965,  988
1779, 1003,  983, 1002
1780,  992,  971,  940
1781,  997,  966,  972
1782, 1002,  986,  994
1783,  995,  967,  971
1784,  994,  986,  977
1785,  994,  977,  970
1786, 1012,  971,  992
1787, 1011, 1008,  990
1788,  996,  972,  968
1789, 1006,  968,  947
1790, 1030, 1021, 1028
1791,  997,  992,  966
1792,  998,  975,  953
1793, 1020, 1018,  998
1794, 1001,  982,  985
1795, 1031, 1021,  999
1796, 1000,  988,  952
1797, 1009, 1000,  978
1798, 1004,  985,  987
1799, 1031, 1022, 1021
1800, 1027, 1002, 1013
1801, 1002,  983,  986
1802, 1023, 1007, 1020
1803, 1003,  984,  983
1804, 1008,  987,  990
1805, 1024, 1022, 1004
1806, 1005,  981,  950
1807, 1005,  989,  999
1808, 1006,  948,  981
1809, 1015, 1006,  981
1810, 1007,  991,  965
1811, 1018, 1007,  988
1812, 1011,  990,  991
1813, 1035, 1025, 1034
1814, 1009,  978,  976
1815, 1009,  974,  975
1816, 1010,  979,  980
1817, 1010,  982, 1001
1818, 1036, 1020, 1003
1819, 1034, 1027, 1014
1820, 1012,  995,  971
1821, 1016,  992,  997
1822, 1013, 1002,  994
1823, 1014,  993,  995
1824, 1026,  995, 1012
1825, 1036, 1033, 1023
1826, 1015,  997,  996
1827, 1030, 1028, 1015
1828, 1032, 1029, 1028
1829, 1016, 1012,  992
1830, 1017,  980,  958
1831, 1017,  956,  982
1832, 1018,  988, 1000
1833, 1020,  998,  984
1834, 1019,  975,  998
1835, 1019,  998, 1018
1836, 1027, 1003, 1002
1837, 1020, 1007, 1018
1838, 1021, 1005,  999
1839, 1022, 1001, 1004
1840, 1024, 1004, 1008
1841, 1035, 1032, 1024
1842, 1023, 1011,  991
1843, 1023,  991, 1007
1844, 1025, 1024, 1008
1845, 1035, 1029, 1032
1846, 1025, 1008, 1011
1847, 1035, 1034, 1026
1848, 1026, 1014,  995
1849, 1029, 1026, 1012
1850, 1027, 1013, 1014
1851, 1034, 1033, 1027
1852, 1028, 1016, 1015
1853, 1032, 1021, 1022
1854, 1029, 1012, 1016
1855, 1029, 1016, 1028
1856, 1030,  981, 1005
1857, 1030, 1005, 1021
1858, 1031,  999, 1010
1859, 1031, 1001, 1022
1860, 1032, 1028, 1021
1861, 1032, 1022, 1024
1862, 1033, 1025, 1011
1863, 1033, 1011, 1023
1864, 1034, 1014, 1026
1865, 1034, 1025, 1033
1866, 1035, 1024, 1025
1867, 1035, 1026, 1029
1868, 1036, 1023, 1020
1869, 1036, 1003, 1027
1870, 1082,  129, 1040
1871, 1089,  197, 1037
1872, 1124, 1123, 1083
1873, 1037,  132,  131
1874, 1039, 1038,  170
1875, 1039,    8,  117
1876, 1040,  129,  128
1877, 1088,  191,  192
1878, 1041, 1040,  128
1879, 1042, 1041,  127
1880, 1043, 1042,  126
1881, 1044, 1043,  125
1882, 1084, 1044, 1045
1883, 1045, 1044,  124
1884, 1143, 1111, 1047
1885, 1143, 1048, 1046
1886, 1048,    9,  167
1887, 1049,  169, 1038
1888,  108,    7,  171
1889, 1065,  171,  172
1890, 1073, 1063, 1062
1891, 1079, 1062, 1061
1892, 1119, 1079, 1117
1893, 1101, 1099,  110
1894, 1097,  113,  112
1895, 1051,  114, 1050
1896, 1052,  115, 1051
1897, 1053,  116, 1052
1898,  185,  184,   12
1899, 1054,  184,  185
1900, 1071,  187, 1070
1901, 1121, 1087, 1085
1902, 1056,  181, 1055
1903, 1057,  180, 1056
1904, 1058,  179, 1057
1905, 1059,  178, 1058
1906, 1060,  177, 1059
1907, 1061,  176, 1060
1908, 1062,  175, 1061
1909, 1063,  174, 1062
1910, 1064,  173, 1063
1911, 1065,  172, 1064
1912,  197,   10,  132
1913, 1037,  197,  132
1914, 1089, 1066,  196
1915, 1191, 1142, 1154
1916, 1090,  195, 1066
1917, 1167, 1109, 1136
1918, 1091,  194, 1090
1919, 1091,  193,  194
1920, 1068,  190, 1067
1921, 1069,  189, 1068
1922, 1093, 1070, 1069
1923, 1070,  188, 1069
1924, 1169,  185,  186
1925, 1108,  130, 1082
1926, 1125, 1040, 1087
1927, 1038,  169,  170
1928, 1080, 1059, 1075
1929, 1039,  170,    8
1930, 1053,  117,  116
1931, 1041,  128,  127
1932, 1095, 1068, 1094
1933, 1042,  127,  126
1934, 1120, 1055, 1072
1935, 1043,  126,  125
1936, 1077, 1056, 1076
1937, 1044,  125,  124
1938, 1174, 1156, 1124
1939, 1045,  124,  123
1940, 1084, 1083, 1044
1941, 1047,  123,  122
1942, 1046,  167,  168
1943, 1049,  168,  169
1944, 1049, 1046,  168
1945, 1047, 1045,  123
1946, 1048, 1047,  122
1947, 1048,  122,    9
1948, 1048,  167, 1046
1949, 1201, 1189, 1166
1950, 1139, 1103, 1098
1951, 1050,  114,  113
1952, 1129, 1050, 1097
1953, 1103, 1051, 1098
1954, 1051,  115,  114
1955, 1104, 1052, 1103
1956, 1052,  116,  115
1957, 1053, 1038, 1039
1958, 1053, 1039,  117
1959, 1072, 1055,  182
1960, 1054,  183,  184
1961, 1055,  181,  182
1962, 1072,  182,  183
1963, 1115, 1078, 1112
1964, 1056,  180,  181
1965, 1113, 1112, 1077
1966, 1057,  179,  180
1967, 1086, 1043, 1083
1968, 1058,  178,  179
1969, 1080, 1060, 1059
1970, 1059,  177,  178
1971, 1117, 1074, 1114
1972, 1060,  176,  177
1973, 1100,  111, 1099
1974, 1061,  175,  176
1975, 1107, 1102, 1065
1976, 1062,  174,  175
1977, 1081, 1063, 1073
1978, 1063,  173,  174
1979, 1107, 1064, 1081
1980, 1064,  172,  173
1981, 1102,  108, 1065
1982, 1065,  108,  171
1983, 1066,  195,  196
1984, 1109, 1089, 1037
1985, 1067,  190,  191
1986, 1087, 1041, 1085
1987, 1133, 1096, 1093
1988, 1068,  189,  190
1989, 1158, 1153, 1120
1990, 1069,  188,  189
1991, 1096, 1071, 1070
1992, 1070,  187,  188
1993, 1169, 1071, 1126
1994, 1071,  186,  187
1995, 1072,  183, 1054
1996, 1126, 1071, 1096
1997, 1074, 1061, 1060
1998, 1141, 1137, 1110
1999, 1075, 1059, 1058
2000, 1141, 1138, 1137
2001, 1078, 1058, 1057
2002, 1086, 1085, 1042
2003, 1131, 1095, 1094
2004, 1076, 1056, 1055
2005, 1122, 1121, 1085
2006, 1077, 1057, 1056
2007, 1078, 1075, 1058
2008, 1078, 1057, 1077
2009, 1079, 1073, 1062
2010, 1079, 1061, 1074
2011, 1148, 1115, 1147
2012, 1080, 1074, 1060
2013, 1137, 1107, 1110
2014, 1081, 1064, 1063
2015, 1136, 1082, 1125
2016, 1082,  130,  129
2017, 1083, 1043, 1044
2018, 1156, 1155, 1123
2019, 1111, 1045, 1047
2020, 1105, 1046, 1049
2021, 1085, 1041, 1042
2022, 1086, 1042, 1043
2023, 1123, 1122, 1086
2024, 1241, 1239, 1235
2025, 1167, 1142, 1160
2026, 1087, 1040, 1041
2027, 1088, 1067,  191
2028, 1092,  192,  193
2029, 1089,  196,  197
2030, 1109, 1037, 1108
2031, 1090,  194,  195
2032, 1128, 1066, 1109
2033, 1134, 1090, 1128
2034, 1092,  193, 1091
2035, 1134, 1091, 1090
2036, 1092, 1088,  192
2037, 1095, 1069, 1068
2038, 1094, 1068, 1067
2039, 1127, 1067, 1088
2040, 1187, 1163, 1184
2041, 1185, 1176, 1149
2042, 1095, 1093, 1069
2043, 1158, 1133, 1153
2044, 1096, 1070, 1093
2045, 1097, 1050,  113
2046, 1100,  112,  111
2047, 1103, 1052, 1051
2048, 1098, 1051, 1050
2049, 1099,  111,  110
2050, 1141, 1110, 1118
2051, 1138, 1099, 1137
2052, 1100, 1097,  112
2053, 1101,  110,  109
2054, 1102, 1101,  109
2055, 1102,  109,  108
2056, 1107, 1065, 1064
2057, 1242, 1225, 1192
2058, 1104, 1053, 1052
2059, 1106, 1038, 1104
2060, 1104, 1038, 1053
2061, 1144, 1124, 1084
2062, 1106, 1105, 1049
2063, 1106, 1049, 1038
2064, 1220, 1103, 1139
2065, 1110, 1107, 1081
2066, 1107, 1101, 1102
2067, 1108, 1037,  131
2068, 1108,  131,  130
2069, 1109, 1066, 1089
2070, 1142, 1136, 1125
2071, 1118, 1081, 1073
2072, 1145, 1119, 1117
2073, 1111, 1084, 1045
2074, 1143, 1047, 1048
2075, 1112, 1078, 1077
2076, 1113, 1077, 1076
2077, 1153, 1076, 1120
2078, 1132, 1095, 1131
2079, 1114, 1074, 1080
2080, 1116, 1080, 1075
2081, 1115, 1075, 1078
2082, 1222, 1200, 1218
2083, 1116, 1114, 1080
2084, 1116, 1075, 1115
2085, 1201, 1141, 1150
2086, 1117, 1079, 1074
2087, 1118, 1110, 1081
2088, 1119, 1118, 1073
2089, 1119, 1073, 1079
2090, 1146, 1145, 1117
2091, 1120, 1076, 1055
2092, 1126, 1120, 1072
2093, 1222, 1221, 1206
2094, 1122, 1085, 1086
2095, 1123, 1086, 1083
2096, 1155, 1152, 1122
2097, 1124, 1083, 1084
2098, 1232, 1213, 1228
2099, 1144, 1084, 1111
2100, 1225, 1215, 1193
2101, 1125, 1082, 1040
2102, 1154, 1142, 1125
2103, 1126, 1072, 1054
2104, 1169, 1126, 1054
2105, 1127, 1094, 1067
2106, 1135, 1088, 1092
2107, 1134, 1130, 1091
2108, 1128, 1090, 1066
2109, 1129, 1098, 1050
2110, 1140, 1097, 1100
2111, 1130, 1092, 1091
2112, 1164, 1130, 1163
2113, 1149, 1147, 1112
2114, 1159, 1094, 1127
2115, 1178, 1149, 1113
2116, 1132, 1093, 1095
2117, 1178, 1133, 1162
2118, 1133, 1093, 1132
2119, 1167, 1160, 1128
2120, 1191, 1184, 1160
2121, 1135, 1127, 1088
2122, 1135, 1092, 1130
2123, 1136, 1109, 1108
2124, 1136, 1108, 1082
2125, 1137, 1099, 1101
2126, 1137, 1101, 1107
2127, 1140, 1100, 1138
2128, 1138, 1100, 1099
2129, 1157, 1098, 1129
2130, 1183, 1139, 1157
2131, 1166, 1138, 1141
2132, 1140, 1129, 1097
2133, 1150, 1118, 1119
2134, 1190, 1168, 1189
2135, 1154, 1125, 1087
2136, 1222, 1218, 1221
2137, 1143, 1046, 1105
2138, 1170, 1143, 1105
2139, 1170, 1111, 1143
2140, 1170, 1144, 1111
2141, 1201, 1171, 1189
2142, 1146, 1117, 1114
2143, 1151, 1114, 1116
2144, 1173, 1171, 1145
2145, 1147, 1115, 1112
2146, 1149, 1112, 1113
2147, 1175, 1148, 1172
2148, 1148, 1116, 1115
2149, 1185, 1178, 1162
2150, 1161, 1132, 1131
2151, 1150, 1141, 1118
2152, 1150, 1119, 1145
2153, 1151, 1146, 1114
2154, 1151, 1116, 1148
2155, 1152, 1121, 1122
2156, 1155, 1122, 1123
2157, 1153, 1113, 1076
2158, 1158, 1120, 1126
2159, 1154, 1087, 1121
2160, 1179, 1121, 1152
2161, 1156, 1123, 1124
2162, 1181, 1180, 1155
2163, 1174, 1124, 1144
2164, 1198, 1175, 1196
2165, 1157, 1139, 1098
2166, 1168, 1129, 1140
2167, 1158, 1126, 1096
2168, 1158, 1096, 1133
2169, 1159, 1131, 1094
2170, 1165, 1127, 1135
2171, 1163, 1134, 1160
2172, 1160, 1134, 1128
2173, 1176, 1172, 1147
2174, 1182, 1131, 1159
2175, 1162, 1133, 1132
2176, 1162, 1132, 1161
2177, 1187, 1164, 1163
2178, 1163, 1130, 1134
2179, 1187, 1186, 1164
2180, 1164, 1135, 1130
2181, 1165, 1159, 1127
2182, 1165, 1135, 1164
2183, 1166, 1140, 1138
2184, 1171, 1150, 1145
2185, 1167, 1128, 1109
2186, 1167, 1136, 1142
2187, 1168, 1157, 1129
2188, 1168, 1140, 1166
2189, 1169, 1054,  185
2190, 1169,  186, 1071
2191, 1192, 1105, 1106
2192, 1192, 1170, 1105
2193, 1173, 1145, 1146
2194, 1211, 1209, 1194
2195, 1172, 1148, 1147
2196, 1176, 1147, 1149
2197, 1177, 1146, 1151
2198, 1211, 1194, 1197
2199, 1193, 1144, 1170
2200, 1233, 1225, 1231
2201, 1175, 1151, 1148
2202, 1196, 1172, 1195
2203, 1185, 1149, 1178
2204, 1224, 1216, 1204
2205, 1177, 1173, 1146
2206, 1177, 1151, 1175
2207, 1178, 1113, 1153
2208, 1178, 1153, 1133
2209, 1179, 1154, 1121
2210, 1200, 1152, 1180
2211, 1180, 1152, 1155
2212, 1181, 1155, 1156
2213, 1199, 1156, 1174
2214, 1224, 1212, 1195
2215, 1182, 1161, 1131
2216, 1188, 1159, 1165
2217, 1190, 1157, 1168
2218, 1194, 1189, 1171
2219, 1184, 1163, 1160
2220, 1191, 1160, 1142
2221, 1185, 1162, 1161
2222, 1204, 1161, 1182
2223, 1186, 1165, 1164
2224, 1207, 1186, 1206
2225, 1205, 1179, 1200
2226, 1206, 1187, 1205
2227, 1188, 1182, 1159
2228, 1188, 1165, 1186
2229, 1189, 1168, 1166
2230, 1194, 1171, 1173
2231, 1209, 1189, 1194
2232, 1190, 1183, 1157
2233, 1191, 1154, 1179
2234, 1205, 1191, 1179
2235, 1243, 1220, 1231
2236, 1243, 1242, 1106
2237, 1193, 1174, 1144
2238, 1193, 1170, 1192
2239, 1197, 1173, 1177
2240, 1211, 1210, 1209
2241, 1195, 1172, 1176
2242, 1216, 1176, 1185
2243, 1213, 1211, 1197
2244, 1196, 1175, 1172
2245, 1197, 1194, 1173
2246, 1198, 1197, 1177
2247, 1198, 1177, 1175
2248, 1214, 1196, 1212
2249, 1199, 1181, 1156
2250, 1215, 1174, 1193
2251, 1200, 1179, 1152
2252, 1218, 1180, 1202
2253, 1201, 1166, 1141
2254, 1201, 1150, 1171
2255, 1202, 1180, 1181
2256, 1217, 1181, 1199
2257, 1203, 1139, 1183
2258, 1219, 1183, 1210
2259, 1204, 1185, 1161
2260, 1208, 1182, 1188
2261, 1205, 1187, 1184
2262, 1205, 1184, 1191
2263, 1241, 1230, 1239
2264, 1206, 1186, 1187
2265, 1223, 1208, 1207
2266, 1207, 1188, 1186
2267, 1208, 1204, 1182
2268, 1208, 1188, 1207
2269, 1210, 1190, 1209
2270, 1209, 1190, 1189
2271, 1238, 1234, 1232
2272, 1210, 1183, 1190
2273, 1213, 1197, 1198
2274, 1239, 1238, 1228
2275, 1212, 1196, 1195
2276, 1224, 1195, 1216
2277, 1214, 1213, 1198
2278, 1228, 1214, 1227
2279, 1214, 1198, 1196
2280, 1227, 1214, 1212
2281, 1215, 1199, 1174
2282, 1225, 1193, 1192
2283, 1216, 1195, 1176
2284, 1216, 1185, 1204
2285, 1217, 1202, 1181
2286, 1229, 1215, 1226
2287, 1218, 1200, 1180
2288, 1235, 1223, 1221
2289, 1219, 1203, 1183
2290, 1234, 1210, 1211
2291, 1220, 1104, 1103
2292, 1220, 1139, 1203
2293, 1241, 1235, 1221
2294, 1221, 1207, 1206
2295, 1222, 1206, 1205
2296, 1222, 1205, 1200
2297, 1236, 1224, 1223
2298, 1223, 1207, 1221
2299, 1224, 1204, 1208
2300, 1224, 1208, 1223
2301, 1242, 1231, 1225
2302, 1233, 1226, 1225
2303, 1237, 1219, 1234
2304, 1226, 1215, 1225
2305, 1236, 1227, 1212
2306, 1239, 1230, 1238
2307, 1240, 1237, 1238
2308, 1228, 1213, 1214
2309, 1229, 1217, 1199
2310, 1229, 1199, 1215
2311, 1230, 1202, 1217
2312, 1240, 1229, 1237
2313, 1231, 1220, 1203
2314, 1233, 1231, 1203
2315, 1234, 1211, 1232
2316, 1232, 1211, 1213
2317, 1233, 1203, 1219
2318, 1237, 1233, 1219
2319, 1238, 1237, 1234
2320, 1234, 1219, 1210
2321, 1236, 1235, 1227
2322, 1241, 1221, 1218
2323, 1236, 1212, 1224
2324, 1236, 1223, 1235
2325, 1237, 1229, 1226
2326, 1237, 1226, 1233
2327, 1238, 1232, 1228
2328, 1240, 1238, 1230
2329, 1239, 1228, 1227
2330, 1239, 1227, 1235
2331, 1240, 1230, 1217
2332, 1240, 1217, 1229
2333, 1241, 1218, 1202
2334, 1241, 1202, 1230
2335, 1242, 1192, 1106
2336, 1243, 1106, 1104
2337, 1243, 1104, 1220
2338, 1243, 1231, 1242
*Orientation, name=Ori-1
1., 0., 0., 0., 1., 0.
3, 0.
** Region: (CompositeLayup-1-1: Generated From Layup)
*Elset, elset=CompositeLayup-1-1, generate
    1,  2338,     1
** Section: CompositeLayup-1-1
*Shell Section, elset=CompositeLayup-1-1, composite, orientation=Ori-1, layup=CompositeLayup-1, symmetric
0.25, 3, CFRP, 0., Ply-1
0.25, 3, CFRP, 45., Ply-2
0.25, 3, CFRP, 90., Ply-3
0.25, 3, CFRP, -45., Ply-4
*End Part
**  
**
** ASSEMBLY
**
*Assembly, name=Assembly
**  
*Instance, name=Plate-1, part=PLATE
*End Instance
**  
*Nset, nset=Set-1, instance=Plate-1
   6,   7,  12,  91,  92,  93,  94,  95,  96,  97,  98,  99, 100, 101, 102, 103
 104, 105, 106, 107, 171, 172, 173, 174, 175, 176, 177, 178, 179, 180, 181, 182
 183, 184
*Elset, elset=Set-1, instance=Plate-1
  729,  730,  742,  812,  814,  815,  817,  819,  821,  823,  825,  827,  829,  831,  833,  835
  837,  858, 1888, 1889, 1898, 1960, 1961, 1962, 1964, 1966, 1968, 1970, 1972, 1974, 1976, 1978
 1980,
*Nset, nset=Set-2, instance=Plate-1
   4,   5,  11,  45,  46,  47,  48,  49,  50,  51,  52,  53,  54,  55,  56,  57
  58,  59,  60,  61, 149, 150, 151, 152, 153, 154, 155, 156, 157, 158, 159, 160
 161, 162
*Elset, elset=Set-2, instance=Plate-1
   22,   23,   36,  110,  111,  112,  114,  116,  118,  120,  122,  124,  126,  128,  130,  132
  134,  136, 1301, 1302, 1317, 1320, 1323, 1387, 1388, 1391, 1393, 1395, 1397, 1399, 1401, 1437
 1444,
*End Assembly
** 
** MATERIALS
** 
*Material, name=CFRP
*Elastic, type=ENGINEERING CONSTANTS
150000.,9000.,9000., 0.34, 0.34,  0.4,5000.,5000.
5000.,
** ----------------------------------------------------------------
** 
** STEP: Step-1
** 
*Step, name=Step-1, nlgeom=NO
*Static
1., 1., 1e-05, 1.
** 
** BOUNDARY CONDITIONS
** 
** Name: BC-1 Type: Symmetry/Antisymmetry/Encastre
*Boundary
Set-1, ENCASTRE
** Name: DISPLACEMENT Type: Displacement/Rotation
*Boundary
Set-2, 1, 1, 1.78947
** 
** OUTPUT REQUESTS
** 
*Restart, write, frequency=0
** 
** FIELD OUTPUT: F-Output-1
** 
*Output, field
*Element Output, position=NODES, directions=YES
E, 
** 
** HISTORY OUTPUT: H-Output-1
** 
*Output, history, variable=PRESELECT
*End Step
