*Heading
** Job name: Plate_481 Model name: Model-1
** Generated by: Abaqus/CAE 2024.HF3
*Preprint, echo=NO, model=NO, history=NO, contact=NO
**
** PARTS
**
*Part, name=PLATE
*Node
      1,   100.778961,   164.540421,           0.
      2,   100.778961,   129.538284,           0.
      3,   115.138954,   115.178299,           0.
      4,   143.969955,   115.178299,           0.
      5,   143.969955,   164.540421,           0.
      6,           0.,   164.540421,           0.
      7,           0.,   115.178299,           0.
      8,   86.4189758,   115.178299,           0.
      9,   100.778961,   100.818306,           0.
     10,   100.778961,           0.,           0.
     11,   143.969955,           0.,           0.
     12,           0.,           0.,           0.
     13,   100.778961,   159.540115,           0.
     14,   100.778961,    154.53981,           0.
     15,   100.778961,   149.539505,           0.
     16,   100.778961,     144.5392,           0.
     17,   100.778961,   139.538895,           0.
     18,   100.778961,   134.538589,           0.
     19,   105.216446,   128.835464,           0.
     20,   109.219551,   126.795769,           0.
     21,   112.396439,   123.618889,           0.
     22,   114.436127,   119.615776,           0.
     23,   119.944115,   115.178299,           0.
     24,   124.749283,   115.178299,           0.
     25,   129.554443,   115.178299,           0.
     26,   134.359619,   115.178299,           0.
     27,    139.16478,   115.178299,           0.
     28,   143.969955,    120.11451,           0.
     29,   143.969955,    125.05072,           0.
     30,   143.969955,   129.986938,           0.
     31,   143.969955,   134.923141,           0.
     32,   143.969955,    139.85936,           0.
     33,   143.969955,   144.795578,           0.
     34,   143.969955,   149.731781,           0.
     35,   143.969955,   154.667999,           0.
     36,   143.969955,   159.604218,           0.
     37,   139.170944,   164.540421,           0.
     38,   134.371948,   164.540421,           0.
     39,   129.572952,   164.540421,           0.
     40,   124.773956,   164.540421,           0.
     41,    119.97496,   164.540421,           0.
     42,   115.175957,   164.540421,           0.
     43,   110.376961,   164.540421,           0.
     44,   105.577965,   164.540421,           0.
     45,   95.9799652,   164.540421,           0.
     46,   91.1809692,   164.540421,           0.
     47,   86.3819656,   164.540421,           0.
     48,   81.5829697,   164.540421,           0.
     49,   76.7839737,   164.540421,           0.
     50,   71.9849777,   164.540421,           0.
     51,   67.1859741,   164.540421,           0.
     52,   62.3869781,   164.540421,           0.
     53,   57.5879784,   164.540421,           0.
     54,   52.7889824,   164.540421,           0.
     55,   47.9899826,   164.540421,           0.
     56,   43.1909828,   164.540421,           0.
     57,   38.3919868,   164.540421,           0.
     58,   33.5929871,   164.540421,           0.
     59,   28.7939892,   164.540421,           0.
     60,   23.9949913,   164.540421,           0.
     61,   19.1959934,   164.540421,           0.
     62,   14.3969946,   164.540421,           0.
     63,   9.59799671,   164.540421,           0.
     64,   4.79899836,   164.540421,           0.
     65,           0.,   159.604218,           0.
     66,           0.,   154.667999,           0.
     67,           0.,   149.731781,           0.
     68,           0.,   144.795578,           0.
     69,           0.,    139.85936,           0.
     70,           0.,   134.923141,           0.
     71,           0.,   129.986938,           0.
     72,           0.,    125.05072,           0.
     73,           0.,    120.11451,           0.
     74,     4.801054,   115.178299,           0.
     75,     9.602108,   115.178299,           0.
     76,    14.403163,   115.178299,           0.
     77,    19.204216,   115.178299,           0.
     78,     24.00527,   115.178299,           0.
     79,   28.8063259,   115.178299,           0.
     80,   33.6073799,   115.178299,           0.
     81,    38.408432,   115.178299,           0.
     82,   43.2094879,   115.178299,           0.
     83,     48.01054,   115.178299,           0.
     84,   52.8115959,   115.178299,           0.
     85,   57.6126518,   115.178299,           0.
     86,   62.4137039,   115.178299,           0.
     87,   67.2147598,   115.178299,           0.
     88,   72.0158157,   115.178299,           0.
     89,    76.816864,   115.178299,           0.
     90,   81.6179199,   115.178299,           0.
     91,   87.1218033,   119.615776,           0.
     92,   89.1614914,   123.618889,           0.
     93,   92.3383713,   126.795769,           0.
     94,   96.3414841,   128.835464,           0.
     95,   100.778961,   96.0174332,           0.
     96,   100.778961,    91.216568,           0.
     97,   100.778961,   86.4156952,           0.
     98,   100.778961,   81.6148224,           0.
     99,   100.778961,   76.8139496,           0.
    100,   100.778961,   72.0130768,           0.
    101,   100.778961,    67.212204,           0.
    102,   100.778961,    62.411335,           0.
    103,   100.778961,   57.6104622,           0.
    104,   100.778961,   52.8095894,           0.
    105,   100.778961,   48.0087166,           0.
    106,   100.778961,   43.2078476,           0.
    107,   100.778961,   38.4069748,           0.
    108,   100.778961,    33.606102,           0.
    109,   100.778961,   28.8052311,           0.
    110,   100.778961,   24.0043583,           0.
    111,   100.778961,   19.2034874,           0.
    112,   100.778961,   14.4026155,           0.
    113,   100.778961,    9.6017437,           0.
    114,   100.778961,   4.80087185,           0.
    115,   105.577965,           0.,           0.
    116,   110.376961,           0.,           0.
    117,   115.175957,           0.,           0.
    118,    119.97496,           0.,           0.
    119,   124.773956,           0.,           0.
    120,   129.572952,           0.,           0.
    121,   134.371948,           0.,           0.
    122,   139.170944,           0.,           0.
    123,   143.969955,   4.79909563,           0.
    124,   143.969955,   9.59819126,           0.
    125,   143.969955,   14.3972874,           0.
    126,   143.969955,   19.1963825,           0.
    127,   143.969955,   23.9954777,           0.
    128,   143.969955,   28.7945747,           0.
    129,   143.969955,   33.5936699,           0.
    130,   143.969955,    38.392765,           0.
    131,   143.969955,   43.1918602,           0.
    132,   143.969955,   47.9909554,           0.
    133,   143.969955,   52.7900543,           0.
    134,   143.969955,   57.5891495,           0.
    135,   143.969955,   62.3882446,           0.
    136,   143.969955,   67.1873398,           0.
    137,   143.969955,   71.9864349,           0.
    138,   143.969955,   76.7855301,           0.
    139,   143.969955,   81.5846252,           0.
    140,   143.969955,   86.3837204,           0.
    141,   143.969955,   91.1828156,           0.
    142,   143.969955,   95.9819107,           0.
    143,   143.969955,   100.781013,           0.
    144,   143.969955,   105.580109,           0.
    145,   143.969955,   110.379204,           0.
    146,   114.436127,   110.740814,           0.
    147,   112.396439,   106.737709,           0.
    148,   109.219551,   103.560822,           0.
    149,   105.216446,   101.521133,           0.
    150,   96.3414841,   101.521133,           0.
    151,   92.3383713,   103.560822,           0.
    152,   89.1614914,   106.737709,           0.
    153,   87.1218033,   110.740814,           0.
    154,           0.,   110.379204,           0.
    155,           0.,   105.580109,           0.
    156,           0.,   100.781013,           0.
    157,           0.,   95.9819107,           0.
    158,           0.,   91.1828156,           0.
    159,           0.,   86.3837204,           0.
    160,           0.,   81.5846252,           0.
    161,           0.,   76.7855301,           0.
    162,           0.,   71.9864349,           0.
    163,           0.,   67.1873398,           0.
    164,           0.,   62.3882446,           0.
    165,           0.,   57.5891495,           0.
    166,           0.,   52.7900543,           0.
    167,           0.,   47.9909554,           0.
    168,           0.,   43.1918602,           0.
    169,           0.,    38.392765,           0.
    170,           0.,   33.5936699,           0.
    171,           0.,   28.7945747,           0.
    172,           0.,   23.9954777,           0.
    173,           0.,   19.1963825,           0.
    174,           0.,   14.3972874,           0.
    175,           0.,   9.59819126,           0.
    176,           0.,   4.79909563,           0.
    177,   4.79899836,           0.,           0.
    178,   9.59799671,           0.,           0.
    179,   14.3969946,           0.,           0.
    180,   19.1959934,           0.,           0.
    181,   23.9949913,           0.,           0.
    182,   28.7939892,           0.,           0.
    183,   33.5929871,           0.,           0.
    184,   38.3919868,           0.,           0.
    185,   43.1909828,           0.,           0.
    186,   47.9899826,           0.,           0.
    187,   52.7889824,           0.,           0.
    188,   57.5879784,           0.,           0.
    189,   62.3869781,           0.,           0.
    190,   67.1859741,           0.,           0.
    191,   71.9849777,           0.,           0.
    192,   76.7839737,           0.,           0.
    193,   81.5829697,           0.,           0.
    194,   86.3819656,           0.,           0.
    195,   91.1809692,           0.,           0.
    196,   95.9799652,           0.,           0.
    197,   105.081039,   152.002533,           0.
    198,   104.715591,    156.22197,           0.
    199,   109.427231,   130.563187,           0.
    200,   117.447601,   123.114532,           0.
    201,   117.740112,   118.460449,           0.
    202,   105.070496,   147.053024,           0.
    203,   105.095421,   142.157013,           0.
    204,   105.167191,   137.339417,           0.
    205,   105.158684,    132.65242,           0.
    206,   113.550621,   127.546883,           0.
    207,   137.367432,   119.611649,           0.
    208,   132.032593,   119.654266,           0.
    209,   126.774117,   119.632286,           0.
    210,   121.676102,   119.345398,           0.
    211,   139.618652,   152.235947,           0.
    212,    139.65596,    147.30426,           0.
    213,   139.699417,   142.338531,           0.
    214,   139.716171,   137.392441,           0.
    215,   139.641327,   132.410522,           0.
    216,   139.586365,   127.503189,           0.
    217,   122.375916,    160.34346,           0.
    218,   127.177864,   160.318314,           0.
    219,   132.156174,   160.164215,           0.
    220,    137.41748,   160.113571,           0.
    221,   117.538811,   160.240738,           0.
    222,   124.828156,   156.134155,           0.
    223,   129.689529,   155.989639,           0.
    224,   107.259491,   159.975021,           0.
    225,   112.536758,   160.050735,           0.
    226,   129.237717,   124.271584,           0.
    227,   123.414062,   124.731018,           0.
    228,   135.447647,   139.873947,           0.
    229,   135.282822,   149.907364,           0.
    230,   139.991653,   156.385834,           0.
    231,   135.264877,   144.912888,           0.
    232,   135.427063,    134.88237,           0.
    233,   135.369751,   129.979126,           0.
    234,   109.625481,   155.107849,           0.
    235,   109.458252,   149.699219,           0.
    236,   109.593666,   144.773941,           0.
    237,   113.931847,   132.364243,           0.
    238,   118.924118,   129.048508,           0.
    239,   135.110291,   155.271713,           0.
    240,   134.998306,   124.643059,           0.
    241,   115.083649,   155.896255,           0.
    242,   131.571991,   152.148834,           0.
    243,   127.337509,   151.941406,           0.
    244,   119.989166,   156.083679,           0.
    245,   109.525139,   139.842407,           0.
    246,   131.259369,   132.424255,           0.
    247,   130.403091,   147.572266,           0.
    248,   131.226608,    137.38974,           0.
    249,   131.105988,   142.264069,           0.
    250,    113.24276,   152.022507,           0.
    251,   114.509315,   147.489136,           0.
    252,   139.978394,   123.384621,           0.
    253,   109.503555,   135.019257,           0.
    254,   131.552139,   128.104568,           0.
    255,    122.45118,   151.911499,           0.
    256,   113.905464,   142.208954,           0.
    257,   126.968063,   139.819611,           0.
    258,   126.961617,   134.721039,           0.
    259,   127.198181,   144.071442,           0.
    260,   117.540482,   151.851852,           0.
    261,   113.896255,   137.330811,           0.
    262,   126.886742,    129.29718,           0.
    263,   117.811691,   144.038193,           0.
    264,   122.623352,   137.371124,           0.
    265,   122.534752,   142.930695,           0.
    266,   119.975578,   147.655472,           0.
    267,   118.389305,   134.675995,           0.
    268,   122.796036,    132.29924,           0.
    269,   118.193474,   139.759293,           0.
    270,   124.983383,   147.680466,           0.
    271,   123.005241,   128.843994,           0.
    272,   85.1675797,   123.793953,           0.
    273,   87.8116379,    128.58783,           0.
    274,   92.8993378,   132.078888,           0.
    275,   45.5904961,   160.384232,           0.
    276,   59.9877357,   160.386139,           0.
    277,   35.9928055,   160.382767,           0.
    278,   40.7916183,   160.383789,           0.
    279,   50.3894844,   160.384293,           0.
    280,   55.1885223,   160.384811,           0.
    281,    64.787262,   160.389694,           0.
    282,    6.5585866,   160.115692,           0.
    283,   11.7825689,   160.164856,           0.
    284,   16.7581482,   160.324478,           0.
    285,   21.5895061,   160.365356,           0.
    286,   26.3940983,   160.375839,           0.
    287,   31.1939983,   160.380142,           0.
    288,   69.5864029,   160.393387,           0.
    289,   74.3844147,   160.394821,           0.
    290,   79.1818085,   160.390564,           0.
    291,   83.9970551,   160.336227,           0.
    292,   88.9885712,   160.141296,           0.
    293,   94.2414169,   160.063705,           0.
    294,    50.411068,   119.336037,           0.
    295,    64.815918,     119.3283,           0.
    296,   16.7564602,   119.436409,           0.
    297,   21.5943928,   119.363976,           0.
    298,   31.2069035,   119.336449,           0.
    299,   45.6100159,   119.336029,           0.
    300,   11.7341213,   119.638626,           0.
    301,   26.4038048,   119.343079,           0.
    302,   36.0079308,   119.336189,           0.
    303,   40.8089638,    119.33606,           0.
    304,   55.2121925,   119.335732,           0.
    305,   60.0139694,   119.333305,           0.
    306,    69.615593,   119.318802,           0.
    307,   74.3120728,   119.326309,           0.
    308,   78.9025803,   119.386223,           0.
    309,   83.3518677,   119.459488,           0.
    310,   4.25779963,   137.393936,           0.
    311,   4.25878096,   142.335312,           0.
    312,   4.31465578,   147.312225,           0.
    313,   4.32352734,   152.223846,           0.
    314,   4.28206396,   127.551071,           0.
    315,    3.9219389,   123.395477,           0.
    316,   96.4455414,   146.966125,           0.
    317,   96.3524017,   141.625961,           0.
    318,   96.6095047,   136.351227,           0.
    319,   97.4816513,   132.268494,           0.
    320,   81.6072998,   156.180557,           0.
    321,   47.9900284,   156.228104,           0.
    322,   38.3931694,   156.225693,           0.
    323,   57.5894051,   156.232498,           0.
    324,   71.9863281,   156.254868,           0.
    325,   19.1423092,   156.161621,           0.
    326,   28.7970848,   156.215622,           0.
    327,   14.2620859,   156.008881,           0.
    328,   23.9886665,   156.199265,           0.
    329,   67.1901627,     156.2491,           0.
    330,   33.5955963,   156.221405,           0.
    331,   52.7894363,   156.229401,           0.
    332,   62.3908768,   156.240616,           0.
    333,   43.1914139,   156.227325,           0.
    334,   76.7843018,   156.241623,           0.
    335,   86.5195465,    155.95079,           0.
    336,   6.48852873,   119.668388,           0.
    337,   52.8119316,   123.493065,           0.
    338,   62.4204063,   123.480141,           0.
    339,    14.235816,   123.769119,           0.
    340,   28.8062687,   123.499474,           0.
    341,   38.4085159,   123.493935,           0.
    342,   67.2226486,   123.461708,           0.
    343,   48.0106354,     123.4935,           0.
    344,   19.1388206,   123.592178,           0.
    345,   23.9931583,    123.52298,           0.
    346,   33.6076317,   123.495369,           0.
    347,   43.2095261,   123.493698,           0.
    348,   57.6154022,   123.489143,           0.
    349,   71.9141541,   123.469147,           0.
    350,   4.26889515,   132.446075,           0.
    351,   8.50029755,   139.904694,           0.
    352,   8.67209911,   149.920197,           0.
    353,   8.77893066,    124.51458,           0.
    354,   8.66514492,     144.9151,           0.
    355,   96.4575806,    152.04306,           0.
    356,   96.8256226,   156.273743,           0.
    357,   91.9151917,    144.29361,           0.
    358,   91.3174057,    138.28096,           0.
    359,   88.2607346,   133.808502,           0.
    360,   82.7637863,   127.844017,           0.
    361,   91.9610214,   155.147263,           0.
    362,   8.86378479,   155.289948,           0.
    363,   76.4694443,   123.512054,           0.
    364,   88.4124985,   151.994873,           0.
    365,   45.5911217,   152.071167,           0.
    366,   55.1922035,   152.077667,           0.
    367,   40.7938194,   152.069016,           0.
    368,   50.3907852,   152.073288,           0.
    369,   59.9965439,   152.088867,           0.
    370,   74.3796844,   152.118057,           0.
    371,   35.9975662,   152.064209,           0.
    372,   26.4006081,   152.044601,           0.
    373,   31.2007904,   152.055801,           0.
    374,   64.7986526,    152.10408,           0.
    375,   21.5124264,   152.033295,           0.
    376,   16.6396904,   152.010071,           0.
    377,   69.5928955,   152.116699,           0.
    378,   79.2335281,   152.046082,           0.
    379,     84.10746,   151.900162,           0.
    380,   60.0261726,   127.634972,           0.
    381,   55.2169495,   127.645828,           0.
    382,   40.8092155,   127.651611,           0.
    383,     36.00877,   127.652924,           0.
    384,    45.610157,   127.651161,           0.
    385,   50.4123344,   127.649742,           0.
    386,   31.2088223,   127.657158,           0.
    387,   21.5076714,   127.732986,           0.
    388,   26.3821011,    127.68116,           0.
    389,   16.5825062,   127.835709,           0.
    390,   64.8352585,   127.610977,           0.
    391,   69.5694885,   127.591141,           0.
    392,   8.63089275,   134.916229,           0.
    393,   92.0618439,   149.638168,           0.
    394,   13.0101337,    142.41304,           0.
    395,   13.5943422,   147.683624,           0.
    396,   8.61119747,   129.897156,           0.
    397,   3.94917989,   156.380341,           0.
    398,   87.1137772,   147.286057,           0.
    399,   80.8728867,   123.616135,           0.
    400,   74.1264954,    127.59388,           0.
    401,   76.7988052,   147.957947,           0.
    402,   81.6781235,   147.705093,           0.
    403,   71.9957123,   147.986404,           0.
    404,   18.9271011,   131.875717,           0.
    405,   23.8834267,   147.974319,           0.
    406,   38.3994026,   147.907898,           0.
    407,   33.6037979,   147.903091,           0.
    408,   18.9315338,   148.006805,           0.
    409,   47.9925957,   147.929962,           0.
    410,   43.1947708,    147.91481,           0.
    411,   52.7965736,   147.954742,           0.
    412,   57.6043701,   147.959564,           0.
    413,   28.7749062,   147.934402,           0.
    414,   33.6122246,   131.747665,           0.
    415,   28.7888184,   131.765121,           0.
    416,   57.6290131,   131.748306,           0.
    417,   48.0095558,   131.752655,           0.
    418,   43.2083588,   131.729721,           0.
    419,   52.8160858,   131.749557,           0.
    420,   38.4100456,    131.71608,           0.
    421,   23.8561115,   131.817429,           0.
    422,   67.2080078,   147.975342,           0.
    423,   62.4104538,   147.961624,           0.
    424,   67.2159958,   131.692154,           0.
    425,   62.4364967,   131.701645,           0.
    426,   12.4064007,   152.182541,           0.
    427,   13.0642786,   137.524139,           0.
    428,   12.3377886,   127.657158,           0.
    429,   16.9323502,   144.434586,           0.
    430,   13.5707808,   132.183075,           0.
    431,   78.4251862,   127.555382,           0.
    432,   79.0295563,   143.740814,           0.
    433,   74.3412781,   143.859497,           0.
    434,   71.8605042,   131.647812,           0.
    435,   69.5995026,   143.872528,           0.
    436,   21.2763214,    144.04866,           0.
    437,   36.0045815,    143.79747,           0.
    438,   21.2545376,   135.856003,           0.
    439,    40.800045,   143.799484,           0.
    440,    26.262785,   143.915207,           0.
    441,   31.1759148,   143.858887,           0.
    442,   31.1949253,   135.789551,           0.
    443,   26.2548523,   135.834183,           0.
    444,   45.5976791,   143.842026,           0.
    445,   50.4013138,   143.875671,           0.
    446,   36.0071678,   135.745468,           0.
    447,   40.8064003,   135.727936,           0.
    448,   45.6057129,    135.76915,           0.
    449,   50.4109268,    135.79744,           0.
    450,   55.2232552,   135.782684,           0.
    451,   55.2101707,   143.872116,           0.
    452,    64.818306,   143.860229,           0.
    453,   60.0176735,   143.871704,           0.
    454,   60.0360107,   135.760269,           0.
    455,   64.8291321,   135.738739,           0.
    456,   18.0020447,   139.970016,           0.
    457,   80.2624664,    130.91539,           0.
    458,   76.7542114,   139.724548,           0.
    459,   71.9856491,   139.773163,           0.
    460,   76.4703751,   131.456024,           0.
    461,    38.404705,   139.759232,           0.
    462,   28.6888561,   139.850067,           0.
    463,   23.6232319,   139.912354,           0.
    464,   33.5793571,    139.80011,           0.
    465,    69.582077,   135.715775,           0.
    466,   67.2087555,   139.787018,           0.
    467,   43.2028008,    139.78978,           0.
    468,   48.0048485,   139.814774,           0.
    469,   52.8125648,   139.826294,           0.
    470,   16.9637489,   135.481781,           0.
    471,   62.4224586,   139.805496,           0.
    472,   57.6203537,   139.819763,           0.
    473,   79.7357559,   135.395981,           0.
    474,   74.3980942,   135.618881,           0.
    475,   84.0043793,   132.405228,           0.
    476,   80.8811798,   139.984818,           0.
    477,   85.1151733,   137.886642,           0.
    478,   83.6216812,   143.125229,           0.
    479,   87.8166504,     142.1745,           0.
    480,   116.237289,    106.42688,           0.
    481,   113.197891,     102.3526,           0.
    482,   108.706024,   98.5836639,           0.
    483,   127.072128,   4.20298052,           0.
    484,   122.283867,   4.24236774,           0.
    485,   112.479561,   4.36815691,           0.
    486,   107.256691,   4.36927605,           0.
    487,   136.468658,   4.33592224,           0.
    488,   139.589096,   107.633018,           0.
    489,   139.746994,   102.950226,           0.
    490,   139.813797,   31.1917267,           0.
    491,   139.814423,   26.3825378,           0.
    492,    139.83226,   21.5326614,           0.
    493,   139.959503,   16.6670437,           0.
    494,   140.476059,   12.5676374,           0.
    495,   139.821426,   98.2725983,           0.
    496,   139.828293,   93.5504227,           0.
    497,   139.826538,   88.7767029,           0.
    498,   139.821671,   83.9844742,           0.
    499,   139.817627,    79.185936,           0.
    500,   139.815292,   74.3864517,           0.
    501,   139.814301,   69.5870972,           0.
    502,   139.813889,   64.7878723,           0.
    503,   139.813751,   59.9887276,           0.
    504,   139.813705,   55.1896133,           0.
    505,   139.813675,   50.3905106,           0.
    506,   139.813675,   45.5914116,           0.
    507,   139.813675,   40.7922554,           0.
    508,   139.813705,   35.9924088,           0.
    509,   104.072411,   98.2500687,           0.
    510,   104.936478,   60.0109062,           0.
    511,   104.972733,   21.5943642,           0.
    512,   104.949242,   26.4035988,           0.
    513,   104.939903,    31.205452,           0.
    514,   104.936562,   40.8073959,           0.
    515,   104.936508,   45.6082802,           0.
    516,   104.936493,    50.409153,           0.
    517,   104.936485,   55.2100296,           0.
    518,   104.936386,   64.8118057,           0.
    519,   104.935692,   69.6133728,           0.
    520,   104.934166,    74.418335,           0.
    521,   104.946754,   79.2496719,           0.
    522,   105.022179,   84.1674423,           0.
    523,   105.183327,   89.2693405,           0.
    524,   104.957352,   94.3406982,           0.
    525,   104.937302,    36.006485,           0.
    526,   118.188873,   110.800438,           0.
    527,   131.384949,   111.550163,           0.
    528,   127.384995,   110.992294,           0.
    529,   122.714714,    110.85656,           0.
    530,   131.790024,   4.23866129,           0.
    531,   117.421722,   4.28820705,           0.
    532,   141.022263,   4.58930492,           0.
    533,   124.548576,   8.64018345,           0.
    534,   139.359009,   112.208504,           0.
    535,   135.494553,   104.967896,           0.
    536,    135.73468,   18.8694401,           0.
    537,   135.678558,   23.8845501,           0.
    538,    135.66185,    28.763979,           0.
    539,   135.966492,   13.3871231,           0.
    540,   135.731064,   95.8799973,           0.
    541,   135.658127,   67.1877289,           0.
    542,   135.663498,   76.7881241,           0.
    543,   135.684998,   86.3858948,           0.
    544,   135.658127,   33.5869293,           0.
    545,   135.657425,   57.5891991,           0.
    546,   135.787033,   100.450569,           0.
    547,   135.657333,   43.1917839,           0.
    548,   135.657333,   47.9909477,           0.
    549,   135.657455,   38.3913803,           0.
    550,   135.657349,   52.7900734,           0.
    551,   135.657623,   62.3884125,           0.
    552,   135.707458,    91.161087,           0.
    553,   135.659943,   71.9876862,           0.
    554,   135.672867,   81.5892258,           0.
    555,   104.996796,   16.7841854,           0.
    556,     109.1791,   67.2121964,           0.
    557,   109.190079,   76.8450928,           0.
    558,   109.609322,   86.8592682,           0.
    559,   109.229874,   23.9479256,           0.
    560,   109.173759,   43.2070427,           0.
    561,   109.184082,   48.0077477,           0.
    562,   105.010635,   12.0278149,           0.
    563,   104.682404,    7.9794116,           0.
    564,   109.209694,   28.7903633,           0.
    565,   109.186844,   52.8085098,           0.
    566,   109.190384,   57.6092606,           0.
    567,   109.195778,   33.6029205,           0.
    568,   109.209061,   62.4100037,           0.
    569,   109.205688,   38.4055557,           0.
    570,   109.338013,   81.7563858,           0.
    571,    109.21106,   72.0202255,           0.
    572,   110.318893,   92.6962433,           0.
    573,   130.657318,   106.813576,           0.
    574,   114.148712,   97.3816299,           0.
    575,   118.485672,   101.445122,           0.
    576,   109.467712,   9.12679958,           0.
    577,   135.140762,   109.725243,           0.
    578,     138.6371,   8.82801151,           0.
    579,   125.367256,   106.609772,           0.
    580,    119.62384,   8.60296917,           0.
    581,   131.457993,   40.7923126,           0.
    582,   131.441147,   35.9896851,           0.
    583,   131.445724,   45.5918732,           0.
    584,   131.439392,   50.3911819,           0.
    585,   131.436691,   55.1904373,           0.
    586,   131.537811,   16.3255367,           0.
    587,   131.430939,   31.1706982,           0.
    588,   131.503876,   21.3587799,           0.
    589,   131.437012,    59.989727,           0.
    590,   131.447647,   26.2963257,           0.
    591,   131.438477,   64.7892761,           0.
    592,   131.441116,    69.589592,           0.
    593,   131.446396,   74.3916779,           0.
    594,   131.756317,   98.3344193,           0.
    595,   131.456772,   79.1961975,           0.
    596,     131.4814,   84.0011139,           0.
    597,   131.617783,   93.5931015,           0.
    598,   129.334061,    8.4986496,           0.
    599,   132.275269,   102.433609,           0.
    600,   131.535156,   88.8027573,           0.
    601,   109.234268,   19.0542355,           0.
    602,   113.605843,   45.6045837,           0.
    603,   113.627739,   40.8037682,           0.
    604,   113.616325,   50.4050064,           0.
    605,    113.61927,   55.2054901,           0.
    606,   113.630913,   36.0026169,           0.
    607,   113.629181,   60.0059547,           0.
    608,   113.634865,   31.1865387,           0.
    609,   113.631348,   64.8074188,           0.
    610,   113.682129,   26.2778873,           0.
    611,   113.637886,   69.6120911,           0.
    612,   113.645912,   74.4271393,           0.
    613,   113.721504,    79.280014,           0.
    614,   109.145294,   14.2603531,           0.
    615,   113.956116,    84.201416,           0.
    616,   114.770142,   8.57756233,           0.
    617,   127.691765,   101.694305,           0.
    618,   120.679405,   106.510338,           0.
    619,   116.820747,   12.7873287,           0.
    620,   127.479141,    96.194809,           0.
    621,   127.355095,   91.2626038,           0.
    622,    133.95932,   8.54804993,           0.
    623,   121.711411,     13.05404,           0.
    624,   127.080437,   13.4753399,           0.
    625,   127.182083,   23.8071194,           0.
    626,   127.296539,   18.8637257,           0.
    627,   127.109161,     38.39188,           0.
    628,   127.104401,   43.1935959,           0.
    629,   127.091942,   47.9935608,           0.
    630,   127.084518,   52.7931557,           0.
    631,   127.097572,   28.7138691,           0.
    632,   127.083687,   57.5926857,           0.
    633,   127.068848,   33.5696602,           0.
    634,    127.08606,   62.3925133,           0.
    635,   131.575623,   12.0469398,           0.
    636,   127.090553,    67.193306,           0.
    637,   127.097313,   71.9965744,           0.
    638,   127.109032,   76.8041763,           0.
    639,   113.734123,   21.2030392,           0.
    640,   118.140907,   52.8008232,           0.
    641,   118.149719,   48.0005951,           0.
    642,    118.15448,   38.3994446,           0.
    643,   118.146011,   57.6009445,           0.
    644,   118.159782,    43.200222,           0.
    645,   118.145668,   33.5815239,           0.
    646,   118.151276,   62.4016762,           0.
    647,   118.182983,   28.6881752,           0.
    648,   118.159485,   67.2041779,           0.
    649,   118.169876,   72.0125275,           0.
    650,   127.149178,   81.6172485,           0.
    651,   127.229134,   86.4335785,           0.
    652,   118.319191,   81.6839142,           0.
    653,   118.215096,   76.8389282,           0.
    654,   113.387718,   16.2477741,           0.
    655,   112.718323,   12.1999636,           0.
    656,   123.131485,    98.650177,           0.
    657,   118.626961,   17.8810482,           0.
    658,   123.071114,   102.981941,           0.
    659,   123.117493,   93.6957016,           0.
    660,    118.55323,   86.5304794,           0.
    661,   123.528793,   16.9123669,           0.
    662,   122.935303,   21.2316055,           0.
    663,   122.650558,   40.7959442,           0.
    664,   122.639519,   45.5967026,           0.
    665,   122.630424,   50.3968239,           0.
    666,   122.719238,   26.2096786,           0.
    667,   122.631081,   35.9826965,           0.
    668,   122.627853,   55.1967163,           0.
    669,     122.6409,   31.1242676,           0.
    670,   122.630234,   59.9968338,           0.
    671,   122.635605,   64.7979126,           0.
    672,   122.643143,   69.6018753,           0.
    673,   118.313454,   23.5819054,           0.
    674,   122.660416,   74.4128876,           0.
    675,   122.714134,   79.2347641,           0.
    676,   122.990463,    88.870285,           0.
    677,    122.82589,   84.0617142,           0.
    678,   118.837601,   95.9514313,           0.
    679,   114.429962,   89.1372299,           0.
    680,   118.869171,   91.2455292,           0.
    681,   115.320869,   93.2824097,           0.
    682,   96.6213303,    50.409153,           0.
    683,   96.3913879,   6.41939545,           0.
    684,    84.170929,   107.311478,           0.
    685,   83.8318939,   111.911133,           0.
    686,   96.6213531,   36.0065498,           0.
    687,   96.6213379,   40.8074188,           0.
    688,   96.6213379,    45.608284,           0.
    689,   96.6213303,   55.2100258,           0.
    690,   96.6213303,   60.0108948,           0.
    691,   96.6213226,   64.8117676,           0.
    692,   96.6220932,   69.6129761,           0.
    693,   96.6255951,   74.4147186,           0.
    694,   96.6350937,   79.2170639,           0.
    695,   96.6478043,    84.014946,           0.
    696,   96.6402359,   88.7085114,           0.
    697,    92.253273,   99.8357773,           0.
    698,   96.5752716,   93.3201523,           0.
    699,    96.513092,   97.8199615,           0.
    700,   88.1392288,   102.815781,           0.
    701,   45.6101074,   111.020691,           0.
    702,   50.4111519,   111.020844,           0.
    703,   55.2126617,   111.022102,           0.
    704,    60.014698,   111.026268,           0.
    705,   64.8166428,   111.034477,           0.
    706,   69.6994247,   111.010315,           0.
    707,    74.808342,   110.943581,           0.
    708,   79.9085007,   111.142242,           0.
    709,   4.29090929,   12.0042248,           0.
    710,   4.22256041,   16.7821503,           0.
    711,   4.16814518,   21.5933056,           0.
    712,   4.15831757,   26.3945599,           0.
    713,   4.15655947,   31.1940384,           0.
    714,   4.15624857,   35.9932022,           0.
    715,   4.15619278,   40.7923126,           0.
    716,   4.15618324,   45.5914078,           0.
    717,   4.15618134,   50.3905029,           0.
    718,   4.15618134,   55.1896019,           0.
    719,   4.15618372,   59.9886971,           0.
    720,    4.1561904,   64.7877884,           0.
    721,   4.15620327,   69.5868835,           0.
    722,   4.15622187,   74.3859787,           0.
    723,   4.15624619,   79.1850739,           0.
    724,   4.15627384,    83.984169,           0.
    725,    4.1563096,   88.7832642,           0.
    726,   4.15635252,   93.5823593,           0.
    727,   4.19569111,   98.4078369,           0.
    728,   4.32648468,   103.407372,           0.
    729,    4.3390522,   108.653282,           0.
    730,   45.5904999,   4.15612221,           0.
    731,   40.7914925,   4.15611362,           0.
    732,    35.992485,   4.15610409,           0.
    733,   31.1934872,   4.15609264,           0.
    734,   26.3944893,   4.15608549,           0.
    735,   21.5973854,   4.15807581,           0.
    736,   16.7831554,   4.19438791,           0.
    737,   11.7892981,    4.3255291,           0.
    738,   6.53106403,   4.34292555,           0.
    739,   50.3894958,   4.15614223,           0.
    740,   14.2798557,    8.4394989,           0.
    741,   92.7705154,   3.82300782,           0.
    742,   43.1910019,   8.31228828,           0.
    743,   23.9917717,   8.31609154,           0.
    744,   59.9875069,   4.15615892,           0.
    745,   55.1885033,   4.15615749,           0.
    746,   28.7934475,   8.31285572,           0.
    747,   33.5928879,   8.31234074,           0.
    748,   38.3919716,   8.31228352,           0.
    749,   19.1341496,   8.34982109,           0.
    750,   8.31268787,   86.3836823,           0.
    751,   8.31253719,   76.7855072,           0.
    752,   8.31240463,   57.5891457,           0.
    753,   8.31244373,   67.1873245,           0.
    754,   8.31241131,   38.3927574,           0.
    755,   8.31239796,   47.9909554,           0.
    756,   8.34262371,   95.9733963,           0.
    757,   8.31293297,   28.7944508,           0.
    758,   8.30613518,   24.0179539,           0.
    759,   8.51695251,   19.1883659,           0.
    760,   3.94772983,   7.96556234,           0.
    761,   8.31256104,   33.5936279,           0.
    762,   8.62739182,   14.3253851,           0.
    763,   8.31240845,   43.1918602,           0.
    764,   8.31240654,   52.7900505,           0.
    765,   8.31242657,    62.388237,           0.
    766,   8.44306755,   100.809944,           0.
    767,   8.31776428,   91.1813507,           0.
    768,   8.31262016,   81.5845871,           0.
    769,   8.31249619,    71.986412,           0.
    770,   92.4646988,   67.2131119,           0.
    771,   92.4859085,   76.8246231,           0.
    772,   92.5061035,   86.3126831,           0.
    773,   96.6202927,    26.406889,           0.
    774,   96.6212006,   31.2060261,           0.
    775,   92.4637451,   43.2078629,           0.
    776,    96.533287,   16.7178726,           0.
    777,   92.4637451,   48.0087204,           0.
    778,   92.4637451,   52.8095894,           0.
    779,   92.4637375,   57.6104584,           0.
    780,   92.4637833,   38.4069939,           0.
    781,   92.4639359,   62.4115524,           0.
    782,   92.5067291,   81.6098785,           0.
    783,   92.4711685,   72.0180435,           0.
    784,   40.8090248,   111.020645,           0.
    785,   62.4245529,   106.884926,           0.
    786,   52.8132935,   106.865097,           0.
    787,   31.2068539,   111.020592,           0.
    788,   36.0079308,    111.02063,           0.
    789,   48.0112495,   106.863724,           0.
    790,   57.6184959,   106.871964,           0.
    791,   67.2923813,   106.879097,           0.
    792,   72.3968964,   106.774544,           0.
    793,   78.2187042,    105.97319,           0.
    794,   26.4057961,   111.020607,           0.
    795,   21.5911045,    110.93586,           0.
    796,   16.7771206,   110.823448,           0.
    797,   12.0102739,   110.827301,           0.
    798,   7.96375465,   111.226479,           0.
    799,   82.9030838,   101.250298,           0.
    800,   87.9556656,   98.0447006,           0.
    801,   9.09503269,   106.257454,           0.
    802,   8.83701515,   9.08565617,           0.
    803,   96.3731766,   11.6549368,           0.
    804,   91.6081314,   8.60750103,           0.
    805,   92.4349518,   90.9453583,           0.
    806,   52.7890244,   8.31235504,           0.
    807,    64.786499,   4.15617657,           0.
    808,   83.9667664,   4.08962679,           0.
    809,   88.7090454,   4.10867929,           0.
    810,    79.179184,   4.12052107,           0.
    811,   69.5853119,   4.15561962,           0.
    812,   57.5880356,   8.31239414,           0.
    813,   74.3835297,   4.14952803,           0.
    814,   26.3875179,   12.4709415,           0.
    815,   16.6169186,    12.447053,           0.
    816,   21.5045357,   12.4551668,           0.
    817,   31.1921978,   12.4689445,           0.
    818,   35.9922447,   12.4685459,           0.
    819,   40.7914505,   12.4685125,           0.
    820,   47.9900055,   8.31233501,           0.
    821,   12.4709902,   31.1949291,           0.
    822,    12.468667,   50.3905029,           0.
    823,   12.4720984,   26.4271564,           0.
    824,   12.4693823,    35.993454,           0.
    825,    12.468667,   45.5914078,           0.
    826,   12.4686823,   55.1895943,           0.
    827,   12.6503868,   21.7356987,           0.
    828,   12.4687872,    40.792347,           0.
    829,   12.4687004,    59.988678,           0.
    830,   13.4572258,   16.6393089,           0.
    831,   12.4687357,   64.7877579,           0.
    832,   12.4687977,   69.5868301,           0.
    833,   12.4688787,     74.38591,           0.
    834,   12.4689865,   79.1849899,           0.
    835,   12.4691248,   83.9840622,           0.
    836,   12.4602432,   93.5826187,           0.
    837,   12.4653149,   88.7850189,           0.
    838,   12.4348278,   98.3978271,           0.
    839,   43.2098198,   106.863251,           0.
    840,   92.4638138,   33.6061821,           0.
    841,   96.5926437,   21.5876255,           0.
    842,   88.3062515,   40.8074265,           0.
    843,    88.306221,   45.6082954,           0.
    844,   88.3062134,    50.409153,           0.
    845,   88.3061981,   55.2100143,           0.
    846,   88.3062744,   60.0110054,           0.
    847,   88.3121719,   69.6197586,           0.
    848,   88.3075867,   64.8135986,           0.
    849,   88.3308334,   74.4358444,           0.
    850,   92.4627533,   28.8088112,           0.
    851,   88.3628845,   79.2447968,           0.
    852,   14.3181829,   106.381927,           0.
    853,   28.8096352,   106.852135,           0.
    854,   33.6085091,   106.859436,           0.
    855,   24.0180607,   106.707603,           0.
    856,   19.1760292,   106.452438,           0.
    857,     55.22118,   102.713898,           0.
    858,   50.4146194,   102.708076,           0.
    859,   60.0354195,    102.72966,           0.
    860,   38.4088402,   106.862244,           0.
    861,   88.3881531,   83.9739761,           0.
    862,   69.7631683,   102.738647,           0.
    863,   64.8767929,   102.742485,           0.
    864,   12.1871471,   102.668716,           0.
    865,   12.3636818,   12.1873808,           0.
    866,    92.107048,   14.0788069,           0.
    867,   16.6272163,   101.541878,           0.
    868,   88.3193817,   88.6352692,           0.
    869,   92.3113785,   95.5450668,           0.
    870,     67.29599,   98.6233368,           0.
    871,   50.3895226,   12.4686184,           0.
    872,   67.1859131,   8.31219006,           0.
    873,   55.1885452,    12.468689,           0.
    874,   38.3919067,   16.6247292,           0.
    875,    33.592659,   16.6247501,           0.
    876,   28.7914352,   16.6254196,           0.
    877,   23.8317013,   16.6973171,           0.
    878,   76.7873383,   8.25380516,           0.
    879,   81.6070023,    8.1842165,           0.
    880,   71.9852905,   8.30134773,           0.
    881,   18.8175144,   16.6050625,           0.
    882,   16.5850124,   96.2054672,           0.
    883,   16.6250648,   62.3881912,           0.
    884,   16.6362896,   86.3991394,           0.
    885,   16.6253777,   76.7853546,           0.
    886,   16.6251411,   67.1872406,           0.
    887,   16.6252537,   71.9862976,           0.
    888,   16.6273251,   81.5870132,           0.
    889,   16.6249866,   47.9909477,           0.
    890,   16.6250095,   52.7900391,           0.
    891,   16.6249905,   43.1918488,           0.
    892,   16.6250401,    57.589119,           0.
    893,   16.6547375,   24.1443424,           0.
    894,   16.6250267,   38.3934898,           0.
    895,    16.610857,   28.8480072,           0.
    896,    16.620142,   33.6068459,           0.
    897,    16.723093,   91.3138962,           0.
    898,   62.3870087,   8.31239414,           0.
    899,   45.5904884,   12.4685698,           0.
    900,   45.6114998,   102.706291,           0.
    901,   88.3063431,   36.0065651,           0.
    902,   84.1487579,   57.6104813,           0.
    903,   84.1492996,   62.4124374,           0.
    904,   84.1487427,   48.0087357,           0.
    905,   84.1487427,   52.8095856,           0.
    906,   84.1487961,   43.2078629,           0.
    907,   84.1534119,   67.2208633,           0.
    908,   88.3051071,   31.2127056,           0.
    909,   52.8248596,   98.5545502,           0.
    910,   21.7359066,   102.363953,           0.
    911,   26.4521847,   102.582008,           0.
    912,   31.2196274,   102.674026,           0.
    913,   92.4338074,   24.0072975,           0.
    914,   36.0112114,   102.697922,           0.
    915,   40.8102417,   102.704132,           0.
    916,   84.1700439,   72.0439148,           0.
    917,   62.4701881,   98.5917892,           0.
    918,   57.6443329,   98.5693817,           0.
    919,   84.2033615,   76.8689804,           0.
    920,   84.2465134,   81.6422119,           0.
    921,   92.2033844,   19.0686913,           0.
    922,   88.3017578,   11.8794632,           0.
    923,   86.3896179,   8.17938232,           0.
    924,    88.187294,   93.2882156,           0.
    925,   88.1216431,   21.6776676,           0.
    926,   84.2207947,   86.2788086,           0.
    927,   72.1343384,   98.7643204,           0.
    928,   47.9899864,   16.6249199,           0.
    929,   64.7864761,   12.4687414,           0.
    930,   69.5854416,    12.466857,           0.
    931,   26.3001366,   20.8009796,           0.
    932,    35.984436,   20.7793655,           0.
    933,   21.0279274,   21.3294621,           0.
    934,   31.1286221,   20.7744427,           0.
    935,   52.7890205,   16.6250324,           0.
    936,   74.4242325,   12.4439249,           0.
    937,   79.3160629,   12.3818073,           0.
    938,   20.7881851,   83.9803619,           0.
    939,   21.3414879,    93.972229,           0.
    940,   20.8167057,   88.7401047,           0.
    941,   20.7815228,   64.7876587,           0.
    942,   20.7816429,   69.5866852,           0.
    943,   20.7814636,   59.9886208,           0.
    944,   20.7815552,   74.3852386,           0.
    945,    20.781498,    79.181221,           0.
    946,   20.8334618,   26.4888039,           0.
    947,   20.8809319,   31.2712898,           0.
    948,   20.7814236,   55.1895599,           0.
    949,   20.7813873,   50.3904762,           0.
    950,   16.5215588,   20.0907745,           0.
    951,   20.7813473,   45.5913734,           0.
    952,   20.7806149,   40.7981224,           0.
    953,   20.7951279,   36.0448112,           0.
    954,   43.1909409,   16.6248322,           0.
    955,   59.9875259,   12.4687481,           0.
    956,   48.0164223,   98.5498581,           0.
    957,   84.1488953,   38.4069824,           0.
    958,    79.991684,   60.0117149,           0.
    959,   88.2727509,   26.4534092,           0.
    960,   79.9914017,   55.2101669,           0.
    961,   79.9913559,   50.4091949,           0.
    962,   79.9946136,    64.820015,           0.
    963,    79.991394,   45.6082993,           0.
    964,   84.1491547,   33.6128082,           0.
    965,   24.1552181,   98.3316727,           0.
    966,   28.8719177,   98.3862076,           0.
    967,   33.6351051,   98.4561081,           0.
    968,   38.4166412,   98.5214844,           0.
    969,   43.2134171,   98.5423965,           0.
    970,   80.0076218,    69.646637,           0.
    971,   55.2505074,   94.4053574,           0.
    972,    64.896225,   94.5047302,           0.
    973,   60.0778351,     94.43573,           0.
    974,    80.035141,   74.4815369,           0.
    975,   80.0784302,   79.2866974,           0.
    976,   87.3079681,   16.4893055,           0.
    977,   84.1450729,   12.2671051,           0.
    978,   83.7685013,    95.657135,           0.
    979,   84.2499084,    20.028923,           0.
    980,   84.0862198,   90.8634949,           0.
    981,   74.5303497,   102.494652,           0.
    982,   69.8396378,   94.4910049,           0.
    983,   84.0833511,   24.1365223,           0.
    984,   62.3869705,   16.6252327,           0.
    985,   45.5904083,   20.7812405,           0.
    986,   28.6449509,   24.7950191,           0.
    987,   67.1858902,   16.6250019,           0.
    988,   33.5055389,    24.868124,           0.
    989,   72.0269165,   16.6474495,           0.
    990,   50.3894501,   20.7814026,           0.
    991,   24.4765377,   90.4622879,           0.
    992,    24.782999,   86.3063889,           0.
    993,    76.970047,    16.687521,           0.
    994,    24.938076,   67.1870804,           0.
    995,   24.9379768,   62.3880806,           0.
    996,   24.8677635,   81.5468216,           0.
    997,   24.9367924,   71.9848099,           0.
    998,   25.6383247,   28.8388443,           0.
    999,   24.9183464,   76.7735367,           0.
   1000,   24.9379101,   57.5890503,           0.
   1001,   24.9378529,   52.7899857,           0.
   1002,   24.9377899,   47.9908867,           0.
   1003,   25.0171261,   33.8159142,           0.
   1004,   24.9359226,    43.202549,           0.
   1005,   24.9436016,   38.4685287,           0.
   1006,   40.7889252,   20.7806091,           0.
   1007,   57.5880089,   16.6251488,           0.
   1008,   80.0935287,   83.9760132,           0.
   1009,   20.0889683,   98.4830399,           0.
   1010,   84.1332092,   28.8564034,           0.
   1011,   79.9915009,   40.8074074,           0.
   1012,   75.8342667,   57.6111412,           0.
   1013,   75.8340607,   52.8097649,           0.
   1014,   75.8362579,   62.4182968,           0.
   1015,   75.8340607,   48.0087624,           0.
   1016,   26.4912243,   94.0773468,           0.
   1017,   31.2719364,   94.0615158,           0.
   1018,   79.9951172,   36.0349426,           0.
   1019,   36.0608902,     94.24646,           0.
   1020,   40.8271828,   94.3481369,           0.
   1021,   50.4293823,   94.3942947,           0.
   1022,   45.6207886,   94.3810196,           0.
   1023,   75.8455734,   67.2443771,           0.
   1024,   57.6852493,    90.260643,           0.
   1025,   75.8646393,   72.0814514,           0.
   1026,   62.5046196,   90.3876343,           0.
   1027,   75.8905258,    76.911499,           0.
   1028,   80.1714325,   88.4883194,           0.
   1029,   79.7001419,   21.3143101,           0.
   1030,   81.9481964,    16.528162,           0.
   1031,   75.9643631,   99.0041809,           0.
   1032,   75.1787033,   94.7015381,           0.
   1033,   67.2154083,   90.3974762,           0.
   1034,   59.9874153,   20.7817249,           0.
   1035,    43.189045,   24.9372082,           0.
   1036,    64.790062,   20.7799282,           0.
   1037,   30.9731464,   28.8795223,           0.
   1038,    28.929142,    84.062973,           0.
   1039,   47.9895058,   24.9377136,           0.
   1040,   69.6209946,   20.7837963,           0.
   1041,   74.4491119,    20.799099,           0.
   1042,   29.0945702,   64.7874832,           0.
   1043,   29.0931301,   69.5854034,           0.
   1044,   29.1424007,   79.2573395,           0.
   1045,   29.1106472,   74.4042664,           0.
   1046,   29.0944767,   59.9885025,           0.
   1047,   29.0943947,   55.1894684,           0.
   1048,   29.0943089,   50.3903809,           0.
   1049,   29.0923214,   45.5984802,           0.
   1050,   29.0578785,   36.2191582,           0.
   1051,   29.0787754,   40.8624802,           0.
   1052,   24.4889603,   24.4506226,           0.
   1053,   38.3668404,   24.9189262,           0.
   1054,   55.1884499,   20.7815742,           0.
   1055,   79.8658447,   31.2825031,           0.
   1056,   75.8341522,   43.2078438,           0.
   1057,    71.676918,   55.2106514,           0.
   1058,    71.676796,   50.4093323,           0.
   1059,   33.8826256,   89.9990158,           0.
   1060,   71.6782608,   60.0164185,           0.
   1061,   75.8327026,   38.4598122,           0.
   1062,   38.5739059,   90.1844788,           0.
   1063,   43.2964859,   90.2387085,           0.
   1064,   79.8511658,   26.4986343,           0.
   1065,   71.6846161,   64.8392563,           0.
   1066,    48.050457,   90.2371521,           0.
   1067,   52.8577766,   90.2440109,           0.
   1068,   75.9851913,   81.7542725,           0.
   1069,    71.696846,   69.6739502,           0.
   1070,   60.1978607,   86.1607361,           0.
   1071,   71.5192719,   74.5998917,           0.
   1072,   79.8923721,   92.9571152,           0.
   1073,   76.2156525,   86.4849854,           0.
   1074,   78.2165222,   101.259949,           0.
   1075,   72.3130875,   89.6931152,           0.
   1076,   57.5878143,   24.9382248,           0.
   1077,   40.7929344,   29.0709419,           0.
   1078,   62.3947144,    24.929657,           0.
   1079,   33.7369461,   81.8514099,           0.
   1080,   28.8787365,   89.3103561,           0.
   1081,   45.5924835,   29.0880299,           0.
   1082,   33.2495995,   67.1832581,           0.
   1083,   33.2584381,   71.9777069,           0.
   1084,   33.2908249,   76.7171478,           0.
   1085,   33.2506714,    62.386837,           0.
   1086,    72.049324,   24.7971363,           0.
   1087,   67.2260361,   24.8695183,           0.
   1088,   33.2509346,   57.5887337,           0.
   1089,    28.797533,   32.2573395,           0.
   1090,   33.2508888,   52.7898178,           0.
   1091,   33.2501945,   47.9928284,           0.
   1092,   33.1976776,   43.2178116,           0.
   1093,    33.052803,   38.5473404,           0.
   1094,   35.9009285,   29.0754261,           0.
   1095,   52.7887764,   24.9379978,           0.
   1096,   75.7223434,   33.8433151,           0.
   1097,   71.6768494,   45.6083298,           0.
   1098,   67.5196838,   52.8104591,           0.
   1099,   36.4215546,   86.0677414,           0.
   1100,   67.5206528,   57.6154213,           0.
   1101,   71.6841965,   40.8591042,           0.
   1102,   41.0802078,   86.0774231,           0.
   1103,   45.7603302,    86.076889,           0.
   1104,   67.5247269,   62.4332123,           0.
   1105,    75.052681,   28.8601608,           0.
   1106,   79.3205948,   97.4717026,           0.
   1107,   64.9650726,   86.4203568,           0.
   1108,   55.3107376,   86.0992661,           0.
   1109,   71.6541595,   79.6826935,           0.
   1110,   67.5322876,   67.2623672,           0.
   1111,   50.4927406,   86.0838089,           0.
   1112,   67.3365173,   72.0762711,           0.
   1113,   76.2204819,   24.4538689,           0.
   1114,   76.7542496,   90.4650116,           0.
   1115,   72.1752548,   84.5537491,           0.
   1116,   37.4075394,   55.1892242,           0.
   1117,   33.2522011,   33.5486526,           0.
   1118,   59.9706879,   29.0677013,           0.
   1119,   37.0217667,   78.3996735,           0.
   1120,   63.0337486,   82.0745697,           0.
   1121,   32.3698006,   86.2583008,           0.
   1122,   63.2632408,   69.6602402,           0.
   1123,   38.3545113,   33.1729622,           0.
   1124,   69.7421112,   28.8873234,           0.
   1125,   63.3511238,   64.8464127,           0.
   1126,   37.4376984,    74.273819,           0.
   1127,   55.1854019,   29.0901737,           0.
   1128,   67.5564728,    43.156189,           0.
   1129,   50.3893661,   29.0923309,           0.
   1130,   43.6546555,   81.9303436,           0.
   1131,   63.3625031,   60.0273476,           0.
   1132,   63.3626747,   55.2154388,           0.
   1133,   37.4072762,   50.3906555,           0.
   1134,   37.4756546,   45.4495697,           0.
   1135,   37.1625366,   40.6087723,           0.
   1136,   43.0971298,   33.2570229,           0.
   1137,    71.692276,   36.2398949,           0.
   1138,   67.5124283,   47.9678993,           0.
   1139,   37.4073563,   59.9874191,           0.
   1140,   64.8298721,   29.0657215,           0.
   1141,   37.4673195,   69.5349197,           0.
   1142,   37.4170494,   64.7770615,           0.
   1143,   52.9812584,   81.8816605,           0.
   1144,   48.2768364,   82.0175934,           0.
   1145,   66.5498428,   77.5295868,           0.
   1146,   58.0109482,    81.884964,           0.
   1147,   40.4653931,   37.2650871,           0.
   1148,   41.7464371,   77.2366867,           0.
   1149,   41.5786705,    67.142395,           0.
   1150,    41.771534,   71.8911209,           0.
   1151,   57.6332245,   33.2058563,           0.
   1152,   62.3609428,    33.119812,           0.
   1153,   41.5716209,   62.4394684,           0.
   1154,   52.8393936,   33.2517128,           0.
   1155,   67.4729233,   33.5327377,           0.
   1156,   41.5659828,    57.607296,           0.
   1157,   41.5644798,   52.7944794,           0.
   1158,   41.6538925,   47.9023857,           0.
   1159,   42.1911659,   42.4238243,           0.
   1160,   47.9557991,   33.2737007,           0.
   1161,   63.3323402,    50.333519,           0.
   1162,   67.6904068,   38.4904709,           0.
   1163,   63.2629395,   45.3292389,           0.
   1164,   38.9435959,   81.9272079,           0.
   1165,   46.2349167,   78.5734787,           0.
   1166,   59.1044044,   57.6222763,           0.
   1167,   67.8819122,   82.8478851,           0.
   1168,   60.9019089,   77.5819397,           0.
   1169,   59.0783272,   62.4954338,           0.
   1170,   63.3400574,   73.9150314,           0.
   1171,   50.5078812,   77.8945541,           0.
   1172,   59.0297737,   67.3912659,           0.
   1173,   55.6525688,   77.5775452,           0.
   1174,    36.457489,   36.6285629,           0.
   1175,   45.2368736,   69.2948532,           0.
   1176,    45.725029,   65.0123367,           0.
   1177,   60.2712936,   37.1937256,           0.
   1178,   55.4137154,   37.5720215,           0.
   1179,   50.3551674,   37.6542168,           0.
   1180,   64.2747574,   36.5696907,           0.
   1181,   45.8223381,   60.1084099,           0.
   1182,   45.8579483,   55.2296638,           0.
   1183,   45.8551178,    50.312149,           0.
   1184,   45.5413322,   45.9736938,           0.
   1185,   45.2951279,   37.6705322,           0.
   1186,     71.93647,    32.272686,           0.
   1187,    63.590374,   40.4939423,           0.
   1188,   59.0783691,   52.7324524,           0.
   1189,    59.007782,   47.7880974,           0.
   1190,   54.6724548,   60.1549911,           0.
   1191,   58.5945091,   72.7204285,           0.
   1192,   46.9222603,   73.8305817,           0.
   1193,   68.9101486,   86.7825165,           0.
   1194,   54.6881752,   65.1034393,           0.
   1195,   52.8133545,   73.3122253,           0.
   1196,   50.0915222,   68.3862915,           0.
   1197,   58.4962425,   42.3439255,           0.
   1198,   50.2006569,   62.7383995,           0.
   1199,   47.7514877,   42.1573334,           0.
   1200,   52.9031334,    42.116291,           0.
   1201,   50.2662048,   57.7108498,           0.
   1202,   50.3064384,   52.6291847,           0.
   1203,   50.3205948,   47.0425301,           0.
   1204,   54.7021141,   55.1782188,           0.
   1205,   54.7528534,   50.2099953,           0.
   1206,   55.0434647,   69.3827286,           0.
   1207,   55.0961227,   45.9001656,           0.
*Element, type=S3
  1, 197,  14,  15
  2, 198,  14, 197
  3, 206,  20,  21
  4, 201, 200,  22
  5, 201,   3,  23
  6, 215,  31, 214
  7, 221, 217,  41
  8, 237, 199, 206
  9, 239, 229, 211
 10, 205, 204,  18
 11, 253, 205, 199
 12, 205,   2,  19
 13, 206,  21, 200
 14,  27,   4,  28
 15, 207,  27,  28
 16, 216,  30, 215
 17, 209,  25, 208
 18, 210,  24, 209
 19,  37,  36,   5
 20, 220,  36,  37
 21, 230,  36, 220
 22, 212,  34, 211
 23, 231, 212, 229
 24, 228, 214, 213
 25, 214,  32, 213
 26, 240, 226, 208
 27, 252,  28,  29
 28,  44,   1,  13
 29, 250, 234, 235
 30, 224,  44,  13
 31, 234, 224, 198
 32, 221,  41,  42
 33, 218,  40, 217
 34, 219,  39, 218
 35, 239, 230, 220
 36, 202,  15,  16
 37, 247, 242, 243
 38, 224,  13, 198
 39, 198,  13,  14
 40, 203, 202,  16
 41, 199,  19,  20
 42, 200,  21,  22
 43, 262, 254, 246
 44, 201,  22,   3
 45, 210,  23,  24
 46, 202, 197,  15
 47, 203,  16,  17
 48, 204, 203,  17
 49, 256, 251, 236
 50, 204,  17,  18
 51, 253, 245, 204
 52, 205,  18,   2
 53, 205,  19, 199
 54, 213,  33, 212
 55, 206, 199,  20
 56, 208,  26, 207
 57, 207,  26,  27
 58, 252, 240, 207
 59, 208,  25,  26
 60, 227, 209, 226
 61, 209,  24,  25
 62, 210, 200, 201
 63, 210, 201,  23
 64, 211,  34,  35
 65, 222, 218, 217
 66, 236, 235, 202
 67, 212,  33,  34
 68, 269, 265, 263
 69, 213,  32,  33
 70, 232, 214, 228
 71, 214,  31,  32
 72, 233, 216, 215
 73, 215,  30,  31
 74, 252, 216, 240
 75, 216,  29,  30
 76, 217,  40,  41
 77, 244, 217, 221
 78, 223, 218, 222
 79, 218,  39,  40
 80, 239, 220, 219
 81, 219,  38,  39
 82, 220,  37,  38
 83, 220,  38, 219
 84, 225,  42,  43
 85, 234, 225, 224
 86, 235, 234, 197
 87, 247, 229, 242
 88, 242, 239, 223
 89, 223, 219, 218
 90, 224,  43,  44
 91, 234, 198, 197
 92, 225, 221,  42
 93, 225,  43, 224
 94, 227, 210, 209
 95, 226, 209, 208
 96, 238, 200, 227
 97, 227, 200, 210
 98, 231, 213, 212
 99, 267, 261, 237
100, 229, 212, 211
101, 243, 223, 222
102, 230, 211,  35
103, 230,  35,  36
104, 259, 257, 249
105, 231, 228, 213
106, 246, 233, 232
107, 232, 215, 214
108, 254, 240, 233
109, 233, 215, 232
110, 241, 225, 234
111, 235, 197, 202
112, 236, 202, 203
113, 260, 241, 250
114, 245, 203, 204
115, 249, 231, 247
116, 238, 237, 206
117, 258, 248, 257
118, 238, 206, 200
119, 268, 262, 258
120, 239, 211, 230
121, 239, 219, 223
122, 240, 208, 207
123, 240, 216, 233
124, 250, 241, 234
125, 241, 221, 225
126, 242, 229, 239
127, 243, 242, 223
128, 255, 222, 244
129, 251, 250, 235
130, 244, 222, 217
131, 244, 221, 241
132, 245, 236, 203
133, 253, 204, 205
134, 262, 226, 254
135, 248, 232, 228
136, 269, 264, 265
137, 247, 231, 229
138, 248, 246, 232
139, 249, 248, 228
140, 249, 228, 231
141, 270, 247, 243
142, 251, 235, 236
143, 260, 255, 244
144, 256, 236, 245
145, 270, 265, 259
146, 252, 207,  28
147, 252,  29, 216
148, 253, 199, 237
149, 261, 253, 237
150, 254, 226, 240
151, 254, 233, 246
152, 255, 243, 222
153, 266, 251, 263
154, 261, 245, 253
155, 268, 264, 267
156, 257, 248, 249
157, 259, 249, 247
158, 271, 262, 268
159, 258, 246, 248
160, 270, 243, 255
161, 266, 260, 251
162, 260, 244, 241
163, 260, 250, 251
164, 261, 256, 245
165, 269, 267, 264
166, 262, 227, 226
167, 262, 246, 258
168, 263, 251, 256
169, 269, 256, 261
170, 264, 258, 257
171, 265, 264, 257
172, 265, 257, 259
173, 270, 266, 265
174, 266, 255, 260
175, 266, 263, 265
176, 267, 237, 238
177, 268, 267, 238
178, 271, 268, 238
179, 268, 258, 264
180, 269, 263, 256
181, 269, 261, 267
182, 270, 259, 247
183, 270, 255, 266
184, 271, 238, 227
185, 271, 227, 262
186, 319,   2,  18
187, 274, 273,  93
188, 433, 432, 401
189, 297, 296,  77
190, 345, 344, 297
191, 478, 402, 432
192,  13,   1,  45
193, 293,  45,  46
194, 320, 291, 290
195, 355, 316,  15
196, 355,  15,  14
197, 318,  18,  17
198,  64,   6,  65
199, 282,  64,  65
200, 313,  67, 312
201, 283,  62,  63
202, 284,  61,  62
203, 285,  60,  61
204, 389, 344, 387
205, 339, 300, 296
206, 336,  74,  75
207, 328, 285, 325
208, 302, 298,  80
209, 303,  82, 299
210, 385, 337, 381
211, 305, 304,  85
212, 332, 281, 276
213, 289,  50, 288
214, 290,  49, 289
215, 291,  48, 290
216, 292,  47, 291
217, 293,  46, 292
218,  74,  73,   7
219, 336, 315,  73
220, 300,  76, 296
221, 315, 314,  72
222, 396, 314, 353
223, 350,  70,  71
224, 351, 311, 310
225, 354, 352, 312
226, 397,  65,  66
227, 386, 346, 383
228, 415, 386, 414
229, 371, 367, 322
230, 410, 367, 406
231, 299,  83, 294
232, 279,  55, 275
233, 331, 279, 321
234, 381, 348, 380
235, 305,  86, 295
236, 281,  52, 276
237, 348, 305, 338
238, 332, 276, 323
239, 342, 338, 295
240, 309, 308,  90
241, 272,  91,  92
242, 399, 309, 272
243, 309,   8,  91
244, 273,  92,  93
245, 307, 306,  88
246, 273, 272,  92
247, 274,  93,  94
248, 288,  51, 281
249, 319, 318, 274
250, 317,  16, 316
251, 275,  55,  56
252, 278,  56,  57
253, 276,  52,  53
254, 280,  53,  54
255, 277,  57,  58
256, 287,  58,  59
257, 278, 275,  56
258, 278,  57, 277
259, 279,  54,  55
260, 343, 294, 337
261, 280, 276,  53
262, 280,  54, 279
263, 306, 295,  87
264, 281,  51,  52
265, 283,  63, 282
266, 282,  63,  64
267, 312,  68, 311
268, 284,  62, 283
269, 311,  69, 310
270, 285,  61, 284
271, 301,  79, 298
272, 286,  60, 285
273, 287,  59, 286
274, 286,  59,  60
275, 446, 442, 414
276, 287, 277,  58
277, 324, 289, 288
278, 288,  50,  51
279, 398, 364, 379
280, 289,  49,  50
281, 393, 355, 361
282, 290,  48,  49
283, 335, 291, 320
284, 291,  47,  48
285, 361, 292, 335
286, 292,  46,  47
287, 356,  13, 293
288, 293,  13,  45
289, 294,  83,  84
290, 304,  84,  85
291, 295,  86,  87
292, 306,  87,  88
293, 296,  76,  77
294, 297,  77,  78
295, 301,  78,  79
296, 345, 301, 340
297, 298,  79,  80
298, 302,  80,  81
299, 367, 365, 333
300, 299,  82,  83
301, 353, 336, 300
302, 300,  75,  76
303, 375, 372, 328
304, 301, 297,  78
305, 303, 302,  81
306, 464, 461, 437
307, 303,  81,  82
308, 384, 382, 347
309, 304, 294,  84
310, 305,  85,  86
311, 329, 324, 288
312, 419, 417, 385
313, 307,  88,  89
314, 349, 342, 306
315, 308, 307,  89
316, 360, 272, 273
317, 308,  89,  90
318, 399, 363, 308
319, 309,  90,   8
320, 309,  91, 272
321, 327, 325, 284
322, 310,  69,  70
323, 397, 362, 282
324, 311,  68,  69
325, 354, 311, 351
326, 312,  67,  68
327, 397, 313, 362
328, 313,  66,  67
329, 314,  71,  72
330, 428, 339, 389
331, 315,  72,  73
332, 336,  73,  74
333, 398, 393, 364
334, 316,  16,  15
335, 358, 317, 357
336, 317,  17,  16
337, 319, 274,  94
338, 318,  17, 317
339, 319,  94,   2
340, 319,  18, 318
341, 334, 290, 289
342, 378, 334, 370
343, 321, 279, 275
344, 333, 275, 278
345, 322, 278, 277
346, 330, 277, 287
347, 323, 276, 280
348, 331, 323, 280
349, 329, 288, 281
350, 402, 378, 401
351, 325, 285, 284
352, 327, 284, 283
353, 326, 287, 286
354, 328, 326, 286
355, 362, 327, 283
356, 352, 313, 312
357, 328, 286, 285
358, 470, 438, 456
359, 332, 329, 281
360, 391, 390, 342
361, 330, 322, 277
362, 330, 287, 326
363, 331, 280, 279
364, 368, 321, 365
365, 369, 323, 366
366, 374, 332, 369
367, 333, 321, 275
368, 333, 278, 322
369, 334, 320, 290
370, 334, 289, 324
371, 393, 361, 364
372, 335, 292, 291
373, 336,  75, 300
374, 353, 300, 339
375, 337, 294, 304
376, 348, 304, 305
377, 338, 305, 295
378, 342, 295, 306
379, 430, 396, 428
380, 344, 296, 297
381, 340, 301, 298
382, 346, 298, 302
383, 341, 302, 303
384, 347, 303, 299
385, 349, 306, 307
386, 422, 403, 377
387, 343, 299, 294
388, 419, 381, 416
389, 344, 339, 296
390, 345, 297, 301
391, 388, 340, 386
392, 463, 440, 436
393, 346, 340, 298
394, 346, 302, 341
395, 347, 341, 303
396, 347, 299, 343
397, 412, 366, 411
398, 348, 337, 304
399, 363, 307, 308
400, 403, 401, 370
401, 350, 310,  70
402, 350,  71, 314
403, 376, 375, 325
404, 392, 310, 350
405, 426, 362, 352
406, 354, 312, 311
407, 353, 314, 315
408, 353, 315, 336
409, 404, 389, 387
410, 394, 354, 351
411, 356, 355,  14
412, 361, 356, 293
413, 356,  14,  13
414, 361, 293, 292
415, 358, 318, 317
416, 357, 317, 316
417, 359, 274, 358
418, 358, 274, 318
419, 403, 370, 377
420, 359, 273, 274
421, 400, 391, 349
422, 475, 273, 359
423, 364, 361, 335
424, 361, 355, 356
425, 362, 283, 282
426, 362, 313, 352
427, 363, 349, 307
428, 399, 308, 309
429, 379, 335, 320
430, 401, 378, 370
431, 365, 321, 333
432, 367, 333, 322
433, 366, 323, 331
434, 368, 366, 331
435, 371, 322, 330
436, 418, 384, 417
437, 368, 331, 321
438, 444, 410, 439
439, 390, 380, 338
440, 369, 332, 323
441, 370, 334, 324
442, 377, 324, 329
443, 373, 330, 326
444, 383, 341, 382
445, 372, 326, 328
446, 375, 328, 325
447, 373, 371, 330
448, 373, 326, 372
449, 374, 329, 332
450, 423, 369, 412
451, 376, 325, 327
452, 429, 408, 395
453, 426, 376, 327
454, 395, 352, 354
455, 377, 370, 324
456, 377, 329, 374
457, 432, 402, 401
458, 378, 320, 334
459, 379, 364, 335
460, 379, 320, 378
461, 380, 348, 338
462, 390, 338, 342
463, 411, 368, 409
464, 381, 337, 348
465, 382, 341, 347
466, 384, 347, 343
467, 407, 406, 371
468, 383, 346, 341
469, 385, 384, 343
470, 467, 439, 461
471, 385, 343, 337
472, 445, 409, 444
473, 413, 372, 405
474, 386, 340, 346
475, 387, 344, 345
476, 388, 387, 345
477, 388, 345, 340
478, 464, 441, 462
479, 470, 430, 404
480, 389, 339, 344
481, 391, 342, 349
482, 423, 422, 374
483, 400, 349, 363
484, 435, 433, 403
485, 392, 351, 310
486, 396, 392, 350
487, 393, 357, 316
488, 393, 316, 355
489, 408, 405, 375
490, 427, 351, 392
491, 426, 395, 376
492, 395, 354, 394
493, 396, 350, 314
494, 428, 396, 353
495, 397, 282,  65
496, 397,  66, 313
497, 479, 477, 358
498, 398, 357, 393
499, 399, 272, 360
500, 431, 400, 363
501, 431, 363, 399
502, 473, 460, 457
503, 433, 401, 403
504, 478, 476, 477
505, 402, 398, 379
506, 402, 379, 378
507, 422, 377, 374
508, 474, 460, 473
509, 421, 387, 388
510, 436, 408, 429
511, 405, 372, 375
512, 408, 375, 376
513, 406, 367, 371
514, 407, 371, 373
515, 413, 407, 373
516, 463, 443, 462
517, 408, 376, 395
518, 429, 395, 394
519, 409, 368, 365
520, 410, 409, 365
521, 410, 365, 367
522, 447, 446, 420
523, 451, 411, 445
524, 411, 366, 368
525, 425, 390, 424
526, 412, 369, 366
527, 413, 373, 372
528, 462, 443, 442
529, 414, 386, 383
530, 420, 383, 382
531, 440, 405, 436
532, 415, 388, 386
533, 416, 381, 380
534, 425, 380, 390
535, 417, 384, 385
536, 419, 385, 381
537, 439, 406, 437
538, 418, 382, 384
539, 469, 449, 450
540, 450, 449, 419
541, 420, 414, 383
542, 420, 382, 418
543, 421, 404, 387
544, 421, 388, 415
545, 423, 374, 369
546, 452, 435, 422
547, 453, 412, 451
548, 471, 466, 452
549, 424, 390, 391
550, 434, 391, 400
551, 472, 471, 453
552, 425, 416, 380
553, 426, 327, 362
554, 426, 352, 395
555, 427, 394, 351
556, 430, 428, 389
557, 428, 353, 339
558, 430, 389, 404
559, 456, 394, 427
560, 463, 456, 438
561, 430, 427, 392
562, 430, 392, 396
563, 431, 399, 360
564, 477, 473, 475
565, 476, 458, 473
566, 479, 478, 477
567, 435, 403, 422
568, 459, 458, 433
569, 434, 424, 391
570, 460, 431, 457
571, 452, 422, 423
572, 466, 465, 459
573, 456, 436, 429
574, 436, 405, 408
575, 437, 406, 407
576, 441, 407, 413
577, 438, 404, 421
578, 443, 421, 415
579, 448, 447, 418
580, 439, 410, 406
581, 462, 441, 440
582, 440, 413, 405
583, 441, 437, 407
584, 441, 413, 440
585, 442, 415, 414
586, 446, 414, 420
587, 443, 438, 421
588, 443, 415, 442
589, 468, 444, 467
590, 444, 409, 410
591, 449, 448, 417
592, 445, 411, 409
593, 447, 420, 418
594, 464, 446, 461
595, 448, 418, 417
596, 467, 461, 447
597, 449, 417, 419
598, 468, 467, 448
599, 450, 419, 416
600, 469, 468, 449
601, 454, 416, 425
602, 453, 452, 423
603, 451, 412, 411
604, 469, 451, 445
605, 453, 423, 412
606, 455, 454, 425
607, 472, 451, 469
608, 472, 454, 471
609, 454, 450, 416
610, 455, 425, 424
611, 474, 465, 434
612, 471, 455, 466
613, 456, 429, 394
614, 470, 456, 427
615, 457, 431, 360
616, 475, 360, 273
617, 458, 432, 433
618, 459, 433, 435
619, 466, 459, 435
620, 474, 459, 465
621, 460, 434, 400
622, 460, 400, 431
623, 461, 439, 437
624, 461, 446, 447
625, 464, 462, 442
626, 463, 462, 440
627, 463, 436, 456
628, 463, 438, 443
629, 464, 437, 441
630, 464, 442, 446
631, 465, 455, 424
632, 465, 424, 434
633, 466, 435, 452
634, 466, 455, 465
635, 467, 444, 439
636, 467, 447, 448
637, 468, 445, 444
638, 468, 448, 449
639, 469, 445, 468
640, 472, 469, 450
641, 470, 427, 430
642, 470, 404, 438
643, 471, 452, 453
644, 471, 454, 455
645, 472, 453, 451
646, 472, 450, 454
647, 475, 473, 457
648, 474, 473, 458
649, 474, 434, 460
650, 474, 458, 459
651, 475, 457, 360
652, 477, 475, 359
653, 477, 476, 473
654, 476, 432, 458
655, 477, 359, 358
656, 479, 358, 357
657, 478, 398, 402
658, 478, 432, 476
659, 479, 357, 398
660, 479, 398, 478
 661, 509,   9,  95
 662, 551, 545, 503
 663, 570, 521, 557
 664, 534, 488, 145
 665, 489, 144, 488
 666, 482, 481, 148
 667, 114,  10, 115
 668, 486, 115, 116
 669, 614, 601, 555
 670, 588, 586, 536
 671, 555, 511, 111
 672, 598, 483, 530
 673, 512, 110, 511
 674, 513, 109, 512
 675, 525, 514, 107
 676, 583, 581, 547
 677, 561, 515, 560
 678, 566, 517, 565
 679, 551, 502, 541
 680, 592, 591, 541
 681, 571, 519, 556
 682, 595, 593, 542
 683, 679, 558, 615
 684, 552, 496, 540
 685, 522,  98, 521
 686, 524,  96, 523
 687, 532,  11, 123
 688, 532, 122,  11
 689, 530, 121, 487
 690, 530, 120, 121
 691, 484, 119, 483
 692, 531, 118, 484
 693, 485, 116, 117
 694, 486, 116, 485
 695, 534,   4,  27
 696, 534, 145,   4
 697, 577, 535, 488
 698, 495, 143, 489
 699, 546, 489, 535
 700, 497, 141, 496
 701, 498, 140, 497
 702, 499, 139, 498
 703, 500, 138, 499
 704, 501, 137, 500
 705, 502, 136, 501
 706, 503, 135, 502
 707, 504, 134, 503
 708, 505, 133, 504
 709, 506, 132, 505
 710, 507, 131, 506
 711, 603, 602, 560
 712, 490, 128, 129
 713, 491, 128, 490
 714, 492, 127, 491
 715, 493, 126, 492
 716, 536, 493, 492
 717, 532, 487, 122
 718, 527,  26,  25
 719, 528, 527,  25
 720, 529,  23, 526
 721, 529, 528,  24
 722, 526,   3, 146
 723, 481, 480, 147
 724, 480, 146, 147
 725, 481, 147, 148
 726, 482, 148, 149
 727, 496, 142, 495
 728, 509, 482, 149
 729, 523,  97, 522
 730, 555, 111, 112
 731, 483, 119, 120
 732, 655, 654, 614
 733, 484, 118, 119
 734, 562, 555, 112
 735, 531, 117, 118
 736, 563, 114, 486
 737, 486, 114, 115
 738, 487, 121, 122
 739, 494, 125, 493
 740, 488, 144, 145
 741, 577, 534,  26
 742, 658, 617, 579
 743, 489, 143, 144
 744, 508, 129, 130
 745, 537, 536, 492
 746, 538, 537, 491
 747, 491, 127, 128
 748, 622, 487, 578
 749, 492, 126, 127
 750, 635, 598, 622
 751, 493, 125, 126
 752, 578, 532, 124
 753, 494, 124, 125
 754, 540, 496, 495
 755, 495, 142, 143
 756, 572, 524, 523
 757, 496, 141, 142
 758, 521,  99, 520
 759, 497, 140, 141
 760, 520, 100, 519
 761, 498, 139, 140
 762, 519, 101, 518
 763, 499, 138, 139
 764, 518, 102, 510
 765, 500, 137, 138
 766, 568, 510, 566
 767, 501, 136, 137
 768, 516, 104, 105
 769, 502, 135, 136
 770, 516, 105, 515
 771, 503, 134, 135
 772, 515, 106, 514
 773, 504, 133, 134
 774, 550, 505, 504
 775, 505, 132, 133
 776, 525, 108, 513
 777, 506, 131, 132
 778, 508, 130, 507
 779, 507, 130, 131
 780, 549, 507, 547
 781, 508, 490, 129
 782, 509, 149,   9
 783, 524,  95,  96
 784, 510, 102, 103
 785, 517, 103, 104
 786, 511, 110, 111
 787, 655, 619, 654
 788, 564, 512, 559
 789, 512, 109, 110
 790, 544, 538, 490
 791, 513, 108, 109
 792, 514, 106, 107
 793, 525, 107, 108
 794, 550, 504, 545
 795, 515, 105, 106
 796, 548, 547, 506
 797, 517, 104, 516
 798, 565, 516, 561
 799, 517, 510, 103
 800, 553, 500, 542
 801, 518, 101, 102
 802, 593, 592, 553
 803, 519, 100, 101
 804, 554, 498, 543
 805, 520,  99, 100
 806, 596, 595, 554
 807, 521,  98,  99
 808, 651, 650, 596
 809, 522,  97,  98
 810, 572, 523, 558
 811, 523,  96,  97
 812, 524, 482, 509
 813, 524, 509,  95
 814, 567, 513, 564
 815, 567, 525, 513
 816, 526,  23,   3
 817, 526, 146, 480
 818, 528,  25,  24
 819, 573, 527, 528
 820, 529,  24,  23
 821, 617, 599, 573
 822, 618, 526, 480
 823, 618, 579, 529
 824, 530, 483, 120
 825, 635, 622, 539
 826, 531, 485, 117
 827, 580, 484, 533
 828, 532, 123, 124
 829, 578, 124, 494
 830, 533, 484, 483
 831, 586, 539, 536
 832, 534,  27,  26
 833, 577,  26, 527
 834, 599, 535, 573
 835, 535, 489, 488
 836, 537, 492, 491
 837, 657, 654, 619
 838, 538, 491, 490
 839, 590, 538, 587
 840, 544, 490, 508
 841, 590, 588, 537
 842, 539, 494, 493
 843, 539, 493, 536
 844, 546, 540, 495
 845, 574, 482, 572
 846, 541, 502, 501
 847, 553, 501, 500
 848, 542, 500, 499
 849, 554, 499, 498
 850, 543, 498, 497
 851, 552, 543, 497
 852, 549, 508, 507
 853, 633, 582, 627
 854, 545, 504, 503
 855, 551, 503, 502
 856, 546, 495, 489
 857, 577, 573, 535
 858, 547, 507, 506
 859, 548, 506, 505
 860, 550, 548, 505
 861, 628, 627, 581
 862, 667, 663, 642
 863, 549, 544, 508
 864, 664, 641, 644
 865, 585, 584, 550
 866, 591, 589, 551
 867, 668, 643, 640
 868, 552, 497, 496
 869, 621, 597, 620
 870, 571, 557, 520
 871, 553, 541, 501
 872, 570, 558, 522
 873, 554, 542, 499
 874, 562, 112, 113
 875, 576, 562, 563
 876, 556, 519, 518
 877, 568, 518, 510
 878, 557, 521, 520
 879, 571, 520, 519
 880, 558, 523, 522
 881, 570, 522, 521
 882, 559, 512, 511
 883, 601, 511, 555
 884, 560, 515, 514
 885, 569, 514, 525
 886, 584, 583, 548
 887, 561, 516, 515
 888, 563, 562, 113
 889, 576, 486, 485
 890, 563, 113, 114
 891, 576, 563, 486
 892, 587, 544, 582
 893, 564, 513, 512
 894, 665, 640, 641
 895, 565, 517, 516
 896, 589, 585, 545
 897, 566, 510, 517
 898, 582, 549, 581
 899, 569, 525, 567
 900, 670, 646, 643
 901, 568, 556, 518
 902, 606, 603, 569
 903, 569, 560, 514
 904, 653, 652, 613
 905, 675, 652, 653
 906, 671, 648, 646
 907, 672, 649, 648
 908, 600, 552, 597
 909, 572, 482, 524
 910, 579, 528, 529
 911, 617, 594, 599
 912, 597, 540, 594
 913, 574, 481, 482
 914, 575, 480, 481
 915, 575, 481, 574
 916, 616, 485, 531
 917, 619, 616, 580
 918, 577, 488, 534
 919, 577, 527, 573
 920, 578, 487, 532
 921, 578, 494, 539
 922, 579, 573, 528
 923, 618, 529, 526
 924, 580, 531, 484
 925, 623, 619, 580
 926, 581, 549, 547
 927, 583, 547, 548
 928, 608, 606, 567
 929, 582, 544, 549
 930, 584, 548, 550
 931, 629, 628, 583
 932, 585, 550, 545
 933, 604, 561, 602
 934, 589, 545, 551
 935, 605, 565, 604
 936, 635, 624, 598
 937, 588, 536, 537
 938, 610, 608, 564
 939, 587, 538, 544
 940, 590, 537, 538
 941, 661, 657, 623
 942, 591, 551, 541
 943, 607, 566, 605
 944, 631, 625, 590
 945, 673, 662, 666
 946, 592, 541, 553
 947, 609, 568, 607
 948, 593, 553, 542
 949, 611, 556, 609
 950, 595, 542, 554
 951, 612, 571, 611
 952, 594, 540, 546
 953, 599, 594, 546
 954, 596, 554, 543
 955, 613, 557, 612
 956, 600, 543, 552
 957, 615, 570, 613
 958, 597, 552, 540
 959, 620, 594, 617
 960, 598, 533, 483
 961, 622, 598, 530
 962, 599, 546, 535
 963, 617, 573, 579
 964, 681, 678, 574
 965, 600, 596, 543
 966, 601, 559, 511
 967, 614, 555, 562
 968, 602, 561, 560
 969, 603, 560, 569
 970, 606, 569, 567
 971, 663, 644, 642
 972, 630, 629, 584
 973, 604, 565, 561
 974, 632, 630, 585
 975, 605, 566, 565
 976, 608, 567, 564
 977, 645, 642, 606
 978, 634, 632, 589
 979, 607, 568, 566
 980, 610, 564, 559
 981, 633, 631, 587
 982, 636, 634, 591
 983, 609, 556, 568
 984, 639, 559, 601
 985, 673, 666, 647
 986, 637, 636, 592
 987, 611, 571, 556
 988, 638, 637, 593
 989, 612, 557, 571
 990, 650, 638, 595
 991, 613, 570, 557
 992, 614, 562, 576
 993, 655, 576, 616
 994, 651, 600, 621
 995, 615, 558, 570
 996, 616, 576, 485
 997, 616, 531, 580
 998, 658, 656, 617
 999, 656, 620, 617
1000, 618, 480, 575
1001, 658, 575, 656
1002, 623, 580, 533
1003, 673, 657, 662
1004, 659, 620, 656
1005, 620, 597, 594
1006, 680, 679, 660
1007, 621, 600, 597
1008, 622, 530, 487
1009, 622, 578, 539
1010, 624, 623, 533
1011, 626, 586, 588
1012, 624, 533, 598
1013, 626, 624, 586
1014, 625, 588, 590
1015, 631, 590, 587
1016, 661, 624, 626
1017, 626, 588, 625
1018, 627, 582, 581
1019, 628, 581, 583
1020, 629, 583, 584
1021, 644, 603, 642
1022, 630, 584, 585
1023, 641, 640, 604
1024, 632, 585, 589
1025, 668, 665, 630
1026, 633, 587, 582
1027, 647, 645, 608
1028, 634, 589, 591
1029, 643, 605, 640
1030, 667, 627, 663
1031, 669, 633, 667
1032, 636, 591, 592
1033, 646, 607, 643
1034, 635, 539, 586
1035, 635, 586, 624
1036, 637, 592, 593
1037, 648, 609, 646
1038, 638, 593, 595
1039, 649, 611, 648
1040, 650, 595, 596
1041, 653, 612, 649
1042, 639, 610, 559
1043, 654, 639, 601
1044, 640, 605, 604
1045, 641, 604, 602
1046, 644, 602, 603
1047, 665, 641, 664
1048, 642, 603, 606
1049, 645, 606, 608
1050, 670, 668, 632
1051, 643, 607, 605
1052, 664, 644, 663
1053, 644, 641, 602
1054, 647, 608, 610
1055, 669, 667, 645
1056, 671, 670, 634
1057, 646, 609, 607
1058, 673, 639, 657
1059, 669, 647, 666
1060, 672, 671, 636
1061, 648, 611, 609
1062, 674, 672, 637
1063, 649, 612, 611
1064, 651, 596, 600
1065, 677, 651, 676
1066, 677, 660, 652
1067, 676, 621, 659
1068, 652, 615, 613
1069, 653, 613, 612
1070, 674, 653, 649
1071, 675, 653, 674
1072, 654, 601, 614
1073, 657, 619, 623
1074, 655, 614, 576
1075, 655, 616, 619
1076, 678, 575, 574
1077, 678, 659, 656
1078, 662, 657, 661
1079, 657, 639, 654
1080, 658, 579, 618
1081, 658, 618, 575
1082, 681, 572, 679
1083, 659, 621, 620
1084, 660, 615, 652
1085, 677, 676, 660
1086, 661, 623, 624
1087, 662, 661, 626
1088, 662, 626, 625
1089, 666, 662, 625
1090, 663, 627, 628
1091, 664, 663, 628
1092, 664, 628, 629
1093, 665, 664, 629
1094, 665, 629, 630
1095, 668, 630, 632
1096, 666, 625, 631
1097, 669, 631, 633
1098, 667, 642, 645
1099, 667, 633, 627
1100, 670, 632, 634
1101, 668, 640, 665
1102, 669, 645, 647
1103, 669, 666, 631
1104, 671, 634, 636
1105, 670, 643, 668
1106, 672, 636, 637
1107, 671, 646, 670
1108, 674, 637, 638
1109, 672, 648, 671
1110, 673, 647, 610
1111, 673, 610, 639
1112, 675, 674, 638
1113, 674, 649, 672
1114, 675, 638, 650
1115, 677, 650, 651
1116, 676, 651, 621
1117, 680, 676, 659
1118, 677, 652, 675
1119, 677, 675, 650
1120, 678, 656, 575
1121, 681, 680, 678
1122, 679, 572, 558
1123, 679, 615, 660
1124, 680, 660, 676
1125, 680, 659, 678
1126, 681, 574, 572
1127, 681, 679, 680
1128,  866,  803,  776
1129,  741,  196,  683
1130,  711,  173,  710
1131,  683,  114,  113
1132,  685,  684,  153
1133,  685,    8,   90
1134,  841,  110,  773
1135,  773,  110,  109
1136,  774,  108,  686
1137,  742,  731,  730
1138,  731,  185,  730
1139,  687,  686,  107
1140,  688,  105,  682
1141,  689,  682,  104
1142,  690,  689,  103
1143,  833,  769,  832
1144,  692,  101,  100
1145,  691,  690,  102
1146,  693,  692,  100
1147,  694,  693,   99
1148,  705,   86,  704
1149,  772,  695,  696
1150,  696,  695,   97
1151,  869,  805,  698
1152,  869,  699,  697
1153,  699,    9,  150
1154,  700,  152,  684
1155,   74,    7,  154
1156,  729,  154,  155
1157,  766,  727,  756
1158,  767,  725,  750
1159,  750,  725,  724
1160,  768,  724,  723
1161,  854,  788,  787
1162,  794,  787,   79
1163,  794,   79,   78
1164,  784,   82,   81
1165,  783,  692,  693
1166,  783,  693,  771
1167,  702,   84,   83
1168,  704,   85,  703
1169,  706,   87,  705
1170,  707,   88,  706
1171,  708,   89,  707
1172,  177,  176,   12
1173,  738,  176,  177
1174,  749,  735,  743
1175,  710,  174,  709
1176,  819,  818,  748
1177,  712,  172,  711
1178,  713,  171,  712
1179,  714,  170,  713
1180,  715,  169,  714
1181,  716,  168,  715
1182,  717,  167,  716
1183,  718,  166,  717
1184,  719,  165,  718
1185,  720,  164,  719
1186,  721,  163,  720
1187,  722,  162,  721
1188,  723,  161,  722
1189,  724,  160,  723
1190,  725,  159,  724
1191,  726,  158,  725
1192,  727,  157,  726
1193,  728,  156,  727
1194,  729,  155,  728
1195,  196,   10,  114
1196,  683,  196,  114
1197, 1030,  976,  979
1198,  804,  741,  683
1199,  923,  804,  922
1200,  808,  193,  194
1201,  987,  984,  929
1202,  923,  879,  808
1203,  880,  811,  813
1204,  807,  189,  190
1205,  739,  730,  186
1206,  745,  187,  188
1207,  739,  186,  187
1208,  732,  184,  731
1209,  733,  183,  732
1210,  734,  182,  733
1211,  735,  181,  734
1212,  736,  180,  735
1213,  737,  179,  736
1214,  802,  760,  738
1215,  682,  105,  104
1216,  689,  104,  103
1217,  803,  112,  776
1218,  776,  112,  111
1219,  695,  694,   98
1220,  684,  152,  153
1221,  685,  153,    8
1222,  708,   90,   89
1223,  686,  108,  107
1224,  687,  107,  106
1225,  688,  687,  106
1226,  777,  775,  688
1227,  688,  106,  105
1228,  778,  777,  682
1229,  690,  103,  102
1230,  823,  821,  757
1231,  691,  102,  101
1232,  752,  719,  718
1233,  692,  691,  101
1234,  702,   83,  701
1235,  693,  100,   99
1236,  782,  694,  695
1237,  694,   99,   98
1238,  789,  786,  702
1239,  695,   98,   97
1240, 1114, 1032, 1075
1241,  696,   97,   96
1242,  782,  695,  772
1243,  698,   96,   95
1244,  697,  150,  151
1245,  700,  151,  152
1246,  700,  697,  151
1247,  698,  696,   96
1248,  699,  698,   95
1249,  699,   95,    9
1250,  699,  150,  697
1251,  861,  851,  782
1252,  800,  697,  700
1253,  701,   83,   82
1254,  831,  765,  829
1255,  919,  916,  849
1256,  703,   84,  702
1257,  790,  703,  786
1258,  703,   85,   84
1259,  981,  792,  862
1260,  704,   86,   85
1261,  785,  705,  704
1262,  705,   87,   86
1263,  791,  706,  705
1264,  706,   88,   87
1265,  793,  707,  792
1266,  707,   89,   88
1267,  708,  684,  685
1268,  708,  685,   90
1269,  709,  174,  175
1270,  760,  176,  738
1271,  746,  734,  733
1272,  710,  173,  174
1273,  746,  743,  734
1274,  711,  172,  173
1275,  758,  712,  711
1276,  712,  171,  172
1277,  780,  687,  775
1278,  713,  170,  171
1279,  754,  715,  714
1280,  714,  169,  170
1281,  763,  715,  754
1282,  715,  168,  169
1283,  755,  717,  716
1284,  716,  167,  168
1285,  844,  843,  777
1286,  717,  166,  167
1287,  779,  778,  689
1288,  718,  165,  166
1289,  765,  719,  752
1290,  719,  164,  165
1291,  781,  691,  770
1292,  720,  163,  164
1293,  769,  722,  721
1294,  721,  162,  163
1295,  788,   80,  787
1296,  722,  161,  162
1297,  767,  756,  726
1298,  723,  160,  161
1299,  796,  795,   77
1300,  724,  159,  160
1301,  836,  756,  767
1302,  725,  158,  159
1303,  756,  727,  726
1304,  726,  157,  158
1305,  797,  796,   76
1306,  727,  156,  157
1307,  801,  728,  766
1308,  728,  155,  156
1309,  798,   74,  729
1310,  729,   74,  154
1311,  730,  185,  186
1312,  820,  730,  739
1313,  748,  731,  742
1314,  731,  184,  185
1315,  827,  823,  758
1316,  732,  183,  184
1317,  759,  758,  711
1318,  733,  182,  183
1319,  865,  802,  740
1320,  734,  181,  182
1321,  749,  736,  735
1322,  735,  180,  181
1323,  740,  737,  736
1324,  736,  179,  180
1325,  802,  738,  737
1326,  737,  178,  179
1327,  738,  177,  178
1328,  738,  178,  737
1329,  935,  928,  871
1330,  806,  739,  745
1331,  743,  735,  734
1332,  802,  762,  709
1333,  809,  195,  741
1334,  741,  195,  196
1335,  964,  901,  957
1336,  823,  757,  758
1337,  747,  733,  732
1338,  758,  757,  712
1339,  744,  188,  189
1340,  812,  806,  745
1341,  745,  739,  187
1342,  745,  188,  744
1343,  747,  746,  733
1344,  876,  817,  875
1345,  748,  747,  732
1346,  817,  814,  746
1347,  748,  732,  731
1348,  818,  817,  747
1349,  816,  743,  814
1350,  749,  740,  736
1351,  751,  723,  722
1352, 1017,  966, 1016
1353,  753,  721,  720
1354,  834,  751,  833
1355,  764,  718,  717
1356,  848,  770,  847
1357,  765,  753,  720
1358,  832,  753,  831
1359,  761,  714,  713
1360,  828,  763,  754
1361,  763,  755,  716
1362,  826,  764,  822
1363,  795,  794,   78
1364,  767,  726,  725
1365,  757,  713,  712
1366,  814,  743,  746
1367,  759,  711,  710
1368,  877,  814,  876
1369,  762,  759,  710
1370,  815,  740,  749
1371,  760,  709,  175
1372,  760,  175,  176
1373,  761,  754,  714
1374,  761,  713,  757
1375,  762,  710,  709
1376,  865,  815,  830
1377,  763,  716,  715
1378,  828,  754,  824
1379,  764,  752,  718
1380,  764,  717,  755
1381,  765,  720,  719
1382,  829,  752,  826
1383,  852,  797,  801
1384,  766,  728,  727
1385,  835,  768,  834
1386,  939,  882,  897
1387,  768,  750,  724
1388,  768,  723,  751
1389,  769,  751,  722
1390,  769,  721,  753
1391,  770,  691,  692
1392,  849,  783,  771
1393,  771,  693,  694
1394,  851,  849,  771
1395,  805,  696,  698
1396,  859,  790,  857
1397,  810,  192,  193
1398,  774,  773,  109
1399,  774,  109,  108
1400,  840,  686,  780
1401,  775,  687,  688
1402,  777,  688,  682
1403,  803,  113,  112
1404,  841,  776,  111
1405,  778,  682,  689
1406,  828,  825,  763
1407,  779,  689,  690
1408,  890,  822,  889
1409,  781,  779,  690
1410,  961,  905,  960
1411,  908,  840,  901
1412,  780,  686,  687
1413,  781,  690,  691
1414,  903,  902,  846
1415,  791,  705,  785
1416,  782,  771,  694
1417,  849,  847,  783
1418,  783,  770,  692
1419,  784,  701,   82
1420,  788,   81,   80
1421,  790,  704,  703
1422,  786,  703,  702
1423,  789,  702,  701
1424,  858,  857,  786
1425,  787,   80,   79
1426,  855,  794,  795
1427,  837,  750,  835
1428,  788,  784,   81
1429,  839,  701,  784
1430, 1121, 1099, 1059
1431,  857,  790,  786
1432,  790,  785,  704
1433,  862,  792,  791
1434,  792,  706,  791
1435,  793,  708,  707
1436,  792,  707,  706
1437,  799,  684,  793
1438,  793,  684,  708
1439,  795,   78,   77
1440,  856,  796,  852
1441,  796,   77,   76
1442,  838,  756,  836
1443,  797,   76,   75
1444, 1009,  965,  910
1445,  798,  797,   75
1446,  801,  797,  798
1447,  798,   75,   74
1448,  801,  798,  729
1449, 1031,  981,  927
1450,  799,  700,  684
1451,  868,  861,  772
1452,  800,  700,  799
1453,  801,  729,  728
1454,  864,  852,  801
1455,  802,  709,  760
1456,  802,  737,  740
1457,  804,  683,  803
1458,  803,  683,  113
1459,  921,  776,  841
1460,  809,  808,  194
1461,  805,  772,  696
1462,  869,  698,  699
1463,  871,  820,  806
1464,  812,  745,  744
1465,  807,  744,  189
1466,  811,  190,  191
1467,  850,  774,  840
1468,  810,  193,  808
1469,  809,  194,  195
1470,  809,  741,  804
1471,  813,  811,  191
1472,  813,  192,  810
1473,  811,  807,  190
1474,  813,  191,  192
1475,  898,  744,  807
1476,  842,  780,  775
1477,  930,  929,  872
1478,  879,  810,  808
1479,  817,  746,  747
1480,  818,  747,  748
1481,  865,  830,  762
1482,  816,  815,  749
1483,  816,  749,  743
1484,  932,  875,  874
1485,  819,  748,  742
1486,  875,  818,  874
1487,  899,  742,  820
1488,  874,  818,  819
1489,  873,  871,  806
1490, 1052,  998,  946
1491,  820,  742,  730
1492,  820,  739,  806
1493,  824,  761,  821
1494,  821,  761,  757
1495,  822,  764,  755
1496,  825,  755,  763
1497,  827,  758,  759
1498,  946,  893,  933
1499,  843,  842,  775
1500,  824,  754,  761
1501,  952,  891,  894
1502,  825,  822,  755
1503,  845,  844,  778
1504,  826,  752,  764
1505,  830,  827,  759
1506,  881,  815,  816
1507,  896,  824,  821
1508,  891,  889,  825
1509,  846,  845,  779
1510,  829,  765,  752
1511,  830,  759,  762
1512,  881,  830,  815
1513, 1023, 1014,  962
1514,  831,  753,  765
1515,  886,  831,  883
1516,  832,  769,  753
1517,  885,  834,  833
1518,  833,  751,  769
1519,  944,  887,  942
1520,  834,  768,  751
1521, 1009,  939,  965
1522,  835,  750,  768
1523,  855,  853,  794
1524,  837,  836,  767
1525,  837,  767,  750
1526,  912,  854,  853
1527,  910,  856,  867
1528,  838,  766,  756
1529,  839,  789,  701
1530,  860,  784,  788
1531,  840,  774,  686
1532,  901,  780,  842
1533,  841,  111,  110
1534,  913,  773,  850
1535, 1013,  960, 1012
1536,  843,  775,  777
1537,  844,  777,  778
1538,  906,  843,  904
1539,  845,  778,  779
1540,  905,  845,  902
1541,  846,  779,  781
1542,  948,  943,  892
1543,  848,  781,  770
1544,  943,  941,  883
1545,  847,  770,  783
1546,  916,  907,  847
1547,  907,  903,  848
1548,  848,  846,  781
1549,  851,  771,  782
1550,  909,  857,  858
1551,  879,  878,  810
1552,  850,  773,  774
1553,  861,  782,  772
1554,  863,  785,  859
1555,  852,  796,  797
1556,  864,  801,  766
1557,  854,  787,  853
1558,  853,  787,  794
1559,  940,  884,  938
1560,  860,  788,  854
1561,  856,  855,  795
1562,  867,  856,  852
1563,  856,  795,  796
1564,  867,  852,  864
1565,  858,  786,  789
1566,  970,  962,  907
1567,  900,  789,  839
1568, 1020,  969,  968
1569,  926,  920,  861
1570,  859,  785,  790
1571,  884,  837,  835
1572,  860,  839,  784
1573,  868,  772,  805
1574, 1106, 1032, 1072
1575,  863,  791,  785
1576,  863,  862,  791
1577,  917,  863,  859
1578,  870,  862,  863
1579,  864,  766,  838
1580,  867,  864,  838
1581,  865,  762,  802
1582,  865,  740,  815
1583,  866,  804,  803
1584,  976,  866,  921
1585,  882,  838,  836
1586,  882,  867,  838
1587,  924,  805,  869
1588, 1074,  981, 1031
1589,  869,  697,  800
1590,  924,  869,  800
1591,  918,  857,  909
1592,  920,  919,  851
1593,  928,  899,  871
1594,  873,  806,  812
1595,  929,  898,  872
1596,  872,  807,  811
1597,  955,  812,  898
1598, 1058, 1013, 1057
1599,  896,  821,  895
1600,  954,  819,  899
1601,  931,  877,  876
1602,  875,  817,  818
1603,  950,  893,  827
1604,  876,  814,  817
1605,  933,  881,  877
1606,  877,  816,  814
1607,  878,  813,  810
1608,  936,  930,  880
1609,  977,  923,  922
1610,  925,  921,  913
1611,  880,  872,  811
1612,  880,  813,  878
1613,  950,  830,  881
1614,  881,  816,  877
1615,  897,  836,  837
1616, 1016,  939,  991
1617,  883,  831,  829
1618,  892,  829,  826
1619,  914,  854,  912
1620,  888,  835,  834
1621,  887,  833,  832
1622,  942,  886,  941
1623,  886,  832,  831
1624,  962,  958,  903
1625,  887,  885,  833
1626,  887,  832,  886
1627,  888,  884,  835
1628,  888,  834,  885
1629,  889,  822,  825
1630,  891,  825,  828
1631,  949,  948,  890
1632,  890,  826,  822
1633,  894,  828,  824
1634,  990,  985,  928
1635,  892,  883,  829
1636,  892,  826,  890
1637,  895,  823,  893
1638,  893,  823,  827
1639, 1052,  986,  998
1640,  894,  891,  828
1641,  895,  821,  823
1642, 1052,  933,  931
1643,  986,  931,  934
1644,  896,  894,  824
1645,  897,  882,  836
1646,  897,  837,  884
1647,  898,  812,  744
1648,  898,  807,  872
1649,  899,  819,  742
1650,  899,  820,  871
1651,  900,  858,  789
1652,  915,  839,  860
1653,  901,  840,  780
1654,  957,  842,  906
1655,  902,  845,  846
1656,  903,  846,  848
1657,  907,  848,  847
1658,  995,  994,  941
1659,  904,  843,  844
1660,  905,  904,  844
1661,  905,  844,  845
1662,  960,  902,  958
1663, 1018,  957, 1011
1664,  906,  842,  843
1665,  916,  847,  849
1666,  918,  859,  857
1667,  937,  936,  878
1668,  908,  850,  840
1669,  956,  858,  900
1670, 1014, 1012,  958
1671,  911,  855,  910
1672,  910,  855,  856
1673,  912,  853,  911
1674,  911,  853,  855
1675,  991,  939,  940
1676,  914,  860,  854
1677,  913,  841,  773
1678,  959,  850,  908
1679,  938,  884,  888
1680,  915,  860,  914
1681, 1080, 1059, 1017
1682,  915,  900,  839
1683,  919,  849,  851
1684,  975,  974,  919
1685,  917,  870,  863
1686,  918,  917,  859
1687,  973,  972,  917
1688,  971,  918,  909
1689,  920,  851,  861
1690,  972,  870,  917
1691,  926,  861,  868
1692, 1107, 1026, 1070
1693,  921,  866,  776
1694,  921,  841,  913
1695,  922,  804,  866
1696,  976,  921,  925
1697,  923,  808,  809
1698,  923,  809,  804
1699,  978,  800,  799
1700,  924,  868,  805
1701,  959,  913,  850
1702,  989,  987,  930
1703,  980,  868,  924
1704, 1033,  972, 1026
1705,  927,  862,  870
1706,  982,  870,  972
1707,  985,  954,  928
1708,  935,  871,  873
1709,  984,  955,  929
1710,  930,  872,  880
1711,  936,  880,  878
1712, 1036, 1034,  984
1713,  934,  876,  875
1714,  951,  949,  889
1715,  953,  894,  896
1716, 1006,  874,  954
1717,  950,  933,  893
1718,  933,  877,  931
1719,  934,  931,  876
1720,  934,  875,  932
1721, 1007,  873,  955
1722,  963,  904,  961
1723,  937,  878,  879
1724,  983,  979,  925
1725,  977,  937,  879
1726, 1030,  979, 1029
1727,  968,  915,  914
1728,  945,  888,  885
1729, 1009,  910,  867
1730,  940,  939,  897
1731,  940,  897,  884
1732, 1080, 1016,  991
1733,  941,  886,  883
1734,  943,  883,  892
1735, 1079, 1038, 1044
1736,  942,  887,  886
1737,  948,  892,  890
1738, 1000,  995,  943
1739,  997,  942,  994
1740,  944,  885,  887
1741,  945,  938,  888
1742,  945,  885,  944
1743,  947,  895,  946
1744,  946,  895,  893
1745,  953,  896,  947
1746,  947,  896,  895
1747,  949,  890,  889
1748, 1046, 1042,  995
1749,  951,  889,  891
1750, 1002, 1001,  949
1751,  950,  827,  830
1752,  950,  881,  933
1753,  952,  951,  891
1754, 1005,  952,  953
1755,  953,  952,  894
1756, 1049, 1048, 1002
1757, 1037,  986,  988
1758, 1037,  998,  986
1759,  954,  874,  819
1760,  954,  899,  928
1761,  955,  873,  812
1762,  955,  898,  929
1763,  956,  909,  858
1764,  969,  900,  915
1765,  957,  901,  842
1766, 1011,  906,  963
1767,  958,  902,  903
1768,  962,  903,  907
1769,  959,  925,  913
1770, 1010,  908,  964
1771, 1001, 1000,  948
1772,  960,  905,  902
1773, 1015,  961, 1013
1774,  961,  904,  905
1775,  970,  907,  916
1776, 1066, 1022, 1063
1777, 1061, 1011, 1056
1778,  963,  906,  904
1779, 1030, 1029,  993
1780,  964,  908,  901
1781,  966,  911,  965
1782,  965,  911,  910
1783,  967,  912,  966
1784,  966,  912,  911
1785,  968,  914,  967
1786,  967,  914,  912
1787, 1038,  992,  996
1788,  969,  915,  968
1789, 1080, 1017, 1016
1790,  969,  956,  900
1791,  974,  916,  919
1792,  973,  918,  971
1793, 1021,  909,  956
1794, 1022,  969, 1020
1795, 1026,  973, 1024
1796,  973,  917,  918
1797, 1069, 1065, 1023
1798, 1115, 1109, 1068
1799,  974,  970,  916
1800,  975,  919,  920
1801, 1008,  920,  926
1802, 1112, 1110, 1069
1803,  976,  922,  866
1804,  979,  976,  925
1805,  977,  879,  923
1806,  977,  922,  976
1807,  978,  924,  800
1808, 1106, 1074, 1031
1809,  993,  989,  936
1810,  983,  925,  959
1811,  980,  926,  868
1812,  980,  924,  978
1813,  981,  793,  792
1814,  981,  862,  927
1815, 1114, 1075, 1073
1816,  982,  927,  870
1817, 1010,  959,  908
1818, 1040, 1036,  987
1819, 1034, 1007,  984
1820,  987,  929,  930
1821, 1035, 1006,  985
1822,  990,  928,  935
1823,  988,  934,  932
1824,  988,  986,  934
1825,  989,  930,  936
1826, 1078, 1076, 1034
1827, 1005, 1004,  952
1828, 1053,  932, 1006
1829,  993,  936,  937
1830, 1105, 1064, 1055
1831, 1054,  935, 1007
1832, 1132, 1100, 1131
1833,  992,  940,  938
1834,  992,  991,  940
1835,  996,  938,  945
1836,  999,  945,  944
1837, 1030,  993,  937
1838, 1029,  979,  983
1839,  994,  942,  941
1840,  995,  941,  943
1841, 1000,  943,  948
1842, 1060, 1057, 1012
1843,  996,  992,  938
1844, 1043,  994, 1042
1845,  997,  944,  942
1846, 1103, 1066, 1063
1847, 1003,  947,  998
1848,  998,  947,  946
1849,  999,  996,  945
1850,  999,  944,  997
1851, 1001,  948,  949
1852, 1047, 1046, 1000
1853, 1002,  949,  951
1854, 1088, 1085, 1046
1855, 1004,  951,  952
1856, 1051, 1005, 1050
1857, 1005,  953, 1003
1858, 1003,  953,  947
1859, 1077, 1053, 1035
1860, 1004, 1002,  951
1861, 1089,  998, 1037
1862, 1123, 1094, 1077
1863, 1006,  932,  874
1864, 1006,  954,  985
1865, 1007,  935,  873
1866, 1007,  955,  984
1867, 1008,  975,  920
1868, 1028, 1008,  926
1869, 1009,  867,  882
1870, 1009,  882,  939
1871, 1010,  983,  959
1872, 1055,  964, 1018
1873, 1011,  957,  906
1874, 1056,  963, 1015
1875, 1012,  960,  958
1876, 1014,  958,  962
1877, 1048, 1047, 1001
1878, 1013,  961,  960
1879, 1023,  962,  970
1880, 1065, 1060, 1014
1881, 1101, 1056, 1097
1882, 1015,  963,  961
1883, 1016,  966,  965
1884, 1016,  965,  939
1885, 1019,  967, 1017
1886, 1017,  967,  966
1887, 1140, 1078, 1087
1888, 1018,  964,  957
1889, 1020,  968, 1019
1890, 1019,  968,  967
1891, 1110, 1104, 1065
1892, 1022, 1021,  956
1893, 1119, 1079, 1084
1894, 1021,  971,  909
1895, 1022,  956,  969
1896, 1121, 1079, 1099
1897, 1025,  970,  974
1898, 1024,  973,  971
1899, 1067,  971, 1021
1900, 1063, 1022, 1020
1901, 1025, 1023,  970
1902, 1027,  974,  975
1903, 1168, 1145, 1120
1904, 1026,  972,  973
1905, 1027, 1025,  974
1906, 1068,  975, 1008
1907, 1028,  926,  980
1908, 1072,  980,  978
1909, 1041, 1040,  989
1910, 1064,  983, 1010
1911, 1030,  937,  977
1912, 1030,  977,  976
1913, 1032, 1031,  927
1914, 1106, 1031, 1032
1915, 1032,  927,  982
1916, 1075,  982, 1033
1917, 1115, 1073, 1075
1918, 1033,  982,  972
1919, 1076, 1054, 1034
1920, 1036,  984,  987
1921, 1039,  985,  990
1922, 1039, 1035,  985
1923, 1040,  987,  989
1924, 1087, 1040, 1086
1925, 1089, 1050, 1003
1926, 1094,  988, 1053
1927, 1044,  996,  999
1928, 1045,  997, 1043
1929, 1095,  990, 1054
1930, 1091, 1090, 1048
1931, 1041,  989,  993
1932, 1113, 1086, 1041
1933, 1041,  993, 1029
1934, 1113, 1029, 1064
1935, 1042,  994,  995
1936, 1046,  995, 1000
1937, 1121, 1059, 1080
1938, 1043,  997,  994
1939, 1044, 1038,  996
1940, 1045, 1044,  999
1941, 1045,  999,  997
1942, 1170, 1145, 1168
1943, 1047, 1000, 1001
1944, 1100, 1098, 1057
1945, 1048, 1001, 1002
1946, 1090, 1088, 1047
1947, 1049, 1002, 1004
1948, 1183, 1182, 1157
1949, 1051, 1004, 1005
1950, 1092, 1091, 1049
1951, 1050, 1005, 1003
1952, 1123, 1117, 1094
1953, 1093, 1092, 1051
1954, 1051, 1049, 1004
1955, 1052,  946,  933
1956, 1052,  931,  986
1957, 1053,  988,  932
1958, 1053, 1006, 1035
1959, 1054,  990,  935
1960, 1054, 1007, 1034
1961, 1055, 1010,  964
1962, 1096, 1018, 1061
1963, 1056, 1011,  963
1964, 1097, 1015, 1058
1965, 1057, 1013, 1012
1966, 1060, 1012, 1014
1967, 1128, 1101, 1097
1968, 1058, 1015, 1013
1969, 1062, 1019, 1059
1970, 1059, 1019, 1017
1971, 1065, 1014, 1023
1972, 1085, 1082, 1042
1973, 1124, 1086, 1105
1974, 1061, 1018, 1011
1975, 1063, 1020, 1062
1976, 1062, 1020, 1019
1977, 1164, 1079, 1119
1978, 1066, 1021, 1022
1979, 1064, 1029,  983
1980, 1064, 1010, 1055
1981, 1069, 1023, 1025
1982, 1104, 1100, 1060
1983, 1125, 1110, 1122
1984, 1067, 1021, 1066
1985, 1164, 1130, 1102
1986, 1067, 1024,  971
1987, 1068, 1027,  975
1988, 1073, 1068, 1008
1989, 1071, 1025, 1027
1990, 1070, 1026, 1024
1991, 1108, 1024, 1067
1992, 1111, 1066, 1103
1993, 1071, 1069, 1025
1994, 1167, 1120, 1145
1995, 1072, 1028,  980
1996, 1106, 1072,  978
1997, 1073, 1008, 1028
1998, 1114, 1028, 1072
1999, 1074,  799,  793
2000, 1074,  793,  981
2001, 1075, 1032,  982
2002, 1193, 1115, 1075
2003, 1127, 1076, 1118
2004, 1078, 1034, 1036
2005, 1081, 1035, 1039
2006, 1081, 1077, 1035
2007, 1087, 1036, 1040
2008, 1152, 1151, 1118
2009, 1084, 1044, 1045
2010, 1083, 1043, 1082
2011, 1080,  991,  992
2012, 1080,  992, 1038
2013, 1129, 1039, 1095
2014, 1159, 1158, 1134
2015, 1082, 1043, 1042
2016, 1085, 1042, 1046
2017, 1164, 1099, 1079
2018, 1083, 1045, 1043
2019, 1084, 1079, 1044
2020, 1084, 1045, 1083
2021, 1088, 1046, 1047
2022, 1206, 1196, 1194
2023, 1086, 1040, 1041
2024, 1186, 1105, 1096
2025, 1180, 1155, 1162
2026, 1087, 1078, 1036
2027, 1090, 1047, 1048
2028, 1131, 1104, 1125
2029, 1089, 1003,  998
2030, 1117, 1089, 1037
2031, 1091, 1048, 1049
2032, 1133, 1116, 1090
2033, 1092, 1049, 1051
2034, 1134, 1133, 1091
2035, 1093, 1051, 1050
2036, 1135, 1134, 1092
2037, 1117, 1050, 1089
2038, 1174, 1117, 1123
2039, 1094, 1037,  988
2040, 1094, 1053, 1077
2041, 1095, 1039,  990
2042, 1095, 1054, 1076
2043, 1096, 1055, 1018
2044, 1137, 1061, 1101
2045, 1097, 1056, 1015
2046, 1138, 1058, 1098
2047, 1098, 1058, 1057
2048, 1100, 1057, 1060
2049, 1102, 1062, 1099
2050, 1099, 1062, 1059
2051, 1104, 1060, 1065
2052, 1139, 1088, 1116
2053, 1140, 1087, 1124
2054, 1101, 1061, 1056
2055, 1103, 1063, 1102
2056, 1102, 1063, 1062
2057, 1142, 1085, 1139
2058, 1111, 1108, 1067
2059, 1110, 1065, 1069
2060, 1153, 1142, 1139
2061, 1113, 1105, 1086
2062, 1105, 1055, 1096
2063, 1106,  978,  799
2064, 1106,  799, 1074
2065, 1167, 1107, 1120
2066, 1107, 1033, 1026
2067, 1108, 1070, 1024
2068, 1171, 1144, 1165
2069, 1109, 1071, 1027
2070, 1109, 1027, 1068
2071, 1112, 1069, 1071
2072, 1143, 1108, 1111
2073, 1111, 1067, 1066
2074, 1130, 1103, 1102
2075, 1145, 1071, 1109
2076, 1146, 1108, 1143
2077, 1113, 1041, 1029
2078, 1113, 1064, 1105
2079, 1114, 1073, 1028
2080, 1114, 1072, 1032
2081, 1115, 1068, 1073
2082, 1193, 1107, 1167
2083, 1116, 1088, 1090
2084, 1133, 1090, 1091
2085, 1117, 1093, 1050
2086, 1117, 1037, 1094
2087, 1155, 1152, 1140
2088, 1118, 1076, 1078
2089, 1126, 1084, 1083
2090, 1141, 1126, 1083
2091, 1120, 1107, 1070
2092, 1146, 1070, 1108
2093, 1121, 1080, 1038
2094, 1121, 1038, 1079
2095, 1122, 1110, 1112
2096, 1165, 1130, 1148
2097, 1136, 1077, 1081
2098, 1189, 1161, 1188
2099, 1124, 1087, 1086
2100, 1186, 1137, 1155
2101, 1176, 1175, 1149
2102, 1125, 1104, 1110
2103, 1126, 1119, 1084
2104, 1141, 1083, 1082
2105, 1158, 1157, 1133
2106, 1127, 1095, 1076
2107, 1138, 1097, 1058
2108, 1161, 1138, 1098
2109, 1129, 1081, 1039
2110, 1129, 1095, 1127
2111, 1144, 1103, 1130
2112, 1148, 1119, 1126
2113, 1181, 1176, 1153
2114, 1131, 1100, 1104
2115, 1157, 1156, 1116
2116, 1132, 1098, 1100
2117, 1134, 1091, 1092
2118, 1185, 1136, 1160
2119, 1135, 1092, 1093
2120, 1147, 1123, 1136
2121, 1174, 1135, 1093
2122, 1136, 1123, 1077
2123, 1160, 1081, 1129
2124, 1154, 1127, 1151
2125, 1137, 1096, 1061
2126, 1162, 1101, 1128
2127, 1138, 1128, 1097
2128, 1161, 1098, 1132
2129, 1139, 1085, 1088
2130, 1156, 1153, 1139
2131, 1140, 1118, 1078
2132, 1186, 1155, 1124
2133, 1142, 1141, 1082
2134, 1206, 1191, 1195
2135, 1142, 1082, 1085
2136, 1153, 1149, 1142
2137, 1171, 1143, 1144
2138, 1144, 1143, 1111
2139, 1144, 1111, 1103
2140, 1164, 1148, 1130
2141, 1145, 1112, 1071
2142, 1167, 1145, 1109
2143, 1173, 1146, 1143
2144, 1146, 1120, 1070
2145, 1159, 1135, 1147
2146, 1174, 1147, 1135
2147, 1150, 1126, 1141
2148, 1192, 1148, 1150
2149, 1172, 1169, 1125
2150, 1149, 1141, 1142
2151, 1150, 1148, 1126
2152, 1150, 1141, 1149
2153, 1151, 1127, 1118
2154, 1178, 1151, 1177
2155, 1187, 1180, 1162
2156, 1152, 1118, 1140
2157, 1156, 1139, 1116
2158, 1169, 1166, 1131
2159, 1179, 1154, 1178
2160, 1154, 1129, 1127
2161, 1155, 1140, 1124
2162, 1162, 1155, 1137
2163, 1157, 1116, 1133
2164, 1182, 1181, 1156
2165, 1158, 1133, 1134
2166, 1202, 1201, 1182
2167, 1159, 1134, 1135
2168, 1184, 1183, 1158
2169, 1199, 1185, 1179
2170, 1197, 1187, 1163
2171, 1160, 1136, 1081
2172, 1160, 1129, 1154
2173, 1163, 1138, 1161
2174, 1188, 1132, 1166
2175, 1162, 1137, 1101
2176, 1187, 1128, 1163
2177, 1203, 1199, 1200
2178, 1163, 1128, 1138
2179, 1164, 1102, 1099
2180, 1164, 1119, 1148
2181, 1173, 1143, 1171
2182, 1165, 1144, 1130
2183, 1166, 1132, 1131
2184, 1169, 1131, 1125
2185, 1167, 1109, 1115
2186, 1193, 1167, 1115
2187, 1191, 1170, 1168
2188, 1168, 1120, 1146
2189, 1172, 1125, 1122
2190, 1198, 1190, 1194
2191, 1170, 1122, 1112
2192, 1170, 1112, 1145
2193, 1192, 1150, 1175
2194, 1195, 1171, 1192
2195, 1191, 1122, 1170
2196, 1198, 1196, 1176
2197, 1173, 1168, 1146
2198, 1196, 1195, 1192
2199, 1174, 1093, 1117
2200, 1174, 1123, 1147
2201, 1175, 1150, 1149
2202, 1176, 1149, 1153
2203, 1181, 1153, 1156
2204, 1194, 1190, 1169
2205, 1177, 1151, 1152
2206, 1180, 1177, 1152
2207, 1205, 1188, 1204
2208, 1178, 1154, 1151
2209, 1185, 1159, 1147
2210, 1179, 1160, 1154
2211, 1180, 1152, 1155
2212, 1187, 1162, 1128
2213, 1182, 1156, 1157
2214, 1201, 1198, 1181
2215, 1183, 1157, 1158
2216, 1204, 1201, 1202
2217, 1184, 1158, 1159
2218, 1203, 1202, 1183
2219, 1199, 1159, 1185
2220, 1200, 1199, 1179
2221, 1185, 1147, 1136
2222, 1185, 1160, 1179
2223, 1186, 1124, 1105
2224, 1186, 1096, 1137
2225, 1197, 1163, 1189
2226, 1187, 1177, 1180
2227, 1188, 1161, 1132
2228, 1204, 1166, 1190
2229, 1207, 1203, 1200
2230, 1189, 1163, 1161
2231, 1190, 1166, 1169
2232, 1194, 1169, 1172
2233, 1191, 1172, 1122
2234, 1191, 1168, 1173
2235, 1192, 1171, 1165
2236, 1192, 1165, 1148
2237, 1193, 1075, 1033
2238, 1193, 1033, 1107
2239, 1206, 1195, 1196
2240, 1198, 1194, 1196
2241, 1195, 1191, 1173
2242, 1195, 1173, 1171
2243, 1196, 1192, 1175
2244, 1196, 1175, 1176
2245, 1197, 1178, 1177
2246, 1197, 1177, 1187
2247, 1198, 1176, 1181
2248, 1201, 1181, 1182
2249, 1200, 1179, 1178
2250, 1199, 1184, 1159
2251, 1200, 1178, 1197
2252, 1207, 1197, 1189
2253, 1202, 1182, 1183
2254, 1201, 1190, 1198
2255, 1203, 1183, 1184
2256, 1205, 1204, 1202
2257, 1203, 1184, 1199
2258, 1207, 1205, 1203
2259, 1204, 1188, 1166
2260, 1204, 1190, 1201
2261, 1205, 1202, 1203
2262, 1205, 1189, 1188
2263, 1206, 1194, 1172
2264, 1206, 1172, 1191
2265, 1207, 1200, 1197
2266, 1207, 1189, 1205
*Orientation, name=Ori-1
1., 0., 0., 0., 1., 0.
3, 0.
** Region: (CompositeLayup-1-1: Generated From Layup)
*Elset, elset=CompositeLayup-1-1, generate
    1,  2266,     1
** Section: CompositeLayup-1-1
*Shell Section, elset=CompositeLayup-1-1, composite, orientation=Ori-1, layup=CompositeLayup-1, symmetric
0.25, 3, CFRP, 0., Ply-1
0.25, 3, CFRP, 45., Ply-2
0.25, 3, CFRP, 90., Ply-3
0.25, 3, CFRP, -45., Ply-4
*End Part
**  
**
** ASSEMBLY
**
*Assembly, name=Assembly
**  
*Instance, name=Plate-1, part=PLATE
*End Instance
**  
*Nset, nset=Set-1, instance=Plate-1
   6,   7,  12,  65,  66,  67,  68,  69,  70,  71,  72,  73, 154, 155, 156, 157
 158, 159, 160, 161, 162, 163, 164, 165, 166, 167, 168, 169, 170, 171, 172, 173
 174, 175, 176
*Elset, elset=Set-1, instance=Plate-1
  198,  218,  223,  226,  322,  324,  326,  328,  329,  331, 1155, 1156, 1172, 1269, 1272, 1274
 1276, 1278, 1280, 1282, 1284, 1286, 1288, 1290, 1292, 1294, 1296, 1298, 1300, 1302, 1304, 1306
 1308, 1372
*Nset, nset=Set-2, instance=Plate-1
   4,   5,  11,  28,  29,  30,  31,  32,  33,  34,  35,  36, 123, 124, 125, 126
 127, 128, 129, 130, 131, 132, 133, 134, 135, 136, 137, 138, 139, 140, 141, 142
 143, 144, 145
*Elset, elset=Set-2, instance=Plate-1
  14,  19,  27,  64,  67,  69,  71,  73,  75, 103, 687, 696, 712, 740, 743, 744
 747, 749, 751, 753, 755, 757, 759, 761, 763, 765, 767, 769, 771, 773, 775, 777
 779, 828
*End Assembly
** 
** MATERIALS
** 
*Material, name=CFRP
*Elastic, type=ENGINEERING CONSTANTS
150000.,9000.,9000., 0.34, 0.34,  0.4,5000.,5000.
5000.,
** ----------------------------------------------------------------
** 
** STEP: Step-1
** 
*Step, name=Step-1, nlgeom=NO
*Static
1., 1., 1e-05, 1.
** 
** BOUNDARY CONDITIONS
** 
** Name: BC-1 Type: Symmetry/Antisymmetry/Encastre
*Boundary
Set-1, ENCASTRE
** Name: DISPLACEMENT Type: Displacement/Rotation
*Boundary
Set-2, 1, 1, 1.05263
** 
** OUTPUT REQUESTS
** 
*Restart, write, frequency=0
** 
** FIELD OUTPUT: F-Output-1
** 
*Output, field
*Element Output, position=NODES, directions=YES
E, 
** 
** HISTORY OUTPUT: H-Output-1
** 
*Output, history, variable=PRESELECT
*End Step
