*Heading
** Job name: Plate_445 Model name: Model-1
** Generated by: Abaqus/CAE 2024.HF3
*Preprint, echo=NO, model=NO, history=NO, contact=NO
**
** PARTS
**
*Part, name=PLATE
*Node
      1,     67.62323,   190.769775,           0.
      2,     67.62323,   144.418777,           0.
      3,   84.8621445,   127.179855,           0.
      4,   101.434845,   127.179855,           0.
      5,   101.434845,   190.769775,           0.
      6,           0.,   190.769775,           0.
      7,           0.,   127.179855,           0.
      8,   50.3843155,   127.179855,           0.
      9,     67.62323,   109.940941,           0.
     10,     67.62323,           0.,           0.
     11,   101.434845,           0.,           0.
     12,           0.,           0.,           0.
     13,     67.62323,   186.556061,           0.
     14,     67.62323,   182.342331,           0.
     15,     67.62323,   178.128601,           0.
     16,     67.62323,   173.914871,           0.
     17,     67.62323,   169.701141,           0.
     18,     67.62323,   165.487411,           0.
     19,     67.62323,   161.273682,           0.
     20,     67.62323,   157.059952,           0.
     21,     67.62323,   152.846222,           0.
     22,     67.62323,   148.632492,           0.
     23,   72.0849915,   143.831375,           0.
     24,    76.242691,   142.109192,           0.
     25,   79.8129807,   139.369614,           0.
     26,   82.5525665,   135.799316,           0.
     27,   84.2747421,   131.641617,           0.
     28,   89.0053177,   127.179855,           0.
     29,   93.1484985,   127.179855,           0.
     30,   97.2916718,   127.179855,           0.
     31,   101.434845,   131.419189,           0.
     32,   101.434845,   135.658508,           0.
     33,   101.434845,   139.897842,           0.
     34,   101.434845,   144.137177,           0.
     35,   101.434845,   148.376495,           0.
     36,   101.434845,   152.615829,           0.
     37,   101.434845,   156.855148,           0.
     38,   101.434845,   161.094482,           0.
     39,   101.434845,   165.333817,           0.
     40,   101.434845,   169.573135,           0.
     41,   101.434845,   173.812469,           0.
     42,   101.434845,   178.051804,           0.
     43,   101.434845,   182.291122,           0.
     44,   101.434845,   186.530457,           0.
     45,   97.2083969,   190.769775,           0.
     46,   92.9819412,   190.769775,           0.
     47,   88.7554932,   190.769775,           0.
     48,   84.5290375,   190.769775,           0.
     49,   80.3025894,   190.769775,           0.
     50,   76.0761337,   190.769775,           0.
     51,   71.8496857,   190.769775,           0.
     52,   63.3967781,   190.769775,           0.
     53,   59.1703262,   190.769775,           0.
     54,   54.9438744,   190.769775,           0.
     55,   50.7174225,   190.769775,           0.
     56,   46.4909706,   190.769775,           0.
     57,   42.2645187,   190.769775,           0.
     58,   38.0380669,   190.769775,           0.
     59,    33.811615,   190.769775,           0.
     60,   29.5851631,   190.769775,           0.
     61,   25.3587112,   190.769775,           0.
     62,   21.1322594,   190.769775,           0.
     63,   16.9058075,   190.769775,           0.
     64,   12.6793556,   190.769775,           0.
     65,   8.45290375,   190.769775,           0.
     66,   4.22645187,   190.769775,           0.
     67,           0.,   186.530457,           0.
     68,           0.,   182.291122,           0.
     69,           0.,   178.051804,           0.
     70,           0.,   173.812469,           0.
     71,           0.,   169.573135,           0.
     72,           0.,   165.333817,           0.
     73,           0.,   161.094482,           0.
     74,           0.,   156.855148,           0.
     75,           0.,   152.615829,           0.
     76,           0.,   148.376495,           0.
     77,           0.,   144.137177,           0.
     78,           0.,   139.897842,           0.
     79,           0.,   135.658508,           0.
     80,           0.,   131.419189,           0.
     81,    4.1986928,   127.179855,           0.
     82,    8.3973856,   127.179855,           0.
     83,   12.5960789,   127.179855,           0.
     84,   16.7947712,   127.179855,           0.
     85,   20.9934654,   127.179855,           0.
     86,   25.1921577,   127.179855,           0.
     87,   29.3908501,   127.179855,           0.
     88,   33.5895424,   127.179855,           0.
     89,   37.7882347,   127.179855,           0.
     90,   41.9869308,   127.179855,           0.
     91,   46.1856232,   127.179855,           0.
     92,   50.9717178,   131.641617,           0.
     93,   52.6938934,   135.799316,           0.
     94,   55.4334755,   139.369614,           0.
     95,   59.0037727,   142.109192,           0.
     96,   63.1614723,   143.831375,           0.
     97,     67.62323,    105.71244,           0.
     98,     67.62323,   101.483948,           0.
     99,     67.62323,   97.2554474,           0.
    100,     67.62323,    93.026947,           0.
    101,     67.62323,   88.7984543,           0.
    102,     67.62323,   84.5699539,           0.
    103,     67.62323,   80.3414536,           0.
    104,     67.62323,   76.1129608,           0.
    105,     67.62323,   71.8844604,           0.
    106,     67.62323,   67.6559601,           0.
    107,     67.62323,   63.4274673,           0.
    108,     67.62323,    59.198967,           0.
    109,     67.62323,   54.9704704,           0.
    110,     67.62323,   50.7419739,           0.
    111,     67.62323,   46.5134735,           0.
    112,     67.62323,    42.284977,           0.
    113,     67.62323,   38.0564804,           0.
    114,     67.62323,     33.82798,           0.
    115,     67.62323,   29.5994835,           0.
    116,     67.62323,   25.3709869,           0.
    117,     67.62323,   21.1424885,           0.
    118,     67.62323,     16.91399,           0.
    119,     67.62323,   12.6854935,           0.
    120,     67.62323,   8.45699501,           0.
    121,     67.62323,   4.22849751,           0.
    122,   71.8496857,           0.,           0.
    123,   76.0761337,           0.,           0.
    124,   80.3025894,           0.,           0.
    125,   84.5290375,           0.,           0.
    126,   88.7554932,           0.,           0.
    127,   92.9819412,           0.,           0.
    128,   97.2083969,           0.,           0.
    129,   101.434845,   4.23932838,           0.
    130,   101.434845,   8.47865677,           0.
    131,   101.434845,   12.7179852,           0.
    132,   101.434845,   16.9573135,           0.
    133,   101.434845,   21.1966419,           0.
    134,   101.434845,   25.4359703,           0.
    135,   101.434845,   29.6752987,           0.
    136,   101.434845,   33.9146271,           0.
    137,   101.434845,   38.1539574,           0.
    138,   101.434845,   42.3932838,           0.
    139,   101.434845,   46.6326141,           0.
    140,   101.434845,   50.8719406,           0.
    141,   101.434845,   55.1112709,           0.
    142,   101.434845,   59.3505974,           0.
    143,   101.434845,   63.5899277,           0.
    144,   101.434845,   67.8292542,           0.
    145,   101.434845,   72.0685883,           0.
    146,   101.434845,   76.3079147,           0.
    147,   101.434845,   80.5472412,           0.
    148,   101.434845,   84.7865677,           0.
    149,   101.434845,   89.0259018,           0.
    150,   101.434845,   93.2652283,           0.
    151,   101.434845,   97.5045547,           0.
    152,   101.434845,   101.743881,           0.
    153,   101.434845,   105.983215,           0.
    154,   101.434845,   110.222542,           0.
    155,   101.434845,   114.461868,           0.
    156,   101.434845,   118.701195,           0.
    157,   101.434845,   122.940529,           0.
    158,   84.2747421,   122.718094,           0.
    159,   82.5525665,   118.560394,           0.
    160,   79.8129807,   114.990105,           0.
    161,    76.242691,   112.250519,           0.
    162,   72.0849915,   110.528343,           0.
    163,   63.1614723,   110.528343,           0.
    164,   59.0037727,   112.250519,           0.
    165,   55.4334755,   114.990105,           0.
    166,   52.6938934,   118.560394,           0.
    167,   50.9717178,   122.718094,           0.
    168,           0.,   122.940529,           0.
    169,           0.,   118.701195,           0.
    170,           0.,   114.461868,           0.
    171,           0.,   110.222542,           0.
    172,           0.,   105.983215,           0.
    173,           0.,   101.743881,           0.
    174,           0.,   97.5045547,           0.
    175,           0.,   93.2652283,           0.
    176,           0.,   89.0259018,           0.
    177,           0.,   84.7865677,           0.
    178,           0.,   80.5472412,           0.
    179,           0.,   76.3079147,           0.
    180,           0.,   72.0685883,           0.
    181,           0.,   67.8292542,           0.
    182,           0.,   63.5899277,           0.
    183,           0.,   59.3505974,           0.
    184,           0.,   55.1112709,           0.
    185,           0.,   50.8719406,           0.
    186,           0.,   46.6326141,           0.
    187,           0.,   42.3932838,           0.
    188,           0.,   38.1539574,           0.
    189,           0.,   33.9146271,           0.
    190,           0.,   29.6752987,           0.
    191,           0.,   25.4359703,           0.
    192,           0.,   21.1966419,           0.
    193,           0.,   16.9573135,           0.
    194,           0.,   12.7179852,           0.
    195,           0.,   8.47865677,           0.
    196,           0.,   4.23932838,           0.
    197,   4.22645187,           0.,           0.
    198,   8.45290375,           0.,           0.
    199,   12.6793556,           0.,           0.
    200,   16.9058075,           0.,           0.
    201,   21.1322594,           0.,           0.
    202,   25.3587112,           0.,           0.
    203,   29.5851631,           0.,           0.
    204,    33.811615,           0.,           0.
    205,   38.0380669,           0.,           0.
    206,   42.2645187,           0.,           0.
    207,   46.4909706,           0.,           0.
    208,   50.7174225,           0.,           0.
    209,   54.9438744,           0.,           0.
    210,   59.1703262,           0.,           0.
    211,   63.3967781,           0.,           0.
    212,    71.425087,   185.015717,           0.
    213,    80.867981,   144.382767,           0.
    214,   87.7119446,   134.476288,           0.
    215,   87.3662796,   130.248917,           0.
    216,   85.3017731,    139.81897,           0.
    217,   71.4217377,   180.417648,           0.
    218,   71.3097534,   176.039673,           0.
    219,   71.2819672,   171.809738,           0.
    220,   71.2765732,   167.594971,           0.
    221,   71.2839661,   163.378326,           0.
    222,   71.3329544,   159.122711,           0.
    223,   71.4055481,   154.807739,           0.
    224,   71.3433304,   150.456009,           0.
    225,   70.7804871,   146.902313,           0.
    226,   75.2187424,   147.189255,           0.
    227,   95.6762772,   130.961746,           0.
    228,   91.0409393,   130.852097,           0.
    229,   97.6504135,   180.169876,           0.
    230,   97.7082062,    175.94722,           0.
    231,   97.7546997,   171.695557,           0.
    232,   97.7622757,   167.454224,           0.
    233,   97.7608566,   163.215057,           0.
    234,   97.7553864,   158.976212,           0.
    235,   97.7491989,   154.736725,           0.
    236,   97.7437057,   150.496948,           0.
    237,   97.7409363,    146.25708,           0.
    238,   97.6751022,   141.978409,           0.
    239,   97.6007004,    137.74437,           0.
    240,   78.1877289,   186.993881,           0.
    241,   82.3976974,   187.046997,           0.
    242,   86.6489029,   187.058899,           0.
    243,   91.0485992,   186.952576,           0.
    244,   95.6807632,   186.936707,           0.
    245,   75.1359482,   157.012985,           0.
    246,   75.0395737,   178.225479,           0.
    247,   74.9319534,   169.701202,           0.
    248,   74.9420395,   165.487198,           0.
    249,   75.3507919,   152.459686,           0.
    250,     74.96138,   173.963028,           0.
    251,   75.0050735,   161.268433,           0.
    252,   80.2303696,   183.199417,           0.
    253,   74.6271286,   187.294296,           0.
    254,    84.539917,   183.236557,           0.
    255,   88.8828659,   183.307343,           0.
    256,   94.0449219,   152.621246,           0.
    257,   93.9212189,   173.876678,           0.
    258,   94.0891037,    165.33725,           0.
    259,   93.9489822,   144.084854,           0.
    260,   93.8450623,   178.168579,           0.
    261,   94.0633545,   169.585739,           0.
    262,   94.0771179,   161.101074,           0.
    263,   93.7838821,   139.826538,           0.
    264,   97.9552155,   183.736862,           0.
    265,   94.0599213,   156.863266,           0.
    266,    94.016983,   148.370834,           0.
    267,   93.3917313,   135.168015,           0.
    268,    75.611618,   183.002655,           0.
    269,    93.658783,   182.760818,           0.
    270,   78.6979599,    167.85231,           0.
    271,   78.6835556,   172.127777,           0.
    272,   78.6117477,   176.270615,           0.
    273,   78.7668152,   163.697342,           0.
    274,    78.910965,   159.554535,           0.
    275,   86.9094238,   179.712479,           0.
    276,    82.345871,   179.041855,           0.
    277,   90.3395309,   167.299774,           0.
    278,   90.1021957,   171.521667,           0.
    279,   89.5676956,   176.144577,           0.
    280,   90.1658096,   146.339432,           0.
    281,   90.3078079,   150.530045,           0.
    282,   90.3548965,   154.685089,           0.
    283,   90.3443222,   163.066422,           0.
    284,   89.8810806,   142.140884,           0.
    285,   90.3485184,   158.826324,           0.
    286,    78.367836,   179.947998,           0.
    287,   90.5727692,   180.018753,           0.
    288,   97.9076843,   134.190369,           0.
    289,   79.2114563,   155.159119,           0.
    290,   82.8723297,   157.995316,           0.
    291,   82.6314392,   166.380325,           0.
    292,   82.7265854,    162.21579,           0.
    293,   82.3128357,   174.615143,           0.
    294,   82.4913483,   170.522598,           0.
    295,   86.5141678,    164.77858,           0.
    296,   86.5789337,   160.569107,           0.
    297,    86.068512,   173.053528,           0.
    298,   86.3578644,   168.926071,           0.
    299,   86.7478867,   148.693756,           0.
    300,   86.8554611,   152.457825,           0.
    301,   86.6963501,   156.390961,           0.
    302,   86.0665131,   144.830902,           0.
    303,   90.0140839,   138.286133,           0.
    304,   80.1625748,   150.158035,           0.
    305,   85.4408722,   176.513504,           0.
    306,   84.0736923,   150.546265,           0.
    307,   83.5837326,   147.722351,           0.
    308,   83.3119812,   153.784592,           0.
    309,   54.8649902,   144.680664,           0.
    310,   47.6135368,   134.537964,           0.
    311,   63.9599838,   163.385956,           0.
    312,   63.9675026,   159.171432,           0.
    313,   63.9901161,   154.883957,           0.
    314,   60.3411942,    147.27475,           0.
    315,   23.2435207,   187.104691,           0.
    316,   27.4706936,   187.103119,           0.
    317,   31.6982212,   187.102524,           0.
    318,   35.9251404,   187.103119,           0.
    319,   40.1517067,   187.104584,           0.
    320,    44.378067,   187.106476,           0.
    321,   48.6044388,   187.106018,           0.
    322,   52.8547401,   187.072769,           0.
    323,   57.2586212,   186.963791,           0.
    324,   61.8843346,   186.955063,           0.
    325,   3.81623244,   132.984146,           0.
    326,   3.69342279,   142.014374,           0.
    327,   3.68140936,   146.255569,           0.
    328,   3.67980242,   150.495972,           0.
    329,   3.67882228,   154.735748,           0.
    330,   3.67720413,   158.975266,           0.
    331,   3.67546725,     163.2146,           0.
    332,   3.67462778,   167.455109,           0.
    333,   3.67807102,   171.702301,           0.
    334,   3.74254203,    176.04747,           0.
    335,   3.87550259,   180.522369,           0.
    336,   3.87951469,   185.137985,           0.
    337,   23.0859356,   130.832687,           0.
    338,   27.2855701,   130.842804,           0.
    339,   31.4864597,   130.854141,           0.
    340,   35.6930199,   130.862946,           0.
    341,   39.9703598,   130.858383,           0.
    342,   44.3250389,   130.766617,           0.
    343,   47.8960457,   130.261185,           0.
    344,   64.5704193,   146.954971,           0.
    345,   50.2477341,   140.113861,           0.
    346,   64.0793839,   150.527237,           0.
    347,   33.5899887,    134.56395,           0.
    348,   14.6838331,   130.914963,           0.
    349,   18.8868408,   130.844681,           0.
    350,   10.5320501,    130.99173,           0.
    351,   25.1680813,   134.515717,           0.
    352,   29.3723583,   134.544357,           0.
    353,   37.8927765,   134.588486,           0.
    354,   63.9616394,   167.600632,           0.
    355,   60.2858658,   156.984528,           0.
    356,   63.7931976,   176.045486,           0.
    357,   63.8704338,   171.817993,           0.
    358,   64.1341095,   183.797577,           0.
    359,   60.2789917,   161.270081,           0.
    360,   63.8131332,   180.210083,           0.
    361,   19.0173874,   187.105682,           0.
    362,   29.5825462,    183.42923,           0.
    363,   14.8094654,   187.130035,           0.
    364,   10.6373653,   187.144806,           0.
    365,   7.05951786,   187.404755,           0.
    366,   54.9734192,    183.34053,           0.
    367,   46.4905434,   183.437164,           0.
    368,   25.3564167,   183.432785,           0.
    369,   33.8122025,   183.428314,           0.
    370,   38.0400009,   183.430878,           0.
    371,   42.2660942,   183.434219,           0.
    372,   50.7150764,   183.411316,           0.
    373,   3.81848812,   137.615463,           0.
    374,   7.49749327,   178.329895,           0.
    375,   7.39383221,   173.940521,           0.
    376,   7.50226831,   144.113235,           0.
    377,   7.36052704,   156.856964,           0.
    378,   7.38701534,   148.371414,           0.
    379,   7.36763382,   152.615891,           0.
    380,   7.35695076,   161.096893,           0.
    381,   7.35378361,   165.337952,           0.
    382,   7.35919905,   169.600052,           0.
    383,   59.7713242,   182.776932,           0.
    384,   8.06896114,   183.156616,           0.
    385,   60.2636414,   152.424713,           0.
    386,   16.7434139,   134.562271,           0.
    387,   12.5537949,    134.64679,           0.
    388,   35.7389183,   138.318054,           0.
    389,   31.4643421,    138.27681,           0.
    390,   27.2361279,   138.234833,           0.
    391,   20.9656487,   134.515091,           0.
    392,   60.1668396,   169.700928,           0.
    393,   59.8844681,   178.189636,           0.
    394,   59.9388313,   173.936935,           0.
    395,   56.5674782,   159.136398,           0.
    396,   16.9230957,   183.340683,           0.
    397,   12.6674852,   183.317657,           0.
    398,   31.6957378,   179.745087,           0.
    399,   52.8482094,   179.819885,           0.
    400,   48.6206131,   179.792648,           0.
    401,   44.3850594,   179.764862,           0.
    402,   40.1578407,   179.753082,           0.
    403,   35.9288368,    179.74556,           0.
    404,   27.4625683,   179.741547,           0.
    405,   21.1552181,   183.429001,           0.
    406,   60.2631912,   165.498077,           0.
    407,   11.0593767,    150.46727,           0.
    408,   11.1799278,   146.279388,           0.
    409,    11.025753,   171.831284,           0.
    410,   11.0133629,   176.226868,           0.
    411,   11.0332909,   167.486389,           0.
    412,   11.0391073,   163.225479,           0.
    413,    11.053319,   154.729996,           0.
    414,   11.0465813,    158.97998,           0.
    415,   7.61764956,   139.789902,           0.
    416,   56.6113853,   180.053802,           0.
    417,   42.4562988,   134.637253,           0.
    418,   8.02339458,   134.968094,           0.
    419,   55.6102028,   176.161392,           0.
    420,   18.7801285,   138.157425,           0.
    421,   14.5533657,   138.130157,           0.
    422,   56.4978828,   167.595764,           0.
    423,   29.3060894,   141.979218,           0.
    424,   33.5682602,   142.039291,           0.
    425,   56.3003197,   171.711243,           0.
    426,   23.0169029,   138.196228,           0.
    427,   19.1338463,   179.622498,           0.
    428,   38.0495605,    176.05867,           0.
    429,   14.6798353,   178.978134,           0.
    430,   42.2607498,   176.083084,           0.
    431,   46.5366402,   176.067673,           0.
    432,   50.8908386,   176.181366,           0.
    433,   33.8126564,    176.05249,           0.
    434,     29.57341,   176.039688,           0.
    435,    14.732276,   161.107544,           0.
    436,   14.7076941,   165.333603,           0.
    437,    14.725625,   148.370728,           0.
    438,   14.7319441,   169.697098,           0.
    439,    10.785428,   180.001831,           0.
    440,   14.6265726,   174.153183,           0.
    441,   14.7400913,   156.855026,           0.
    442,   14.7236233,   152.586227,           0.
    443,   23.2594833,   179.705872,           0.
    444,   11.8292198,   141.795135,           0.
    445,     56.56036,     163.3918,           0.
    446,   56.5111542,   154.713531,           0.
    447,   40.1834755,   138.440979,           0.
    448,   6.99355125,   130.660736,           0.
    449,   10.9154844,   137.866013,           0.
    450,   20.8164711,   141.874573,           0.
    451,   52.8256111,   165.507019,           0.
    452,   16.5014286,   141.744644,           0.
    453,   52.7535095,   169.609283,           0.
    454,   31.3611202,   145.775528,           0.
    455,   21.2131939,   175.975174,           0.
    456,    17.672802,    176.15451,           0.
    457,   40.1629601,   172.418503,           0.
    458,    44.365097,   172.481522,           0.
    459,   48.9405022,   172.069824,           0.
    460,   35.9346313,   172.370056,           0.
    461,    18.372057,   163.225235,           0.
    462,   18.3326626,   167.461044,           0.
    463,   18.7671528,   172.115936,           0.
    464,   25.0812988,   141.914322,           0.
    465,   31.7244415,   172.362503,           0.
    466,   18.2491646,   150.449936,           0.
    467,   18.4181728,   158.987747,           0.
    468,   18.3539085,   154.701508,           0.
    469,   52.8367271,   161.282684,           0.
    470,   14.5448675,   144.806976,           0.
    471,   25.3725681,   176.018463,           0.
    472,   44.8720894,   138.726868,           0.
    473,   37.9030952,   142.141724,           0.
    474,   52.8132629,   156.978577,           0.
    475,   18.4419117,   145.929672,           0.
    476,   22.9123249,   145.586792,           0.
    477,   49.1722031,   167.653564,           0.
    478,   49.0909538,   163.514709,           0.
    479,   23.2953663,   172.266266,           0.
    480,   42.4924088,   168.866714,           0.
    481,   38.2432671,   168.579681,           0.
    482,   21.8836479,   165.410431,           0.
    483,   22.0249329,   161.173325,           0.
    484,   52.8990746,   173.146622,           0.
    485,   33.9259758,   168.671021,           0.
    486,   22.1317902,   156.714798,           0.
    487,     21.84692,    152.32019,           0.
    488,    27.071167,   145.710083,           0.
    489,   27.5224571,   172.254837,           0.
    490,   35.6671295,   145.846802,           0.
    491,   49.0979614,   159.221329,           0.
    492,   42.4099617,   142.408218,           0.
    493,   52.7811813,   152.518387,           0.
    494,    24.748951,   149.307999,           0.
    495,   45.4996986,   165.882584,           0.
    496,   41.0638084,   164.339066,           0.
    497,     25.43297,   163.512695,           0.
    498,   25.8475056,   159.137726,           0.
    499,   36.1655083,   164.766312,           0.
    500,   26.4288216,   154.023163,           0.
    501,   45.3469315,   161.576035,           0.
    502,   29.7942257,    168.66748,           0.
    503,   29.0708675,   149.636429,           0.
    504,   33.4852257,    149.59169,           0.
    505,   40.1035194,   146.254318,           0.
    506,   49.1812744,   154.721909,           0.
    507,    56.250309,   150.012619,           0.
    508,   46.4846306,   142.697449,           0.
    509,   25.3994217,   168.089539,           0.
    510,   21.5356503,   169.068649,           0.
    511,   46.0939827,   169.390839,           0.
    512,   21.2398548,   148.718918,           0.
    513,   29.2170429,   161.913498,           0.
    514,   38.1697617,   161.223358,           0.
    515,   30.0749741,   157.595291,           0.
    516,   31.8795128,   165.009598,           0.
    517,   45.0676308,   147.118286,           0.
    518,   37.6632233,   149.778107,           0.
    519,    31.415659,   153.424103,           0.
    520,   45.5039406,   157.048813,           0.
    521,   52.5915565,   148.522293,           0.
    522,   49.1738396,   150.115005,           0.
    523,   49.7383995,    145.54126,           0.
    524,    28.344635,   165.438568,           0.
    525,    33.800602,   156.376389,           0.
    526,   33.8993034,   160.565002,           0.
    527,   41.6776886,   159.369995,           0.
    528,   35.5975456,    153.22937,           0.
    529,   41.6118393,   150.615555,           0.
    530,    45.422081,   152.430283,           0.
    531,   37.7673836,   156.980225,           0.
    532,   38.9267883,   153.113083,           0.
    533,   41.8182869,   154.926331,           0.
    534,   90.9539108,   122.392715,           0.
    535,   87.1709595,    123.84227,           0.
    536,   86.6456833,   3.80633759,           0.
    537,   82.3330231,   3.79590774,           0.
    538,   73.2561188,   3.85949063,           0.
    539,   71.2858658,   73.9987106,           0.
    540,   71.2858963,    78.227211,           0.
    541,    71.288887,   90.9118652,           0.
    542,   71.2985077,   95.1455231,           0.
    543,   71.2858887,   65.5417175,           0.
    544,    71.266098,   14.8092804,           0.
    545,   71.2824249,   19.0297718,           0.
    546,   71.2852631,   23.2569771,           0.
    547,   71.2857742,   27.4852695,           0.
    548,   71.2858887,   31.7137375,           0.
    549,   71.2859116,   35.9422302,           0.
    550,   71.2859192,   40.1707268,           0.
    551,   71.2859268,   44.3992271,           0.
    552,   71.2859268,   48.6277237,           0.
    553,   71.2859268,   52.8562202,           0.
    554,   71.2859344,   57.0847206,           0.
    555,   71.2859726,   61.3132172,           0.
    556,   71.2859726,   69.7702103,           0.
    557,   71.2860031,   82.4556885,           0.
    558,   71.2868805,   86.6839218,           0.
    559,   71.3162537,   99.4582367,           0.
    560,   71.2345047,   103.846321,           0.
    561,   70.7058411,   107.428291,           0.
    562,   98.1911469,   120.001656,           0.
    563,    97.891983,   116.460091,           0.
    564,   97.7676849,   112.316254,           0.
    565,   97.7479401,   108.096115,           0.
    566,   97.7496185,   103.860878,           0.
    567,    97.755249,   99.6227188,           0.
    568,   97.7600861,   95.3842163,           0.
    569,   97.7624817,   91.1452637,           0.
    570,   97.7636261,   86.9061356,           0.
    571,   97.7640076,   82.6668701,           0.
    572,   97.7641373,   78.4275665,           0.
    573,   97.7641754,   74.1882477,           0.
    574,    97.764183,   69.9489212,           0.
    575,   97.7641907,   65.7095947,           0.
    576,   97.7641754,   61.4702644,           0.
    577,   97.7641907,   57.2309341,           0.
    578,   97.7641983,   52.9916077,           0.
    579,   97.7641983,   48.7522774,           0.
    580,   97.7641983,   44.5129509,           0.
    581,   97.7641983,   40.2736206,           0.
    582,   97.7641983,   36.0342903,           0.
    583,   97.7642059,   31.7949638,           0.
    584,   97.7642517,   27.5556259,           0.
    585,    97.764328,   23.3162785,           0.
    586,    97.764473,   19.0769367,           0.
    587,   97.7303848,   14.8136282,           0.
    588,   97.6104507,   10.3858194,           0.
    589,   97.6003571,   5.74803925,           0.
    590,   75.0768509,   107.172165,           0.
    591,   80.7610931,   109.988594,           0.
    592,    85.154747,   114.635338,           0.
    593,   86.7268372,   119.863251,           0.
    594,    95.917305,   123.087975,           0.
    595,   90.8407059,    3.8249445,           0.
    596,   77.8902817,   3.86382771,           0.
    597,   84.3984833,   7.70327377,           0.
    598,   94.4056549,   3.47066069,           0.
    599,   71.2630005,   10.6197395,           0.
    600,   74.9696274,   93.0254593,           0.
    601,   74.9491501,   76.1129608,           0.
    602,   74.9492111,   54.9704704,           0.
    603,   74.9491959,   63.4274673,           0.
    604,   74.9492111,   46.5134735,           0.
    605,   74.9492035,   38.0564766,           0.
    606,   74.9491119,   29.5994682,           0.
    607,   74.9489441,   25.3709621,           0.
    608,   74.9701233,   21.0889511,           0.
    609,   74.9731827,   16.7556725,           0.
    610,    74.949295,   33.8279724,           0.
    611,     74.94944,    80.341362,           0.
    612,   71.0020905,   7.03939486,           0.
    613,   75.2031479,   101.880913,           0.
    614,   75.0421829,   97.3011246,           0.
    615,   74.9558411,   88.7956238,           0.
    616,   74.9511795,    84.568985,           0.
    617,   74.9492569,   71.8844604,           0.
    618,   74.9493561,   67.6559601,           0.
    619,   74.9493179,    59.198967,           0.
    620,   74.9493332,   50.7419739,           0.
    621,   74.9493256,    42.284977,           0.
    622,   94.0941086,    72.068573,           0.
    623,   94.0765228,   97.4995041,           0.
    624,   94.0916061,   89.0250778,           0.
    625,   94.0939255,   80.5471649,           0.
    626,   94.0816727,   114.526932,           0.
    627,   94.0283279,   105.965309,           0.
    628,   94.0941086,   63.5899277,           0.
    629,   94.0941696,   59.3505974,           0.
    630,   94.0935745,   21.1982079,           0.
    631,   94.0942383,   67.8292542,           0.
    632,   93.9848938,   110.209854,           0.
    633,   94.0941696,   55.1112709,           0.
    634,   94.0941696,   50.8719406,           0.
    635,   94.0941925,   46.6326141,           0.
    636,   94.0941925,   42.3932838,           0.
    637,   94.0942001,   38.1539574,           0.
    638,   94.0942078,   33.9146233,           0.
    639,   94.0942841,   29.6752644,           0.
    640,   94.0943527,    25.436142,           0.
    641,   94.0536575,   101.732269,           0.
    642,   94.5483551,   118.916679,           0.
    643,   94.0933228,   84.7862091,           0.
    644,   94.0859833,   93.2624741,           0.
    645,   94.0941772,   76.3078842,           0.
    646,   94.0680618,   16.9656944,           0.
    647,   93.9735489,   12.6765985,           0.
    648,   93.4040451,   7.86839533,           0.
    649,   75.2339401,   8.04169178,           0.
    650,    79.984436,   7.57513189,           0.
    651,   88.7651367,   7.74658251,           0.
    652,   78.7110748,   73.7663269,           0.
    653,   78.7389526,   90.6525421,           0.
    654,   78.7363815,   77.9363861,           0.
    655,   78.7110748,   61.0769272,           0.
    656,   78.7438049,   65.2281647,           0.
    657,   78.7274551,   56.8078423,           0.
    658,   78.7389832,   52.5500183,           0.
    659,   78.7423706,   48.3116684,           0.
    660,   78.7527466,   86.3681641,           0.
    661,    78.765686,   82.1002197,           0.
    662,   78.7580872,   69.4244766,           0.
    663,   78.6047516,   44.1904106,           0.
    664,   78.5587845,   40.2322464,           0.
    665,   78.6856918,   36.2142754,           0.
    666,   78.7292328,   32.0472183,           0.
    667,   78.8390121,   27.7118664,           0.
    668,   78.9254761,   23.0840263,           0.
    669,   78.8248901,   18.4733696,           0.
    670,    74.924942,   12.5339746,           0.
    671,   78.8122177,   94.8012238,           0.
    672,   79.1064911,   99.1893082,           0.
    673,   90.3575287,   53.1562347,           0.
    674,    90.348259,   48.9407158,           0.
    675,   90.3453979,   57.4244423,           0.
    676,   90.2299881,   44.6229553,           0.
    677,   90.1863861,   40.2109108,           0.
    678,   90.3462601,   61.6607094,           0.
    679,   90.2917404,    35.856842,           0.
    680,    90.347435,   65.8961563,           0.
    681,   90.3489685,   31.5701122,           0.
    682,   90.3449631,   70.1403122,           0.
    683,   90.5171585,   27.4102802,           0.
    684,   90.3448563,   74.3787384,           0.
    685,   90.3467789,   78.6122131,           0.
    686,   90.3485565,   82.8454208,           0.
    687,   90.4086304,   14.8434906,           0.
    688,   90.5553894,   23.3867283,           0.
    689,   90.3487778,   87.0808792,           0.
    690,   90.4230423,   19.2004395,           0.
    691,    89.933548,   112.379578,           0.
    692,   90.3490295,   91.3113861,           0.
    693,   90.3561172,   95.5155106,           0.
    694,   90.3528442,   99.6908417,           0.
    695,   90.1179047,   108.023773,           0.
    696,   90.2331772,    117.11908,           0.
    697,   90.2894974,   103.857025,           0.
    698,   90.6406326,   11.0395613,           0.
    699,   86.4806442,   12.1807165,           0.
    700,   82.6856155,   92.1289444,           0.
    701,   82.8136368,    96.346283,           0.
    702,   81.7092438,   11.3355188,           0.
    703,   82.6213531,   58.3683853,           0.
    704,   82.6364975,   71.0311661,           0.
    705,   82.6328201,   75.2734222,           0.
    706,   82.6435928,    79.481781,           0.
    707,   82.6584396,   83.6834106,           0.
    708,   82.6627426,   87.9197769,           0.
    709,   82.6403656,   62.5559769,           0.
    710,   82.6507263,   66.7646561,           0.
    711,    82.632843,   54.1079674,           0.
    712,    82.639328,   49.8591576,           0.
    713,    82.362915,   45.6676064,           0.
    714,   81.5697174,   42.2493553,           0.
    715,   82.2782288,    38.906601,           0.
    716,    82.540535,   34.7847328,           0.
    717,   82.7488708,   30.4142704,           0.
    718,   83.4617996,   25.3615646,           0.
    719,   82.8672104,   20.2173347,           0.
    720,   78.5296021,   14.2367849,           0.
    721,   86.7362823,     101.9505,           0.
    722,   86.6473694,   97.9511642,           0.
    723,   86.5701828,   93.7864532,           0.
    724,   86.5312881,   89.5746002,           0.
    725,   86.5188446,   85.3509216,           0.
    726,   86.5802307,   17.2953148,           0.
    727,   86.5127716,   81.1241837,           0.
    728,   86.5053329,   76.9045258,           0.
    729,   86.5038147,   72.6718369,           0.
    730,   86.5084305,   68.4249039,           0.
    731,   86.5075836,   64.1911316,           0.
    732,   86.5017929,   59.9690895,           0.
    733,   86.5028458,   55.7305336,           0.
    734,   86.5069809,    51.484684,           0.
    735,   86.3242111,   47.1598549,           0.
    736,   85.6241684,   42.3563232,           0.
    737,    86.242424,   37.5841751,           0.
    738,   86.4713364,   33.2064896,           0.
    739,   86.8388214,   28.8996868,           0.
    740,   86.8954163,   21.8161316,           0.
    741,    87.653717,   25.3748779,           0.
    742,   86.6395493,   105.734497,           0.
    743,   85.9757538,   109.596413,           0.
    744,   78.0764313,   10.7446203,           0.
    745,   82.4986343,   15.6231728,           0.
    746,   83.8915024,   103.877014,           0.
    747,   80.0457687,   104.210274,           0.
    748,   83.4627304,   106.681358,           0.
    749,   83.2068405,   100.587425,           0.
    750,   63.7974167,   5.67006445,           0.
    751,   54.7053719,   110.512383,           0.
    752,   51.3574715,   114.802109,           0.
    753,   47.9299622,   123.932632,           0.
    754,   63.9532089,   23.2559319,           0.
    755,    63.959671,   27.4850712,           0.
    756,   63.9607124,   31.7136993,           0.
    757,   63.9608727,   35.9422226,           0.
    758,   63.9608917,   40.1707268,           0.
    759,   63.9608917,   44.3992271,           0.
    760,   63.9608917,   48.6277237,           0.
    761,   63.9608917,   52.8562202,           0.
    762,   63.9608917,   57.0847206,           0.
    763,   63.9608917,   61.3132172,           0.
    764,   63.9608994,   65.5417175,           0.
    765,   63.9608536,   69.7702103,           0.
    766,   63.9606819,   73.9987106,           0.
    767,   63.9591827,   78.2269516,           0.
    768,   63.9546585,   82.4545288,           0.
    769,   63.9477768,   86.6822662,           0.
    770,   63.9401932,   90.9109802,           0.
    771,   63.9012527,   95.1738281,           0.
    772,   63.8264046,   99.5081253,           0.
    773,   63.8032875,   103.887764,           0.
    774,   64.3427429,   107.454445,           0.
    775,   47.7051353,    119.12104,           0.
    776,   59.5454407,   107.127472,           0.
    777,   27.2865868,   123.531029,           0.
    778,   31.4865704,   123.525368,           0.
    779,   35.7199936,   123.488327,           0.
    780,   40.0174637,   123.415916,           0.
    781,   44.3580627,   123.391396,           0.
    782,   3.61294627,   10.6649504,           0.
    783,   3.63993025,    14.853714,           0.
    784,   3.66493773,   19.0802364,           0.
    785,   3.66973853,   23.3170033,           0.
    786,   3.67076445,   27.5557671,           0.
    787,   3.67096019,   31.7949905,           0.
    788,   3.67100668,   36.0342979,           0.
    789,   3.67100739,   40.2736206,           0.
    790,   3.67100644,   44.5129509,           0.
    791,    3.6710062,   48.7522774,           0.
    792,   3.67100596,   52.9916077,           0.
    793,   3.67099929,   57.2309341,           0.
    794,    3.6710062,   61.4702644,           0.
    795,   3.67100859,   65.7095947,           0.
    796,   3.67100906,   69.9489212,           0.
    797,   3.67105556,   74.1882324,           0.
    798,   3.67145276,   78.4274597,           0.
    799,   3.67278767,   82.6665192,           0.
    800,   3.67449474,   86.9057846,           0.
    801,   3.67523813,   91.1455383,           0.
    802,   3.67455482,   95.3852386,           0.
    803,   3.67307472,   99.6246643,           0.
    804,   3.67138124,    103.86396,           0.
    805,    3.6741972,   108.111214,           0.
    806,   3.73730445,   112.460388,           0.
    807,   3.86390328,   116.938606,           0.
    808,   3.86066151,   121.554062,           0.
    809,    57.045845,   3.65773606,           0.
    810,   52.8448143,   3.65373945,           0.
    811,    48.609005,   3.65780306,           0.
    812,   44.3789253,   3.65976572,           0.
    813,   40.1515656,   3.66047335,           0.
    814,   35.9249306,   3.66081429,           0.
    815,   31.6984539,   3.66110778,           0.
    816,   27.4720001,   3.66142321,           0.
    817,   23.2455463,   3.66168904,           0.
    818,   19.0190907,   3.66193247,           0.
    819,   14.6895828,   3.72909498,           0.
    820,   10.2208405,   3.87352705,           0.
    821,   5.61724281,   3.88546443,           0.
    822,   23.0887699,   123.533516,           0.
    823,   42.3346138,   119.519005,           0.
    824,   33.5987282,    119.82164,           0.
    825,     14.71558,   123.558128,           0.
    826,   18.8956566,   123.538811,           0.
    827,   29.3779144,   119.855827,           0.
    828,   10.5747337,   123.566879,           0.
    829,   7.01973152,   123.821289,           0.
    830,   37.8776741,   119.702278,           0.
    831,   60.6191559,   3.40898347,           0.
    832,   21.1235542,   7.32637262,           0.
    833,    54.952507,   7.33019209,           0.
    834,   38.0384064,   7.32194805,           0.
    835,   50.7256126,   7.31964636,           0.
    836,   46.4939156,   7.32019854,           0.
    837,   42.2654762,   7.32127905,           0.
    838,   33.8119545,   7.32267523,           0.
    839,    29.585495,   7.32339907,           0.
    840,   25.3575592,   7.32448626,           0.
    841,   16.7792397,   7.37765074,           0.
    842,   12.3960447,   7.49131632,           0.
    843,   60.2047577,   93.0408783,           0.
    844,   60.2943077,   76.1113358,           0.
    845,   60.2982903,    38.056469,           0.
    846,   60.2982521,   46.5134735,           0.
    847,   60.2982559,   54.9704704,           0.
    848,    60.298233,   63.4274673,           0.
    849,   63.9049759,   19.0229607,           0.
    850,   63.8059235,   14.7240744,           0.
    851,   60.2772255,   25.3717995,           0.
    852,   60.2946358,   29.5995274,           0.
    853,   60.2976303,   33.8279648,           0.
    854,   59.9013443,   101.820892,           0.
    855,   60.2452126,   88.7923508,           0.
    856,   60.0824013,   97.3471832,           0.
    857,    60.298214,   42.2849731,           0.
    858,   60.2981949,   50.7419739,           0.
    859,   60.2981834,    59.198967,           0.
    860,   60.2979736,   67.6559067,           0.
    861,   60.2967033,    71.883812,           0.
    862,   60.2856941,   80.3366928,           0.
    863,   60.2681465,   84.5616684,           0.
    864,   7.47635841,   114.748672,           0.
    865,   7.34746218,    105.99575,           0.
    866,   7.34188032,    72.068512,           0.
    867,   7.34524918,   80.5457458,           0.
    868,   7.35257959,   89.0250015,           0.
    869,   7.35025978,   97.5064926,           0.
    870,   7.34171963,   63.5899277,           0.
    871,   7.34103203,   25.4362602,           0.
    872,   7.34170818,   33.9146385,           0.
    873,   7.34169388,   38.1539574,           0.
    874,   7.34169292,   42.3932838,           0.
    875,   7.34169245,   46.6326141,           0.
    876,   7.34169245,   50.8719406,           0.
    877,   7.34169197,   55.1112709,           0.
    878,    7.3416481,   59.3505974,           0.
    879,   7.43607998,   16.9308033,           0.
    880,    3.3544085,   7.07593346,           0.
    881,   7.44123936,   12.6668062,           0.
    882,   7.35562658,   21.1930122,           0.
    883,   7.34142065,   29.6753731,           0.
    884,   7.34170961,   67.8292465,           0.
    885,   7.34975863,   84.7844467,           0.
    886,   7.35335493,   93.2661896,           0.
    887,   7.34287405,   76.3072891,           0.
    888,   7.34732246,   101.747871,           0.
    889,   7.38156366,   110.354858,           0.
    890,   8.03113079,    119.57814,           0.
    891,   59.5204315,   7.65202427,           0.
    892,   7.61695576,   8.06648731,           0.
    893,   21.0078888,   119.891861,           0.
    894,   16.8249149,   119.782013,           0.
    895,   12.6011095,   119.747231,           0.
    896,   35.6755562,   116.049713,           0.
    897,   31.4610977,   116.143089,           0.
    898,   25.1821728,   119.872429,           0.
    899,   44.3785706,   10.9787617,           0.
    900,   48.6047859,   10.9551172,           0.
    901,   52.8488312,   10.8964767,           0.
    902,   40.1521225,   10.9829025,           0.
    903,   14.5278234,   10.9577913,           0.
    904,   27.4726105,    10.987009,           0.
    905,    31.699297,   10.9858389,           0.
    906,    23.225893,   10.9910297,           0.
    907,   18.8902397,   10.9582977,           0.
    908,   35.9257431,   10.9846077,           0.
    909,   59.9334145,   16.8480797,           0.
    910,   56.6184425,   78.2170792,           0.
    911,   56.6280403,   73.9940948,           0.
    912,   63.7006645,   10.2825117,           0.
    913,   56.6348038,   31.7135372,           0.
    914,   56.6352501,   40.1707001,           0.
    915,   56.6125107,   27.4892273,           0.
    916,   56.6351738,   44.3992157,           0.
    917,   56.6351814,   52.8562202,           0.
    918,   56.6350594,   61.3131828,           0.
    919,   56.6346283,   65.5415878,           0.
    920,   56.6350555,    35.942131,           0.
    921,   56.6351089,   48.6277199,           0.
    922,   56.6350632,   57.0847015,           0.
    923,   56.6325798,   69.7688293,           0.
    924,   56.4039803,   95.1361847,           0.
    925,    56.595993,   82.4365158,           0.
    926,   56.5072784,   90.8927612,           0.
    927,   56.5586586,   86.6587601,           0.
    928,     60.14711,   21.1443768,           0.
    929,   11.0120153,   52.9916039,           0.
    930,   11.0122614,   69.9488373,           0.
    931,   11.0120564,   65.7095642,           0.
    932,   11.0172329,    78.424202,           0.
    933,   11.0119619,   36.0342827,           0.
    934,   11.0119972,   44.5129509,           0.
    935,   11.0119553,   57.2309341,           0.
    936,   11.0119209,   40.2736168,           0.
    937,   11.0119286,   48.7522774,           0.
    938,   11.0119371,   61.4702568,           0.
    939,   11.0138607,   74.1869583,           0.
    940,   11.1365232,   19.1299019,           0.
    941,   11.0413408,   23.3200531,           0.
    942,   11.0117502,   31.7949429,           0.
    943,    11.768631,    14.638319,           0.
    944,    11.016366,   27.5562382,           0.
    945,   11.0356731,   91.1453171,           0.
    946,   11.0181313,   103.882195,           0.
    947,   11.0281639,   99.6325989,           0.
    948,    11.002862,   108.255951,           0.
    949,   10.9797869,   112.652107,           0.
    950,   11.0243673,   82.6613541,           0.
    951,   11.0346432,   95.3892899,           0.
    952,   11.0318804,   86.9017029,           0.
    953,   23.1013203,   116.199059,           0.
    954,   19.0250206,   116.067276,           0.
    955,   14.6139612,   115.412056,           0.
    956,   33.5127907,     112.3992,           0.
    957,   52.9279213,   80.3091888,           0.
    958,   52.8861847,   84.5203323,           0.
    959,   42.2650146,   14.6404305,           0.
    960,   38.0395355,   14.6458912,           0.
    961,   25.3468189,   14.6521158,           0.
    962,   20.9851456,   14.6772985,           0.
    963,   50.8928642,   14.5785732,           0.
    964,    46.586956,   14.7031879,           0.
    965,   33.8134842,   14.6483498,           0.
    966,   29.5848541,   14.6503286,           0.
    967,   16.5531979,   14.5800762,           0.
    968,    56.541935,   10.5964556,           0.
    969,    56.308979,   19.1182613,           0.
    970,   59.8427505,   12.4500523,           0.
    971,   52.9715805,   54.9704323,           0.
    972,   52.9708176,   63.4271812,           0.
    973,   52.9716682,   46.5134583,           0.
    974,   52.9712639,    59.198822,           0.
    975,   52.9715424,   50.7419586,           0.
    976,   52.9717026,   42.2849197,           0.
    977,   52.9686584,   67.6541977,           0.
    978,   52.9630318,   71.8775482,           0.
    979,   52.9717865,   38.0563049,           0.
    980,   52.9223518,   29.6247673,           0.
    981,   52.9635544,   33.8318672,           0.
    982,     52.94981,    76.094902,           0.
    983,   56.5122108,   23.2870865,           0.
    984,   10.7501392,   10.7641439,           0.
    985,    10.740469,   116.427643,           0.
    986,   52.7460175,   92.9610825,           0.
    987,   52.8261948,   88.7398834,           0.
    988,   14.6971035,   80.5371323,           0.
    989,   14.7180977,   97.5153427,           0.
    990,   14.7092257,   84.7752762,           0.
    991,   14.6896696,   101.752525,           0.
    992,   14.6840801,    72.066925,           0.
    993,   14.6819382,   63.5898933,           0.
    994,   14.6817951,   42.3932762,           0.
    995,   14.6818314,   50.8719368,           0.
    996,   14.6817369,   46.6326103,           0.
    997,   14.6817904,   55.1112633,           0.
    998,   14.6817627,   59.3505821,           0.
    999,   14.6816807,   38.1539154,           0.
   1000,   14.6824989,   67.8288879,           0.
   1001,   14.6890802,   76.3021927,           0.
   1002,   14.6814728,   33.9145164,           0.
   1003,   14.6818867,   29.6751537,           0.
   1004,    14.689805,   25.4309196,           0.
   1005,   14.5548439,   17.6460609,           0.
   1006,   14.7239532,   21.2580547,           0.
   1007,    14.574666,   110.574547,           0.
   1008,   14.7066154,   106.124702,           0.
   1009,   14.7227821,   93.2685165,           0.
   1010,   27.2628498,     116.1754,           0.
   1011,   14.7189283,   89.0200653,           0.
   1012,   56.2038193,   99.4050369,           0.
   1013,   39.9207115,   115.855598,           0.
   1014,   18.5723801,   18.7428551,           0.
   1015,   25.1743412,    112.47184,           0.
   1016,   21.1020985,   112.430496,           0.
   1017,    17.594162,   112.595749,           0.
   1018,   49.2198944,   82.3812943,           0.
   1019,   49.2607079,   78.1811066,           0.
   1020,   49.1587029,   86.5898819,           0.
   1021,   37.6813698,   112.242065,           0.
   1022,   49.2843361,   73.9750824,           0.
   1023,   40.1575775,   18.3197937,           0.
   1024,   35.9292297,   18.3149204,           0.
   1025,   44.3664169,   18.3556252,           0.
   1026,   48.9248695,   18.7979336,           0.
   1027,    27.449976,   18.2168999,           0.
   1028,   23.2024689,   18.2279224,           0.
   1029,   31.6956234,   18.2537823,           0.
   1030,   55.6040154,   14.5893669,           0.
   1031,   52.7685966,   21.2745094,           0.
   1032,   49.3072624,   57.0844727,           0.
   1033,   49.3077278,   44.3991394,           0.
   1034,   49.3075905,   48.6276855,           0.
   1035,   49.3073997,   52.8561211,           0.
   1036,   49.3481026,   31.8375473,           0.
   1037,   49.3063202,   61.3125153,           0.
   1038,   49.3036346,   65.5388031,           0.
   1039,   49.2966843,   69.7598877,           0.
   1040,   49.3078346,    40.170475,           0.
   1041,   49.3132858,   35.9631042,           0.
   1042,   52.8273659,   25.4531536,           0.
   1043,   18.3831196,   82.6463852,           0.
   1044,   49.0823402,   90.8053818,           0.
   1045,   18.3687954,   78.4126816,           0.
   1046,   18.3547153,   99.6385193,           0.
   1047,   18.3511639,   48.7522697,           0.
   1048,   18.3510742,    44.512928,           0.
   1049,   18.3509483,   40.2735291,           0.
   1050,   18.3511524,   52.9915886,           0.
   1051,   18.3511906,   57.2308922,           0.
   1052,   18.3514099,   61.4701347,           0.
   1053,   18.3520756,   65.7092056,           0.
   1054,   18.3542442,   69.9465485,           0.
   1055,   18.3598156,   74.1804428,           0.
   1056,   18.3506622,     36.03405,           0.
   1057,   18.3502941,   31.7944794,           0.
   1058,   18.4578037,   27.4967327,           0.
   1059,   18.4567699,   23.2404785,           0.
   1060,   18.2792072,   103.904434,           0.
   1061,   18.6797657,   108.567314,           0.
   1062,    18.404068,   95.3943481,           0.
   1063,   18.3993549,   86.8893661,           0.
   1064,   18.4084396,   91.1407242,           0.
   1065,   29.3331776,   112.447777,           0.
   1066,   52.5762672,   97.1550064,           0.
   1067,   44.2244873,   115.431503,           0.
   1068,   55.9433517,   103.801491,           0.
   1069,   27.1466637,   108.680344,           0.
   1070,   23.0555859,   108.782715,           0.
   1071,    45.557415,    80.244751,           0.
   1072,   45.4960442,   84.4376526,           0.
   1073,   35.5078735,    108.59375,           0.
   1074,   45.5963898,   76.0566177,           0.
   1075,   45.4213104,   88.6495514,           0.
   1076,   45.6191177,   71.8561859,           0.
   1077,   22.0546818,   80.5166321,           0.
   1078,   42.2454834,   22.0786247,           0.
   1079,   38.0353966,   22.0877895,           0.
   1080,   45.8964462,   21.7357578,           0.
   1081,   33.8066216,   21.9254723,           0.
   1082,   25.3117065,   21.6518326,           0.
   1083,   29.5463142,   21.7911472,           0.
   1084,     45.64151,   59.1975899,           0.
   1085,    45.638485,   63.4232254,           0.
   1086,    45.643158,     46.51334,           0.
   1087,   45.6429138,   50.7418098,           0.
   1088,   45.6423721,   54.9698792,           0.
   1089,   45.6312904,    67.643158,           0.
   1090,   49.0603485,   23.4845448,           0.
   1091,    45.643322,   42.2846527,           0.
   1092,   45.6741867,   38.0610695,           0.
   1093,   45.8311691,   33.8068314,           0.
   1094,   49.2008133,   27.7672825,           0.
   1095,   22.0391693,   76.2885208,           0.
   1096,   22.1710415,   97.6814651,           0.
   1097,   22.0238514,   67.8260345,           0.
   1098,   22.0216618,   63.5886765,           0.
   1099,   22.0297203,   72.0588074,           0.
   1100,   22.0200615,   50.8719025,           0.
   1101,   22.0201626,   55.1111565,           0.
   1102,   22.0199261,   46.6325645,           0.
   1103,    22.019743,   42.3931236,           0.
   1104,   22.0206108,    59.350132,           0.
   1105,   22.0193901,    38.153553,           0.
   1106,   22.0188007,   33.9138336,           0.
   1107,   22.1076775,   29.7028103,           0.
   1108,   21.8990631,   102.031288,           0.
   1109,   22.6781788,   25.2670975,           0.
   1110,   22.0756607,   84.7539978,           0.
   1111,   52.3640518,   101.526672,           0.
   1112,   31.3038578,   108.606483,           0.
   1113,    22.131937,   93.3155365,           0.
   1114,   22.1003304,   89.0172729,           0.
   1115,    48.974762,    94.971344,           0.
   1116,   41.8049355,   111.988968,           0.
   1117,   52.8998642,   17.6717281,           0.
   1118,   21.6443005,   21.4260368,           0.
   1119,   39.6379318,   108.469254,           0.
   1120,   45.7941284,   111.483017,           0.
   1121,   52.0633736,   106.408691,           0.
   1122,   29.0338898,     104.7621,           0.
   1123,   41.8065872,   82.3048401,           0.
   1124,   41.8912468,   78.1183777,           0.
   1125,   41.6553307,   86.5345383,           0.
   1126,   41.9323769,    73.936348,           0.
   1127,   25.9010506,    78.350029,           0.
   1128,   33.3369522,   104.846611,           0.
   1129,   41.9544182,      69.7388,           0.
   1130,   40.2105026,   26.1188545,           0.
   1131,   45.0153961,    26.030386,           0.
   1132,   25.9081764,   82.5761261,           0.
   1133,   35.9094696,   25.8199043,           0.
   1134,   31.6499348,   25.5869389,           0.
   1135,   41.9664688,   65.5271759,           0.
   1136,    41.972908,    61.307003,           0.
   1137,   41.9759369,   57.0822372,           0.
   1138,   41.9772301,   52.8553047,           0.
   1139,   41.9778214,   48.6273232,           0.
   1140,   41.9781914,   44.3987694,           0.
   1141,     41.94767,   40.0554924,           0.
   1142,   42.1489029,   35.5968819,           0.
   1143,    46.342762,   30.0581188,           0.
   1144,   25.9388676,   74.1253052,           0.
   1145,   25.9462223,   69.9027023,           0.
   1146,    25.947319,   65.6741562,           0.
   1147,   25.9476089,   61.4408684,           0.
   1148,   25.9017906,     52.97332,           0.
   1149,   25.9192104,   48.7340775,           0.
   1150,    25.998291,   57.2011032,           0.
   1151,    25.939518,   44.4945145,           0.
   1152,    25.900423,   40.2585716,           0.
   1153,   25.7803001,   36.0447617,           0.
   1154,   25.6849842,   31.8629627,           0.
   1155,   25.4479485,   28.2887936,           0.
   1156,   26.3422585,   100.518295,           0.
   1157,   25.8639202,   86.8459549,           0.
   1158,   26.0190125,   95.6764526,           0.
   1159,   24.8078232,   105.058022,           0.
   1160,   48.6881332,   99.2206345,           0.
   1161,   45.3563919,   92.8304367,           0.
   1162,   25.9972095,    91.269722,           0.
   1163,   21.3442879,   105.668755,           0.
   1164,   48.3684464,    103.54071,           0.
   1165,   37.5801544,   104.885239,           0.
   1166,    37.984623,   80.2300415,           0.
   1167,   37.7701759,   84.4779816,           0.
   1168,   38.0720253,   76.0426025,           0.
   1169,   31.1096191,    101.09642,           0.
   1170,   38.1163063,   71.8503113,           0.
   1171,   29.9307823,   80.3765717,           0.
   1172,   30.0181961,   76.1578751,           0.
   1173,   38.1371765,   67.6457443,           0.
   1174,   37.8767395,   29.7993832,           0.
   1175,   38.1473961,   63.4303246,           0.
   1176,   33.8205948,   29.3536434,           0.
   1177,   38.1549416,   59.2078438,           0.
   1178,   38.1576462,   54.9817085,           0.
   1179,   38.1527519,   50.7540703,           0.
   1180,   38.1512299,   46.5250168,           0.
   1181,   38.0200691,   42.1423187,           0.
   1182,   37.7314262,   37.1998367,           0.
   1183,   42.3753891,   30.6953049,           0.
   1184,   30.0577641,   71.9466705,           0.
   1185,   30.0725441,   67.7302399,           0.
   1186,   30.0783787,   63.5064316,           0.
   1187,    30.106905,    59.275444,           0.
   1188,   30.0658054,   50.8142395,           0.
   1189,   30.0996971,   55.0445824,           0.
   1190,   30.0687447,   46.5795479,           0.
   1191,   29.9610023,   42.3304672,           0.
   1192,   29.6690102,   38.1040077,           0.
   1193,   29.3410034,   33.9371414,           0.
   1194,   29.3708172,   29.5187759,           0.
   1195,   29.7999725,   84.6414871,           0.
   1196,   41.6130714,    90.749382,           0.
   1197,   43.6092415,   108.259972,           0.
   1198,   29.3965797,    97.748024,           0.
   1199,   45.1523247,    96.937233,           0.
   1200,   29.9423256,   89.0293427,           0.
   1201,   30.4567642,   93.8270874,           0.
   1202,   33.1490364,   97.6059341,           0.
   1203,   41.7013283,   104.897583,           0.
   1204,   47.4714165,   107.643143,           0.
   1205,   33.8791237,   82.4307098,           0.
   1206,   34.0155869,   78.2021255,           0.
   1207,   34.0858116,   73.9961166,           0.
   1208,   44.3835716,   101.342094,           0.
   1209,   35.4697304,   101.171692,           0.
   1210,   34.1193352,   69.7889557,           0.
   1211,   34.1344833,   65.5741348,           0.
   1212,   34.1486549,   61.3516159,           0.
   1213,   35.6860008,   33.0079041,           0.
   1214,   34.1539001,   57.1248474,           0.
   1215,   34.1442146,    52.896431,           0.
   1216,   34.1387749,   48.6659889,           0.
   1217,   34.0355682,    44.389782,           0.
   1218,   33.7654991,   40.0067024,           0.
   1219,   27.3341503,   25.3507652,           0.
   1220,   37.7758102,   88.7049103,           0.
   1221,   33.0836678,   35.7699471,           0.
   1222,    33.862072,   86.7011566,           0.
   1223,   41.6186562,   94.8299561,           0.
   1224,   34.1092682,   90.9348068,           0.
   1225,   32.2604179,    32.317482,           0.
   1226,   37.7827759,   97.2348709,           0.
   1227,   45.1068001,   105.136703,           0.
   1228,   39.7872963,    101.31414,           0.
   1229,   39.1636925,    33.259861,           0.
   1230,   49.8628922,   110.888474,           0.
   1231,   37.9266281,   92.8250122,           0.
   1232,   41.7449226,   98.3316574,           0.
   1233,   55.5643845,   106.962509,           0.
   1234,   34.6848946,   94.4855423,           0.
   1235,   47.7888222,    114.34523,           0.
*Element, type=S3
  1, 286, 268, 246
  2, 212,  13,  14
  3, 235,  37, 234
  4, 239,  33, 238
  5, 215,   3,  28
  6, 216,  26, 214
  7, 217, 212,  14
  8, 218, 217,  15
  9, 219, 218,  16
 10, 220, 219,  17
 11, 221, 220,  18
 12, 222, 221,  19
 13, 223, 222,  20
 14, 249, 224, 226
 15, 224, 223,  21
 16, 225,   2,  23
 17, 267, 239, 263
 18, 226, 225,  23
 19,  31,  30,   4
 20, 227,  30,  31
 21, 228,  29, 227
 22,  45,  44,   5
 23, 244,  44,  45
 24, 268, 252, 240
 25, 230,  42, 229
 26, 231,  41, 230
 27, 232,  40, 231
 28, 233,  39, 232
 29, 234,  38, 233
 30, 262, 233, 258
 31, 236,  36, 235
 32, 256, 236, 235
 33, 259, 238, 237
 34, 238,  34, 237
 35, 288,  31,  32
 36,  51,   1,  13
 37, 212,  51,  13
 38, 253, 240,  50
 39, 240,  49,  50
 40, 242,  48, 241
 41, 243,  47, 242
 42, 269, 264, 244
 43, 253,  51, 212
 44, 217,  14,  15
 45, 213,  24,  25
 46, 216,  25,  26
 47, 214,  26,  27
 48, 215, 214,  27
 49, 215,  27,   3
 50, 228,  28,  29
 51, 237,  35, 236
 52, 216, 213,  25
 53, 218,  15,  16
 54, 297, 293, 294
 55, 219,  16,  17
 56, 269, 260, 229
 57, 220,  17,  18
 58, 272, 250, 271
 59, 221,  18,  19
 60, 261, 231, 257
 61, 222,  19,  20
 62, 298, 294, 291
 63, 223,  20,  21
 64, 295, 291, 292
 65, 224,  21,  22
 66, 307, 304, 213
 67, 225, 224,  22
 68, 226,  24, 213
 69, 225,  22,   2
 70, 226,  23,  24
 71, 249, 245, 223
 72, 226, 224, 225
 73, 227,  29,  30
 74, 263, 239, 238
 75, 228, 214, 215
 76, 228, 215,  28
 77, 229,  42,  43
 78, 264,  44, 244
 79, 278, 277, 261
 80, 230,  41,  42
 81, 271, 247, 270
 82, 231,  40,  41
 83, 248, 247, 220
 84, 232,  39,  40
 85, 251, 222, 245
 86, 233,  38,  39
 87, 265, 234, 262
 88, 234,  37,  38
 89, 266, 259, 237
 90, 235,  36,  37
 91, 266, 236, 256
 92, 236,  35,  36
 93, 284, 263, 259
 94, 237,  34,  35
 95, 303, 267, 263
 96, 238,  33,  34
 97, 288, 239, 267
 98, 239,  32,  33
 99, 241,  49, 240
100, 268, 212, 217
101, 286, 276, 252
102, 241,  48,  49
103, 255, 242, 254
104, 242,  47,  48
105, 269, 244, 243
106, 243,  46,  47
107, 244,  45,  46
108, 244,  46, 243
109, 245, 222, 223
110, 249, 223, 224
111, 246, 217, 218
112, 250, 218, 219
113, 247, 219, 220
114, 248, 220, 221
115, 251, 248, 221
116, 273, 270, 248
117, 304, 226, 213
118, 299, 280, 281
119, 250, 246, 218
120, 250, 219, 247
121, 251, 221, 222
122, 308, 304, 306
123, 254, 241, 252
124, 252, 241, 240
125, 253,  50,  51
126, 268, 253, 212
127, 275, 255, 254
128, 254, 242, 241
129, 287, 269, 255
130, 255, 243, 242
131, 281, 266, 256
132, 265, 235, 234
133, 257, 231, 230
134, 260, 257, 230
135, 258, 233, 232
136, 261, 258, 232
137, 266, 237, 236
138, 303, 284, 216
139, 260, 230, 229
140, 287, 275, 279
141, 261, 232, 231
142, 294, 270, 291
143, 274, 273, 251
144, 262, 234, 233
145, 267, 214, 228
146, 263, 238, 259
147, 264, 229,  43
148, 264,  43,  44
149, 282, 281, 256
150, 265, 256, 235
151, 281, 280, 266
152, 280, 259, 266
153, 267, 228, 227
154, 288, 267, 227
155, 268, 240, 253
156, 268, 217, 246
157, 269, 229, 264
158, 269, 243, 255
159, 270, 247, 248
160, 273, 248, 251
161, 305, 297, 279
162, 271, 250, 247
163, 286, 272, 276
164, 272, 246, 250
165, 274, 251, 245
166, 283, 258, 277
167, 289, 245, 249
168, 296, 295, 292
169, 287, 279, 260
170, 276, 275, 254
171, 276, 254, 252
172, 293, 276, 272
173, 277, 258, 261
174, 278, 261, 257
175, 279, 278, 257
176, 298, 297, 294
177, 279, 257, 260
178, 305, 276, 293
179, 307, 302, 299
180, 302, 284, 280
181, 282, 256, 265
182, 301, 300, 282
183, 285, 265, 262
184, 308, 301, 290
185, 292, 274, 290
186, 283, 262, 258
187, 284, 259, 280
188, 303, 216, 214
189, 285, 282, 265
190, 285, 262, 283
191, 286, 252, 268
192, 286, 246, 272
193, 287, 260, 269
194, 287, 255, 275
195, 288, 227,  31
196, 288,  32, 239
197, 289, 274, 245
198, 304, 249, 226
199, 296, 292, 290
200, 290, 274, 289
201, 291, 270, 273
202, 292, 291, 273
203, 292, 273, 274
204, 301, 296, 290
205, 293, 272, 271
206, 294, 293, 271
207, 294, 271, 270
208, 298, 291, 295
209, 295, 283, 277
210, 298, 295, 277
211, 296, 285, 283
212, 296, 283, 295
213, 297, 278, 279
214, 305, 279, 275
215, 298, 277, 278
216, 298, 278, 297
217, 302, 213, 216
218, 300, 299, 281
219, 300, 281, 282
220, 308, 289, 304
221, 301, 282, 285
222, 301, 285, 296
223, 302, 216, 284
224, 302, 280, 299
225, 303, 214, 267
226, 303, 263, 284
227, 304, 289, 249
228, 307, 306, 304
229, 305, 275, 276
230, 305, 293, 297
231, 306, 299, 300
232, 308, 306, 300
233, 307, 213, 302
234, 307, 299, 306
235, 308, 300, 301
236, 308, 290, 289
237, 346, 344,  22
238, 314,  95,  96
239, 318,  59, 317
240, 349, 348,  84
241, 330,  74, 329
242, 448,  81,  82
243,  13,   1,  52
244, 324,  52,  53
245, 419, 416, 399
246, 419, 393, 416
247, 360,  14, 358
248, 393, 360, 383
249, 354,  18,  17
250, 312,  19, 311
251, 313,  20, 312
252, 346, 314, 344
253,  66,   6,  67
254, 336,  67,  68
255, 375, 374, 334
256, 410, 375, 409
257, 363, 361,  63
258, 361,  62,  63
259, 368, 362, 316
260, 316,  61, 315
261, 317,  60, 316
262, 319,  58, 318
263, 320,  57, 319
264, 321,  56, 320
265, 322,  55, 321
266, 323,  54, 322
267, 324,  53, 323
268,  81,  80,   7
269, 325,  80,  81
270, 373, 326,  78
271, 482, 462, 461
272, 327,  77, 326
273, 452, 444, 421
274, 328,  76, 327
275, 329,  75, 328
276, 331,  73, 330
277, 332,  72, 331
278, 333,  71, 332
279, 334,  70, 333
280, 335,  69, 334
281, 336,  68, 335
282, 348,  83,  84
283, 449, 418, 387
284, 349,  85, 337
285, 337,  85,  86
286, 338,  86,  87
287, 338, 337,  86
288, 340, 339,  88
289, 341, 340,  89
290, 343, 342,  91
291, 343, 310, 342
292, 343,   8,  92
293, 344,   2,  22
294, 345,  94, 309
295, 309,  94,  95
296, 359, 312, 311
297, 310,  92,  93
298, 345,  93,  94
299, 311,  19,  18
300, 369, 317, 362
301, 355, 313, 312
302, 312,  20,  19
303, 446, 355, 395
304, 313,  21,  20
305, 314, 309,  95
306, 344, 314,  96
307, 315,  61,  62
308, 377, 330, 329
309, 362, 317, 316
310, 316,  60,  61
311, 445, 359, 406
312, 317,  59,  60
313, 370, 318, 369
314, 318,  58,  59
315, 401, 400, 367
316, 319,  57,  58
317, 394, 357, 356
318, 320,  56,  57
319, 367, 321, 320
320, 321,  55,  56
321, 360,  15,  14
322, 322,  54,  55
323, 383, 324, 323
324, 323,  53,  54
325, 358,  13, 324
326, 324,  13,  52
327, 325,  79,  80
328, 350,  83, 348
329, 326,  77,  78
330, 373,  78,  79
331, 378, 327, 376
332, 327,  76,  77
333, 378, 328, 327
334, 328,  75,  76
335, 404, 398, 362
336, 329,  74,  75
337, 412, 411, 381
338, 330,  73,  74
339, 380, 330, 377
340, 331,  72,  73
341, 381, 331, 380
342, 332,  71,  72
343, 397, 364, 384
344, 333,  70,  71
345, 364, 363,  64
346, 334,  69,  70
347, 374, 335, 334
348, 335,  68,  69
349, 365,  66, 336
350, 336,  66,  67
351, 339,  87,  88
352, 351, 337, 338
353, 339, 338,  87
354, 352, 339, 347
355, 340,  88,  89
356, 347, 339, 340
357, 341,  89,  90
358, 353, 340, 341
359, 342, 341,  90
360, 353, 347, 340
361, 342,  90,  91
362, 417, 353, 341
363, 343,  91,   8
364, 343,  92, 310
365, 344,  96,   2
366, 346,  22,  21
367, 345, 310,  93
368, 523, 522, 517
369, 346,  21, 313
370, 385, 313, 355
371, 447, 353, 417
372, 352, 351, 338
373, 449, 421, 444
374, 349,  84,  85
375, 391, 337, 351
376, 386, 348, 349
377, 448, 350, 418
378, 350,  82,  83
379, 379, 328, 378
380, 352, 338, 339
381, 389, 347, 388
382, 424, 423, 389
383, 417, 341, 342
384, 472, 417, 310
385, 354, 311,  18
386, 357,  17,  16
387, 507, 385, 446
388, 359, 355, 312
389, 356,  16,  15
390, 366, 323, 322
391, 357, 354,  17
392, 357,  16, 356
393, 358,  14,  13
394, 383, 323, 366
395, 406, 311, 354
396, 419, 394, 393
397, 416, 383, 366
398, 360, 356,  15
399, 361, 315,  62
400, 363,  63,  64
401, 398, 369, 362
402, 368, 316, 315
403, 364,  64,  65
404, 397, 396, 363
405, 365, 364,  65
406, 384, 336, 335
407, 365,  65,  66
408, 384, 365, 336
409, 372, 322, 321
410, 432, 399, 400
411, 371, 320, 319
412, 403, 369, 398
413, 405, 315, 361
414, 413, 377, 379
415, 402, 401, 371
416, 369, 318, 317
417, 511, 480, 495
418, 370, 319, 318
419, 371, 367, 320
420, 371, 319, 370
421, 372, 366, 322
422, 372, 321, 367
423, 373,  79, 325
424, 418, 350, 387
425, 397, 363, 364
426, 375, 334, 333
427, 382, 333, 332
428, 439, 429, 397
429, 376, 327, 326
430, 415, 326, 373
431, 379, 329, 328
432, 497, 482, 483
433, 475, 470, 452
434, 434, 433, 398
435, 390, 352, 389
436, 379, 377, 329
437, 440, 410, 409
438, 380, 331, 330
439, 438, 411, 436
440, 381, 332, 331
441, 382, 375, 333
442, 382, 332, 381
443, 383, 360, 358
444, 383, 358, 324
445, 384, 364, 365
446, 384, 335, 374
447, 385, 314, 346
448, 385, 346, 313
449, 391, 386, 349
450, 450, 420, 426
451, 387, 350, 348
452, 387, 348, 386
453, 388, 347, 353
454, 493, 446, 474
455, 408, 378, 376
456, 389, 352, 347
457, 408, 407, 378
458, 390, 351, 352
459, 391, 349, 337
460, 426, 351, 390
461, 406, 354, 392
462, 392, 354, 357
463, 393, 356, 360
464, 399, 366, 372
465, 394, 392, 357
466, 394, 356, 393
467, 469, 395, 445
468, 395, 355, 359
469, 429, 427, 396
470, 396, 361, 363
471, 439, 384, 374
472, 462, 436, 461
473, 517, 492, 508
474, 404, 362, 368
475, 400, 372, 367
476, 400, 399, 372
477, 401, 367, 371
478, 431, 401, 430
479, 402, 371, 370
480, 403, 370, 369
481, 403, 402, 370
482, 430, 402, 428
483, 433, 403, 398
484, 428, 402, 403
485, 443, 368, 405
486, 411, 409, 382
487, 405, 368, 315
488, 405, 361, 396
489, 406, 359, 311
490, 425, 422, 392
491, 413, 379, 407
492, 407, 379, 378
493, 444, 376, 415
494, 420, 386, 391
495, 409, 375, 382
496, 411, 382, 381
497, 439, 410, 429
498, 410, 374, 375
499, 412, 381, 380
500, 414, 380, 377
501, 414, 377, 413
502, 435, 412, 414
503, 442, 441, 413
504, 442, 407, 437
505, 442, 413, 407
506, 414, 412, 380
507, 415, 376, 326
508, 418, 415, 373
509, 416, 393, 383
510, 416, 366, 399
511, 417, 342, 310
512, 472, 447, 417
513, 418, 373, 325
514, 448, 418, 325
515, 484, 453, 425
516, 425, 394, 419
517, 426, 420, 391
518, 475, 466, 437
519, 421, 387, 386
520, 421, 386, 420
521, 453, 422, 425
522, 422, 406, 392
523, 423, 390, 389
524, 424, 389, 388
525, 473, 388, 447
526, 479, 471, 455
527, 425, 392, 394
528, 458, 430, 457
529, 426, 391, 351
530, 464, 390, 423
531, 456, 455, 427
532, 427, 405, 396
533, 433, 428, 403
534, 451, 445, 422
535, 429, 396, 397
536, 440, 429, 410
537, 453, 451, 422
538, 430, 401, 402
539, 511, 495, 477
540, 431, 400, 401
541, 432, 419, 399
542, 432, 400, 431
543, 434, 398, 404
544, 460, 457, 428
545, 471, 404, 443
546, 436, 412, 435
547, 441, 414, 413
548, 468, 441, 442
549, 455, 443, 427
550, 436, 411, 412
551, 437, 407, 408
552, 470, 444, 452
553, 483, 482, 461
554, 438, 409, 411
555, 439, 397, 384
556, 439, 374, 410
557, 456, 429, 440
558, 440, 409, 438
559, 468, 442, 466
560, 441, 435, 414
561, 476, 475, 450
562, 468, 467, 441
563, 443, 404, 368
564, 443, 405, 427
565, 444, 408, 376
566, 449, 444, 415
567, 445, 395, 359
568, 445, 406, 422
569, 521, 507, 493
570, 446, 385, 355
571, 492, 447, 472
572, 447, 388, 353
573, 448, 325,  81
574, 448,  82, 350
575, 449, 415, 418
576, 449, 387, 421
577, 464, 450, 426
578, 512, 475, 476
579, 457, 430, 428
580, 469, 445, 451
581, 452, 421, 420
582, 452, 420, 450
583, 484, 425, 419
584, 459, 432, 431
585, 454, 423, 424
586, 508, 472, 345
587, 463, 440, 438
588, 479, 455, 463
589, 456, 427, 429
590, 463, 456, 440
591, 477, 453, 459
592, 460, 428, 433
593, 511, 459, 458
594, 458, 431, 430
595, 484, 459, 453
596, 459, 431, 458
597, 465, 433, 434
598, 481, 480, 457
599, 461, 436, 435
600, 467, 435, 441
601, 510, 482, 509
602, 462, 438, 436
603, 463, 455, 456
604, 463, 438, 462
605, 464, 426, 390
606, 488, 423, 454
607, 465, 460, 433
608, 489, 434, 471
609, 466, 442, 437
610, 475, 437, 470
611, 500, 486, 487
612, 467, 461, 435
613, 487, 486, 468
614, 486, 483, 467
615, 474, 395, 469
616, 478, 451, 477
617, 470, 437, 408
618, 470, 408, 444
619, 471, 434, 404
620, 471, 443, 455
621, 472, 310, 345
622, 492, 473, 447
623, 490, 424, 473
624, 473, 424, 388
625, 474, 446, 395
626, 491, 469, 478
627, 475, 452, 450
628, 476, 450, 464
629, 488, 476, 464
630, 500, 487, 494
631, 477, 451, 453
632, 480, 458, 457
633, 501, 495, 496
634, 478, 469, 451
635, 510, 463, 462
636, 510, 509, 479
637, 481, 457, 460
638, 527, 496, 514
639, 485, 460, 465
640, 499, 496, 481
641, 524, 509, 497
642, 483, 461, 467
643, 486, 467, 468
644, 504, 503, 454
645, 484, 419, 432
646, 484, 432, 459
647, 485, 481, 460
648, 502, 465, 489
649, 487, 468, 466
650, 513, 497, 498
651, 512, 494, 487
652, 494, 476, 488
653, 488, 464, 423
654, 503, 488, 454
655, 489, 465, 434
656, 489, 471, 479
657, 490, 454, 424
658, 505, 473, 492
659, 491, 474, 469
660, 501, 478, 495
661, 508, 492, 472
662, 523, 517, 508
663, 507, 309, 314
664, 506, 474, 491
665, 498, 497, 483
666, 512, 487, 466
667, 495, 478, 477
668, 496, 495, 480
669, 496, 480, 481
670, 499, 481, 485
671, 524, 513, 516
672, 498, 483, 486
673, 500, 498, 486
674, 519, 500, 503
675, 516, 485, 502
676, 533, 532, 529
677, 503, 494, 488
678, 503, 500, 494
679, 532, 528, 518
680, 501, 491, 478
681, 502, 485, 465
682, 509, 502, 489
683, 504, 454, 490
684, 515, 513, 498
685, 518, 490, 505
686, 526, 515, 525
687, 533, 527, 531
688, 505, 490, 473
689, 506, 493, 474
690, 520, 491, 501
691, 507, 314, 385
692, 507, 446, 493
693, 523, 345, 309
694, 523, 521, 522
695, 509, 489, 479
696, 509, 482, 497
697, 510, 479, 463
698, 510, 462, 482
699, 511, 477, 459
700, 511, 458, 480
701, 512, 466, 475
702, 512, 476, 494
703, 526, 516, 513
704, 515, 498, 500
705, 514, 496, 499
706, 526, 514, 499
707, 519, 515, 500
708, 528, 519, 504
709, 516, 499, 485
710, 524, 516, 502
711, 530, 529, 517
712, 517, 505, 492
713, 518, 504, 490
714, 529, 505, 517
715, 519, 503, 504
716, 528, 525, 519
717, 520, 506, 491
718, 527, 520, 501
719, 521, 309, 507
720, 522, 521, 493
721, 522, 493, 506
722, 530, 506, 520
723, 523, 508, 345
724, 523, 309, 521
725, 524, 502, 509
726, 524, 497, 513
727, 531, 526, 525
728, 525, 515, 519
729, 526, 499, 516
730, 526, 513, 515
731, 527, 501, 496
732, 531, 514, 526
733, 528, 504, 518
734, 532, 531, 528
735, 529, 518, 505
736, 530, 517, 522
737, 530, 522, 506
738, 533, 531, 532
739, 531, 527, 514
740, 531, 525, 528
741, 532, 518, 529
742, 533, 529, 530
743, 533, 530, 520
744, 533, 520, 527
 745, 561,   9,  97
 746, 684, 682, 622
 747, 749, 747, 672
 748, 594, 562, 157
 749, 696, 642, 534
 750, 590, 162, 561
 751, 121,  10, 122
 752, 538, 121, 122
 753, 649, 599, 612
 754, 597, 537, 536
 755, 668, 667, 607
 756, 545, 118, 544
 757, 546, 117, 545
 758, 547, 116, 546
 759, 548, 115, 547
 760, 549, 114, 548
 761, 550, 113, 549
 762, 551, 112, 550
 763, 552, 111, 551
 764, 553, 110, 552
 765, 554, 109, 553
 766, 619, 603, 555
 767, 618, 617, 556
 768, 572, 147, 571
 769, 540, 104, 539
 770, 557, 103, 540
 771, 611, 540, 601
 772, 568, 151, 567
 773, 542, 100, 541
 774, 559,  99, 542
 775, 560,  98, 559
 776, 129, 128,  11
 777, 589, 129, 130
 778, 699, 698, 687
 779, 595, 126, 127
 780, 537, 125, 536
 781, 596, 124, 537
 782, 538, 122, 123
 783, 157,   4,  30
 784, 696, 592, 691
 785, 563, 156, 562
 786, 564, 155, 563
 787, 565, 154, 564
 788, 566, 153, 565
 789, 632, 564, 626
 790, 672, 614, 671
 791, 569, 150, 568
 792, 570, 149, 569
 793, 692, 689, 624
 794, 685, 684, 645
 795, 573, 146, 572
 796, 574, 145, 573
 797, 575, 144, 574
 798, 576, 143, 575
 799, 629, 576, 628
 800, 633, 577, 629
 801, 734, 711, 712
 802, 635, 579, 634
 803, 736, 713, 714
 804, 637, 581, 636
 805, 737, 715, 716
 806, 639, 583, 638
 807, 739, 717, 718
 808, 726, 687, 690
 809, 587, 132, 586
 810, 588, 131, 587
 811, 589, 130, 588
 812, 594,  30,  29
 813, 535, 534,  28
 814, 535,   3, 158
 815, 743, 742, 695
 816, 593, 159, 592
 817, 534,  29,  28
 818, 642, 562, 594
 819, 535,  28,   3
 820, 593, 158, 159
 821, 599, 119, 120
 822, 536, 125, 126
 823, 599, 544, 119
 824, 537, 124, 125
 825, 612, 121, 538
 826, 596, 538, 123
 827, 539, 104, 105
 828, 556, 105, 106
 829, 571, 148, 570
 830, 540, 103, 104
 831, 541, 100, 101
 832, 558, 101, 102
 833, 567, 152, 566
 834, 542,  99, 100
 835, 543, 106, 107
 836, 555, 107, 108
 837, 586, 133, 585
 838, 544, 118, 119
 839, 585, 134, 584
 840, 545, 117, 118
 841, 584, 135, 583
 842, 546, 116, 117
 843, 583, 136, 582
 844, 547, 115, 116
 845, 582, 137, 581
 846, 548, 114, 115
 847, 581, 138, 580
 848, 549, 113, 114
 849, 580, 139, 579
 850, 550, 112, 113
 851, 579, 140, 578
 852, 551, 111, 112
 853, 578, 141, 577
 854, 552, 110, 111
 855, 577, 142, 576
 856, 553, 109, 110
 857, 555, 108, 554
 858, 554, 108, 109
 859, 680, 678, 628
 860, 555, 543, 107
 861, 556, 539, 105
 862, 556, 106, 543
 863, 557, 102, 103
 864, 707, 661, 706
 865, 558, 541, 101
 866, 558, 102, 557
 867, 701, 671, 700
 868, 559,  98,  99
 869, 590, 561, 560
 870, 560,  97,  98
 871, 561, 162,   9
 872, 561,  97, 560
 873, 562, 156, 157
 874, 594, 157,  30
 875, 632, 627, 565
 876, 563, 155, 156
 877, 743, 691, 592
 878, 564, 154, 155
 879, 591, 160, 161
 880, 565, 153, 154
 881, 614, 542, 600
 882, 566, 152, 153
 883, 671, 600, 653
 884, 567, 151, 152
 885, 644, 568, 623
 886, 568, 150, 151
 887, 615, 600, 541
 888, 569, 149, 150
 889, 616, 557, 611
 890, 570, 148, 149
 891, 654, 601, 652
 892, 571, 147, 148
 893, 705, 652, 704
 894, 572, 146, 147
 895, 617, 601, 539
 896, 573, 145, 146
 897, 618, 543, 603
 898, 574, 144, 145
 899, 631, 574, 622
 900, 575, 143, 144
 901, 619, 554, 602
 902, 576, 142, 143
 903, 620, 552, 604
 904, 577, 141, 142
 905, 735, 712, 713
 906, 578, 140, 141
 907, 621, 550, 605
 908, 579, 139, 140
 909, 736, 714, 715
 910, 580, 138, 139
 911, 610, 548, 606
 912, 581, 137, 138
 913, 738, 716, 717
 914, 582, 136, 137
 915, 607, 606, 547
 916, 583, 135, 136
 917, 608, 607, 546
 918, 584, 134, 135
 919, 609, 608, 545
 920, 585, 133, 134
 921, 646, 586, 630
 922, 586, 132, 133
 923, 698, 648, 647
 924, 587, 131, 132
 925, 648, 589, 588
 926, 588, 130, 131
 927, 598, 128, 589
 928, 589, 128, 129
 929, 590, 161, 162
 930, 613, 590, 560
 931, 748, 747, 746
 932, 591, 161, 590
 933, 592, 159, 160
 934, 592, 160, 591
 935, 593, 534, 535
 936, 593, 535, 158
 937, 594,  29, 534
 938, 642, 594, 534
 939, 595, 536, 126
 940, 598, 595, 127
 941, 596, 123, 124
 942, 650, 537, 597
 943, 670, 599, 649
 944, 651, 536, 595
 945, 598, 127, 128
 946, 648, 598, 589
 947, 612, 599, 120
 948, 649, 538, 596
 949, 600, 542, 541
 950, 615, 541, 558
 951, 601, 540, 539
 952, 617, 539, 556
 953, 602, 554, 553
 954, 620, 553, 552
 955, 603, 543, 555
 956, 619, 555, 554
 957, 604, 552, 551
 958, 621, 551, 550
 959, 605, 550, 549
 960, 610, 549, 548
 961, 606, 548, 547
 962, 607, 547, 546
 963, 608, 546, 545
 964, 640, 584, 639
 965, 609, 545, 544
 966, 669, 668, 608
 967, 670, 544, 599
 968, 740, 719, 726
 969, 638, 582, 637
 970, 610, 605, 549
 971, 643, 570, 624
 972, 611, 557, 540
 973, 612, 120, 121
 974, 649, 612, 538
 975, 613, 560, 559
 976, 614, 613, 559
 977, 614, 559, 542
 978, 693, 692, 644
 979, 616, 615, 558
 980, 660, 653, 615
 981, 616, 558, 557
 982, 661, 611, 654
 983, 618, 556, 543
 984, 710, 656, 709
 985, 656, 603, 655
 986, 709, 655, 703
 987, 733, 703, 711
 988, 678, 675, 629
 989, 634, 578, 633
 990, 620, 602, 553
 991, 636, 580, 635
 992, 621, 604, 551
 993, 622, 574, 573
 994, 645, 573, 572
 995, 623, 568, 567
 996, 641, 567, 566
 997, 624, 570, 569
 998, 644, 624, 569
 999, 625, 572, 571
1000, 643, 625, 571
1001, 626, 564, 563
1002, 642, 626, 563
1003, 627, 566, 565
1004, 632, 565, 564
1005, 628, 576, 575
1006, 631, 628, 575
1007, 657, 655, 619
1008, 629, 577, 576
1009, 630, 586, 585
1010, 640, 585, 584
1011, 631, 575, 574
1012, 730, 704, 710
1013, 691, 632, 626
1014, 695, 632, 691
1015, 658, 657, 602
1016, 633, 578, 577
1017, 659, 658, 620
1018, 634, 579, 578
1019, 663, 659, 604
1020, 635, 580, 579
1021, 664, 663, 621
1022, 636, 581, 580
1023, 665, 664, 605
1024, 637, 582, 581
1025, 666, 665, 610
1026, 638, 583, 582
1027, 667, 666, 606
1028, 639, 584, 583
1029, 741, 718, 740
1030, 640, 630, 585
1031, 641, 623, 567
1032, 641, 566, 627
1033, 642, 563, 562
1034, 696, 534, 593
1035, 643, 571, 570
1036, 725, 724, 708
1037, 644, 569, 568
1038, 724, 700, 708
1039, 645, 622, 573
1040, 645, 572, 625
1041, 687, 647, 646
1042, 646, 587, 586
1043, 647, 588, 587
1044, 647, 587, 646
1045, 648, 595, 598
1046, 648, 588, 647
1047, 650, 649, 596
1048, 744, 702, 720
1049, 650, 596, 537
1050, 745, 702, 699
1051, 651, 597, 536
1052, 651, 595, 648
1053, 652, 601, 617
1054, 662, 617, 618
1055, 653, 600, 615
1056, 660, 615, 616
1057, 686, 685, 625
1058, 654, 611, 601
1059, 655, 603, 619
1060, 657, 619, 602
1061, 682, 680, 631
1062, 656, 618, 603
1063, 658, 602, 620
1064, 675, 673, 633
1065, 659, 620, 604
1066, 712, 711, 658
1067, 663, 604, 621
1068, 674, 634, 673
1069, 661, 660, 616
1070, 689, 686, 643
1071, 661, 616, 611
1072, 706, 654, 705
1073, 662, 652, 617
1074, 662, 618, 656
1075, 664, 621, 605
1076, 676, 635, 674
1077, 665, 605, 610
1078, 677, 636, 676
1079, 666, 610, 606
1080, 679, 637, 677
1081, 667, 606, 607
1082, 681, 638, 679
1083, 668, 607, 608
1084, 683, 639, 681
1085, 669, 608, 609
1086, 688, 640, 683
1087, 720, 609, 670
1088, 690, 630, 688
1089, 670, 609, 544
1090, 744, 649, 650
1091, 694, 693, 623
1092, 671, 614, 600
1093, 697, 627, 695
1094, 672, 613, 614
1095, 673, 634, 633
1096, 675, 633, 629
1097, 713, 712, 659
1098, 674, 635, 634
1099, 678, 629, 628
1100, 733, 732, 703
1101, 714, 713, 663
1102, 676, 636, 635
1103, 715, 714, 664
1104, 677, 637, 636
1105, 680, 628, 631
1106, 732, 731, 709
1107, 716, 715, 665
1108, 679, 638, 637
1109, 682, 631, 622
1110, 731, 710, 709
1111, 717, 716, 666
1112, 681, 639, 638
1113, 684, 622, 645
1114, 730, 729, 704
1115, 718, 717, 667
1116, 683, 640, 639
1117, 685, 645, 625
1118, 729, 728, 705
1119, 686, 625, 643
1120, 728, 727, 706
1121, 689, 643, 624
1122, 727, 725, 707
1123, 699, 651, 698
1124, 690, 646, 630
1125, 719, 718, 668
1126, 688, 630, 640
1127, 692, 624, 644
1128, 725, 708, 707
1129, 745, 719, 669
1130, 690, 687, 646
1131, 696, 691, 626
1132, 748, 743, 591
1133, 693, 644, 623
1134, 724, 723, 700
1135, 694, 623, 641
1136, 723, 722, 701
1137, 697, 641, 627
1138, 721, 694, 697
1139, 746, 721, 742
1140, 695, 627, 632
1141, 696, 626, 642
1142, 696, 593, 592
1143, 749, 722, 721
1144, 697, 694, 641
1145, 698, 651, 648
1146, 698, 647, 687
1147, 745, 726, 719
1148, 699, 597, 651
1149, 700, 671, 653
1150, 708, 653, 660
1151, 723, 701, 700
1152, 701, 672, 671
1153, 702, 650, 597
1154, 702, 597, 699
1155, 703, 655, 657
1156, 711, 703, 657
1157, 704, 652, 662
1158, 731, 730, 710
1159, 729, 705, 704
1160, 705, 654, 652
1161, 728, 706, 705
1162, 706, 661, 654
1163, 727, 707, 706
1164, 707, 660, 661
1165, 708, 700, 653
1166, 708, 660, 707
1167, 732, 709, 703
1168, 709, 656, 655
1169, 710, 704, 662
1170, 710, 662, 656
1171, 711, 657, 658
1172, 712, 658, 659
1173, 713, 659, 663
1174, 734, 733, 711
1175, 714, 663, 664
1176, 735, 734, 712
1177, 715, 664, 665
1178, 736, 735, 713
1179, 716, 665, 666
1180, 737, 736, 715
1181, 717, 666, 667
1182, 738, 737, 716
1183, 718, 667, 668
1184, 739, 738, 717
1185, 719, 668, 669
1186, 741, 739, 718
1187, 745, 669, 720
1188, 740, 718, 719
1189, 720, 669, 609
1190, 744, 720, 670
1191, 742, 721, 697
1192, 749, 746, 747
1193, 722, 693, 694
1194, 722, 694, 721
1195, 723, 692, 693
1196, 723, 693, 722
1197, 724, 689, 692
1198, 724, 692, 723
1199, 725, 686, 689
1200, 725, 689, 724
1201, 726, 699, 687
1202, 740, 726, 690
1203, 727, 685, 686
1204, 727, 686, 725
1205, 728, 684, 685
1206, 728, 685, 727
1207, 729, 682, 684
1208, 729, 684, 728
1209, 730, 680, 682
1210, 730, 682, 729
1211, 731, 678, 680
1212, 731, 680, 730
1213, 732, 675, 678
1214, 732, 678, 731
1215, 733, 673, 675
1216, 733, 675, 732
1217, 734, 674, 673
1218, 734, 673, 733
1219, 735, 676, 674
1220, 735, 674, 734
1221, 736, 677, 676
1222, 736, 676, 735
1223, 737, 679, 677
1224, 737, 677, 736
1225, 738, 681, 679
1226, 738, 679, 737
1227, 739, 683, 681
1228, 739, 681, 738
1229, 740, 690, 688
1230, 741, 740, 688
1231, 741, 688, 683
1232, 741, 683, 739
1233, 742, 697, 695
1234, 748, 746, 742
1235, 743, 695, 691
1236, 743, 592, 591
1237, 744, 670, 649
1238, 744, 650, 702
1239, 745, 720, 702
1240, 745, 699, 726
1241, 747, 591, 590
1242, 749, 672, 701
1243, 747, 590, 613
1244, 747, 613, 672
1245, 748, 742, 743
1246, 748, 591, 747
1247, 749, 701, 722
1248, 749, 721, 746
1249,  831,  211,  750
1250,  750,  121,  120
1251,  926,  843,  924
1252,  752,  751,  165
1253,  753,    8,   91
1254, 1065,  897, 1010
1255,  968,  901,  833
1256,  849,  117,  754
1257,  814,  204,  205
1258,  815,  203,  204
1259,  755,  754,  116
1260,  756,  755,  115
1261,  757,  756,  114
1262,  758,  757,  113
1263,  759,  758,  112
1264,  760,  759,  111
1265,  761,  760,  110
1266,  762,  761,  109
1267,  763,  762,  108
1268,  764,  763,  107
1269,  765,  764,  106
1270,  766,  765,  105
1271,  767,  766,  104
1272,  768,  767,  103
1273,  769,  768,  102
1274,  770,  769,  101
1275,  771,  770,  100
1276,  772,  771,   99
1277,  854,  773,  776
1278,  773,  772,   98
1279,  774,    9,  163
1280,  775,  166,  167
1281,  776,  774,  163
1282,   81,    7,  168
1283,  808,  168,  169
1284,  894,  893,  826
1285, 1046,  991,  989
1286,  828,   83,   82
1287,  895,  828,  890
1288,  822,   86,   85
1289,  823,  775,  781
1290,  778,   87,  777
1291,  779,   88,  778
1292,  781,   91,   90
1293,  197,  196,   12
1294,  821,  196,  197
1295,  832,  818,  817
1296,  783,  194,  782
1297,  784,  193,  783
1298,  785,  192,  784
1299,  786,  191,  785
1300,  787,  190,  786
1301,  788,  189,  787
1302,  789,  188,  788
1303,  790,  187,  789
1304,  791,  186,  790
1305,  792,  185,  791
1306,  793,  184,  792
1307,  794,  183,  793
1308,  795,  182,  794
1309,  796,  181,  795
1310,  797,  180,  796
1311,  798,  179,  797
1312,  799,  178,  798
1313,  800,  177,  799
1314,  801,  176,  800
1315,  802,  175,  801
1316,  803,  174,  802
1317,  804,  173,  803
1318,  805,  172,  804
1319,  806,  171,  805
1320,  807,  170,  806
1321,  808,  169,  807
1322,  211,   10,  121
1323,  750,  211,  121
1324,  831,  809,  210
1325,  833,  810,  809
1326,  810,  209,  809
1327,  811,  208,  810
1328,  811,  207,  208
1329,  812,  206,  207
1330,  813,  205,  206
1331,  837,  813,  812
1332,  817,  202,  816
1333,  818,  201,  817
1334,  819,  200,  818
1335,  820,  199,  819
1336,  892,  880,  821
1337,  912,  119,  850
1338,  850,  118,  849
1339,  751,  164,  165
1340,  752,  165,  166
1341,  775,  167,  753
1342,  827,  824,  778
1343,  753,  167,    8
1344,  781,   90,  780
1345,  754,  117,  116
1346,  755,  116,  115
1347,  756,  115,  114
1348,  881,  879,  783
1349,  757,  114,  113
1350,  882,  784,  879
1351,  758,  113,  112
1352,  944,  942,  883
1353,  759,  112,  111
1354,  883,  786,  871
1355,  760,  111,  110
1356,  979,  914,  976
1357,  761,  110,  109
1358,  873,  788,  872
1359,  762,  109,  108
1360,  874,  789,  873
1361,  763,  108,  107
1362,  875,  790,  874
1363,  764,  107,  106
1364,  876,  791,  875
1365,  765,  106,  105
1366,  877,  792,  876
1367,  766,  105,  104
1368, 1050,  995, 1047
1369,  767,  104,  103
1370, 1053,  993, 1052
1371,  768,  103,  102
1372,  931,  930,  884
1373,  769,  102,  101
1374,  939,  866,  930
1375,  770,  101,  100
1376,  925,  910,  862
1377,  771,  100,   99
1378,  843,  770,  771
1379,  772,   99,   98
1380,  856,  771,  772
1381,  773,   98,   97
1382,  854,  772,  773
1383,  774,  773,   97
1384,  776,  164,  751
1385,  774,   97,    9
1386,  776,  163,  164
1387,  780,   89,  779
1388,  775,  752,  166
1389, 1012,  924,  856
1390,  776,  773,  774
1391,  777,   87,   86
1392,  886,  801,  868
1393,  824,  779,  778
1394,  778,   88,   87
1395,  830,  779,  824
1396,  779,   89,   88
1397,  823,  781,  780
1398,  780,   90,   89
1399,  781,  775,  753
1400,  781,  753,   91
1401,  782,  194,  195
1402,  880,  196,  821
1403,  902,  834,  837
1404,  783,  193,  194
1405,  852,  851,  755
1406,  784,  192,  193
1407,  853,  757,  845
1408,  785,  191,  192
1409,  915,  852,  913
1410,  786,  190,  191
1411, 1049, 1048,  994
1412,  787,  189,  190
1413,  916,  914,  857
1414,  788,  188,  189
1415, 1102, 1100, 1047
1416,  789,  187,  188
1417, 1034, 1033,  973
1418,  790,  186,  187
1419,  935,  877,  929
1420,  791,  185,  186
1421, 1037, 1032,  974
1422,  792,  184,  185
1423,  860,  848,  764
1424,  793,  183,  184
1425,  861,  766,  844
1426,  794,  182,  183
1427,  919,  918,  848
1428,  795,  181,  182
1429, 1044, 1020,  987
1430,  796,  180,  181
1431,  887,  797,  866
1432,  797,  179,  180
1433, 1074, 1019, 1071
1434,  798,  178,  179
1435,  863,  769,  855
1436,  799,  177,  178
1437,  958,  957,  925
1438,  800,  176,  177
1439, 1021,  896,  956
1440,  801,  175,  176
1441,  946,  865,  888
1442,  802,  174,  175
1443,  886,  869,  802
1444,  803,  173,  174
1445,  894,  826,  825
1446,  804,  172,  173
1447,  865,  805,  804
1448,  805,  171,  172
1449,  828,  825,   83
1450,  806,  170,  171
1451,  895,  894,  825
1452,  807,  169,  170
1453,  829,   81,  808
1454,  808,   81,  168
1455,  809,  209,  210
1456, 1030,  970,  909
1457,  835,  810,  833
1458,  810,  208,  209
1459,  835,  811,  810
1460,  812,  207,  811
1461,  901,  900,  835
1462,  813,  206,  812
1463,  960,  908,  902
1464,  814,  205,  813
1465,  838,  814,  834
1466,  815,  204,  814
1467,  839,  815,  838
1468,  816,  203,  815
1469,  840,  817,  816
1470,  816,  202,  203
1471,  984,  943,  881
1472,  817,  201,  202
1473,  841,  818,  832
1474,  818,  200,  201
1475,  842,  819,  841
1476,  819,  199,  200
1477,  892,  821,  820
1478,  820,  198,  199
1479,  821,  197,  198
1480,  821,  198,  820
1481,  822,  777,   86
1482,  826,   85,   84
1483,  897,  896,  824
1484, 1067,  775,  823
1485,  827,  778,  777
1486,  897,  824,  827
1487,  825,   84,   83
1488,  864,  807,  806
1489,  826,  822,   85
1490,  826,   84,  825
1491,  898,  777,  822
1492,  954,  953,  893
1493,  829,  828,   82
1494,  890,  808,  807
1495,  829,   82,   81
1496,  890,  829,  808
1497,  830,  823,  780
1498,  830,  780,  779
1499,  831,  210,  211
1500,  891,  831,  750
1501,  838,  815,  814
1502, 1014, 1005,  967
1503,  891,  809,  831
1504,  851,  754,  755
1505,  834,  814,  813
1506,  900,  836,  835
1507,  836,  811,  835
1508,  969,  909,  928
1509,  900,  899,  836
1510,  836,  812,  811
1511,  837,  834,  813
1512,  837,  812,  836
1513, 1031,  969,  983
1514,  839,  816,  815
1515,  906,  840,  904
1516,  904,  840,  839
1517,  840,  832,  817
1518,  840,  816,  839
1519,  892,  881,  782
1520,  841,  819,  818
1521,  984,  892,  842
1522,  842,  820,  819
1523,  855,  770,  843
1524,  952,  868,  885
1525,  844,  766,  767
1526,  862,  767,  768
1527,  845,  757,  758
1528,  857,  758,  759
1529,  846,  759,  760
1530,  858,  760,  761
1531,  847,  761,  762
1532,  859,  762,  763
1533,  848,  763,  764
1534,  860,  764,  765
1535,  849,  118,  117
1536,  928,  754,  851
1537,  970,  968,  891
1538,  850,  119,  118
1539,  852,  755,  756
1540, 1027,  961,  966
1541,  853,  852,  756
1542,  920,  845,  914
1543,  853,  756,  757
1544,  944,  883,  871
1545, 1233, 1068,  776
1546, 1012,  856,  854
1547,  885,  799,  867
1548,  855,  769,  770
1549,  856,  843,  771
1550,  856,  772,  854
1551,  857,  845,  758
1552,  857,  759,  846
1553,  858,  846,  760
1554,  858,  761,  847
1555,  859,  847,  762
1556,  859,  763,  848
1557,  861,  860,  765
1558,  923,  861,  911
1559,  861,  765,  766
1560,  911,  844,  910
1561,  862,  844,  767
1562,  863,  862,  768
1563,  863,  768,  769
1564,  952,  885,  950
1565,  889,  806,  805
1566,  889,  805,  865
1567,  888,  804,  803
1568,  869,  803,  802
1569,  866,  797,  796
1570,  884,  796,  795
1571,  867,  799,  798
1572,  887,  867,  798
1573,  868,  801,  800
1574,  885,  868,  800
1575,  951,  886,  945
1576,  886,  802,  801
1577,  870,  795,  794
1578,  878,  794,  793
1579,  871,  786,  785
1580,  882,  785,  784
1581,  872,  788,  787
1582,  883,  872,  787
1583,  936,  873,  933
1584,  873,  789,  788
1585,  975,  917,  971
1586,  874,  790,  789
1587,  996,  934,  994
1588,  875,  791,  790
1589,  938,  878,  935
1590,  876,  792,  791
1591,  878,  793,  877
1592,  877,  793,  792
1593,  935,  878,  877
1594,  878,  870,  794
1595,  879,  784,  783
1596,  903,  842,  841
1597,  880,  782,  195
1598,  880,  195,  196
1599,  881,  783,  782
1600,  984,  903,  943
1601,  943,  940,  879
1602,  882,  871,  785
1603,  883,  787,  786
1604,  944,  871,  941
1605,  884,  866,  796
1606,  884,  795,  870
1607,  885,  800,  799
1608,  950,  867,  932
1609,  991,  947,  989
1610,  945,  886,  868
1611,  887,  798,  797
1612,  939,  932,  887
1613,  888,  865,  804
1614,  888,  803,  869
1615,  948,  865,  946
1616,  889,  864,  806
1617,  890,  828,  829
1618,  890,  807,  864
1619,  891,  833,  809
1620,  912,  891,  750
1621,  892,  782,  880
1622,  892,  820,  842
1623,  953,  898,  893
1624,  893,  822,  826
1625,  895,  825,  828
1626,  949,  889,  948
1627,  985,  890,  864
1628, 1008, 1007,  948
1629, 1013,  830,  896
1630,  896,  830,  824
1631, 1010,  827,  898
1632, 1008,  946,  991
1633,  898,  827,  777
1634,  898,  822,  893
1635,  902,  837,  899
1636,  899,  837,  836
1637,  901,  835,  833
1638,  980,  915,  913
1639, 1030,  909,  969
1640,  909,  850,  849
1641, 1006,  940, 1005
1642,  908,  834,  902
1643,  907,  841,  832
1644,  906,  832,  840
1645,  905,  839,  838
1646,  905,  904,  839
1647,  908,  905,  838
1648, 1182, 1141, 1181
1649,  962,  906,  961
1650,  961,  906,  904
1651,  907,  903,  841
1652,  907,  832,  906
1653,  908,  838,  834
1654,  964,  899,  900
1655,  928,  849,  754
1656, 1030,  963,  901
1657,  910,  844,  862
1658,  925,  862,  863
1659,  982,  910,  957
1660,  911,  861,  844
1661,  912,  750,  120
1662,  912,  120,  119
1663,  913,  852,  853
1664,  920,  853,  845
1665,  914,  845,  857
1666,  916,  857,  846
1667, 1026, 1025,  964
1668,  915,  851,  852
1669,  921,  846,  858
1670,  976,  916,  973
1671,  917,  858,  847
1672,  922,  847,  859
1673,  918,  859,  848
1674,  919,  848,  860
1675,  923,  919,  860
1676,  977,  972,  919
1677,  981,  920,  979
1678,  920,  913,  853
1679,  921,  916,  846
1680,  921,  858,  917
1681,  922,  917,  847
1682,  922,  859,  918
1683,  923,  860,  861
1684,  978,  977,  923
1685,  924,  843,  856
1686, 1228, 1209, 1226
1687,  927,  863,  855
1688,  990,  950,  988
1689,  926,  855,  843
1690, 1011, 1009,  945
1691,  927,  925,  863
1692,  927,  855,  926
1693,  928,  909,  849
1694,  983,  851,  915
1695,  929,  877,  876
1696,  937,  876,  875
1697,  930,  866,  884
1698,  931,  884,  870
1699,  938,  870,  878
1700, 1038, 1037,  972
1701,  932,  867,  887
1702,  939,  887,  866
1703,  933,  873,  872
1704,  942,  872,  883
1705,  934,  875,  874
1706,  936,  934,  874
1707,  997,  929,  995
1708, 1087, 1086, 1034
1709,  936,  874,  873
1710, 1040,  976, 1033
1711,  937,  929,  876
1712,  937,  875,  934
1713, 1051,  997, 1050
1714,  938,  931,  870
1715, 1022,  982, 1019
1716, 1039,  978, 1022
1717,  941,  882,  940
1718,  940,  882,  879
1719,  941,  871,  882
1720, 1025, 1023,  959
1721,  981,  980,  913
1722,  942,  933,  872
1723,  943,  879,  881
1724,  967,  907,  962
1725, 1004, 1003,  944
1726, 1003, 1002,  942
1727, 1073, 1021,  956
1728, 1156, 1108, 1096
1729,  947,  888,  869
1730,  947,  946,  888
1731,  951,  869,  886
1732,  951,  947,  869
1733,  985,  955,  895
1734,  948,  889,  865
1735,  985,  949,  955
1736,  949,  864,  889
1737,  950,  885,  867
1738, 1045, 1043,  988
1739, 1015, 1010,  953
1740,  989,  947,  951
1741, 1072, 1071, 1018
1742,  952,  945,  868
1743, 1016,  953,  954
1744,  954,  893,  894
1745,  955,  954,  894
1746, 1007,  949,  948
1747,  955,  894,  895
1748, 1007,  955,  949
1749, 1021, 1013,  896
1750,  956,  896,  897
1751,  957,  910,  925
1752,  958,  925,  927
1753,  987,  927,  926
1754, 1011,  952,  990
1755,  960,  902,  959
1756,  959,  902,  899
1757, 1142, 1092, 1141
1758,  965,  908,  960
1759,  966,  904,  905
1760, 1029,  965, 1024
1761, 1005,  943,  967
1762,  962,  907,  906
1763,  963,  900,  901
1764, 1117,  969, 1031
1765,  964,  959,  899
1766,  964,  900,  963
1767,  965,  905,  908
1768, 1025,  959,  964
1769,  966,  961,  904
1770,  966,  905,  965
1771,  967,  943,  903
1772,  967,  903,  907
1773,  968,  833,  891
1774,  970,  891,  912
1775,  983,  928,  851
1776, 1183, 1131, 1143
1777,  970,  912,  850
1778,  970,  850,  909
1779,  971,  917,  922
1780,  974,  922,  918
1781,  972,  918,  919
1782,  977,  919,  923
1783,  973,  916,  921
1784,  975,  973,  921
1785,  974,  971,  922
1786,  974,  918,  972
1787,  975,  921,  917
1788, 1035,  971, 1032
1789,  999,  994,  936
1790,  976,  914,  916
1791,  978,  923,  911
1792, 1136, 1085, 1135
1793,  982,  978,  911
1794, 1172, 1171, 1127
1795, 1002,  999,  933
1796,  979,  920,  914
1797,  981,  913,  920
1798, 1080, 1025, 1026
1799, 1040,  979,  976
1800, 1093, 1041, 1092
1801,  982,  911,  910
1802, 1019,  957, 1018
1803,  983,  969,  928
1804, 1042,  915,  980
1805,  984,  881,  892
1806,  984,  842,  903
1807,  985,  895,  890
1808,  985,  864,  949
1809,  986,  926,  924
1810, 1066,  924, 1012
1811,  987,  958,  927
1812,  987,  926,  986
1813,  988,  950,  932
1814, 1001,  932,  939
1815, 1009,  951,  945
1816, 1009,  989,  951
1817, 1020, 1018,  958
1818,  990,  952,  950
1819, 1016, 1015,  953
1820,  991,  946,  947
1821,  992,  939,  930
1822, 1000,  930,  931
1823,  993,  931,  938
1824,  998,  938,  935
1825,  994,  934,  936
1826,  999,  936,  933
1827,  995,  929,  937
1828,  996,  995,  937
1829,  996,  937,  934
1830, 1048, 1047,  996
1831,  998,  935,  997
1832,  997,  935,  929
1833, 1052,  998, 1051
1834,  998,  993,  938
1835, 1002,  933,  942
1836, 1041,  979, 1040
1837, 1000,  992,  930
1838, 1000,  931,  993
1839, 1001,  988,  932
1840, 1001,  939,  992
1841, 1003,  942,  944
1842, 1056, 1049,  999
1843, 1004,  944,  941
1844, 1082, 1028, 1027
1845, 1006,  941,  940
1846, 1083, 1029, 1081
1847, 1005,  940,  943
1848, 1014,  967,  962
1849, 1014, 1006, 1005
1850, 1006, 1004,  941
1851, 1017,  955, 1007
1852, 1008,  948,  946
1853, 1070, 1069, 1015
1854, 1069, 1065, 1015
1855, 1011,  945,  952
1856, 1062, 1046,  989
1857, 1010,  897,  827
1858, 1010,  898,  953
1859, 1063,  990, 1043
1860, 1063, 1011,  990
1861, 1068,  854,  776
1862, 1230, 1204, 1121
1863, 1067,  823, 1013
1864, 1013,  823,  830
1865, 1028,  961, 1027
1866, 1059, 1058, 1004
1867, 1060,  991, 1046
1868, 1070, 1015, 1016
1869, 1017, 1016,  954
1870, 1061, 1007, 1008
1871, 1017,  954,  955
1872, 1061, 1017, 1007
1873, 1018,  957,  958
1874, 1020,  958,  987
1875, 1098, 1097, 1053
1876, 1019,  982,  957
1877, 1044,  987,  986
1878, 1064, 1011, 1063
1879, 1235, 1120, 1230
1880, 1119, 1116, 1021
1881, 1054, 1000, 1053
1882, 1022,  978,  982
1883, 1024,  960, 1023
1884, 1023,  960,  959
1885, 1057, 1056, 1002
1886, 1024,  965,  960
1887, 1026,  964,  963
1888, 1080, 1078, 1025
1889, 1117, 1031, 1026
1890, 1117, 1026,  963
1891, 1058, 1057, 1003
1892, 1029, 1027,  966
1893, 1028, 1014,  962
1894, 1028,  962,  961
1895, 1029,  966,  965
1896, 1079, 1024, 1023
1897, 1030,  901,  968
1898, 1030,  968,  970
1899, 1042,  983,  915
1900, 1042, 1031,  983
1901, 1032,  971,  974
1902, 1037,  974,  972
1903, 1033,  976,  973
1904, 1034,  973,  975
1905, 1035, 1034,  975
1906, 1088, 1032, 1084
1907, 1035,  975,  971
1908, 1139, 1087, 1138
1909, 1036,  980,  981
1910, 1041,  981,  979
1911, 1038,  972,  977
1912, 1212, 1175, 1211
1913, 1039, 1038,  977
1914, 1076, 1022, 1074
1915, 1039,  977,  978
1916, 1124, 1071, 1123
1917, 1091, 1033, 1086
1918, 1092, 1040, 1091
1919, 1141, 1091, 1140
1920, 1041, 1036,  981
1921, 1094,  980, 1036
1922, 1090, 1080, 1026
1923, 1043,  990,  988
1924, 1045,  988, 1001
1925, 1115,  986, 1066
1926, 1114, 1113, 1064
1927, 1055, 1001,  992
1928, 1095, 1077, 1045
1929, 1108, 1046, 1096
1930, 1062,  989, 1009
1931, 1047,  995,  996
1932, 1048,  996,  994
1933, 1049,  994,  999
1934, 1103, 1102, 1048
1935, 1056,  999, 1002
1936, 1140, 1086, 1139
1937, 1138, 1088, 1137
1938, 1050,  997,  995
1939, 1101, 1050, 1100
1940, 1051,  998,  997
1941, 1085, 1084, 1037
1942, 1052,  993,  998
1943, 1089, 1039, 1076
1944, 1053, 1000,  993
1945, 1126, 1074, 1124
1946, 1054,  992, 1000
1947, 1055, 1045, 1001
1948, 1055,  992, 1054
1949, 1057, 1002, 1003
1950, 1106, 1105, 1056
1951, 1058, 1003, 1004
1952, 1221, 1182, 1218
1953, 1059, 1004, 1006
1954, 1118, 1082, 1109
1955, 1059, 1006, 1014
1956, 1118, 1014, 1028
1957, 1122, 1112, 1069
1958, 1060, 1008,  991
1959, 1061, 1016, 1017
1960, 1061, 1008, 1060
1961, 1064, 1009, 1011
1962, 1169, 1122, 1156
1963, 1132, 1077, 1127
1964, 1075, 1072, 1020
1965, 1114, 1064, 1063
1966, 1064, 1062, 1009
1967, 1065,  956,  897
1968, 1065, 1010, 1015
1969, 1066,  986,  924
1970, 1111, 1012, 1068
1971, 1235, 1067, 1120
1972, 1116, 1013, 1021
1973, 1068, 1012,  854
1974, 1230, 1120, 1204
1975, 1163, 1159, 1070
1976, 1112, 1065, 1069
1977, 1070, 1016, 1061
1978, 1163, 1061, 1060
1979, 1071, 1019, 1018
1980, 1072, 1018, 1020
1981, 1075, 1020, 1044
1982, 1110, 1043, 1077
1983, 1232, 1228, 1226
1984, 1112, 1073,  956
1985, 1170, 1126, 1168
1986, 1074, 1022, 1019
1987, 1161, 1044, 1115
1988, 1114, 1063, 1110
1989, 1168, 1124, 1166
1990, 1076, 1039, 1022
1991, 1077, 1043, 1045
1992, 1095, 1045, 1055
1993, 1079, 1023, 1078
1994, 1078, 1023, 1025
1995, 1131, 1130, 1078
1996, 1081, 1024, 1079
1997, 1090, 1026, 1031
1998, 1094, 1090, 1042
1999, 1107, 1106, 1057
2000, 1081, 1029, 1024
2001, 1118, 1109, 1059
2002, 1083, 1082, 1027
2003, 1083, 1027, 1029
2004, 1183, 1174, 1130
2005, 1084, 1032, 1037
2006, 1085, 1037, 1038
2007, 1089, 1085, 1038
2008, 1135, 1089, 1129
2009, 1086, 1033, 1034
2010, 1087, 1034, 1035
2011, 1088, 1087, 1035
2012, 1137, 1084, 1136
2013, 1088, 1035, 1032
2014, 1175, 1135, 1173
2015, 1089, 1038, 1039
2016, 1129, 1076, 1126
2017, 1090, 1031, 1042
2018, 1094, 1042,  980
2019, 1105, 1103, 1049
2020, 1091, 1040, 1033
2021, 1218, 1181, 1217
2022, 1092, 1041, 1040
2023, 1131, 1080, 1090
2024, 1093, 1036, 1041
2025, 1143, 1131, 1094
2026, 1131, 1090, 1094
2027, 1099, 1055, 1054
2028, 1206, 1171, 1172
2029, 1096, 1046, 1062
2030, 1113, 1062, 1064
2031, 1097, 1054, 1053
2032, 1098, 1053, 1052
2033, 1104, 1052, 1051
2034, 1173, 1129, 1170
2035, 1099, 1095, 1055
2036, 1099, 1054, 1097
2037, 1100, 1050, 1047
2038, 1102, 1047, 1048
2039, 1177, 1136, 1175
2040, 1101, 1051, 1050
2041, 1103, 1048, 1049
2042, 1179, 1138, 1178
2043, 1105, 1049, 1056
2044, 1180, 1139, 1179
2045, 1104, 1098, 1052
2046, 1104, 1051, 1101
2047, 1106, 1056, 1057
2048, 1181, 1140, 1180
2049, 1107, 1057, 1058
2050, 1134, 1081, 1133
2051, 1109, 1107, 1058
2052, 1219, 1155, 1109
2053, 1163, 1108, 1159
2054, 1108, 1060, 1046
2055, 1109, 1058, 1059
2056, 1219, 1134, 1194
2057, 1125, 1123, 1072
2058, 1110, 1063, 1043
2059, 1197, 1116, 1119
2060, 1111, 1066, 1012
2061, 1112,  956, 1065
2062, 1159, 1122, 1069
2063, 1162, 1113, 1114
2064, 1113, 1096, 1062
2065, 1195, 1132, 1171
2066, 1162, 1114, 1157
2067, 1115, 1044,  986
2068, 1160, 1066, 1111
2069, 1116, 1067, 1013
2070, 1119, 1021, 1073
2071, 1117,  963, 1030
2072, 1117, 1030,  969
2073, 1118, 1059, 1014
2074, 1118, 1028, 1082
2075, 1165, 1073, 1128
2076, 1164, 1160, 1111
2077, 1204, 1164, 1121
2078, 1120, 1067, 1116
2079, 1121, 1111, 1068
2080, 1233, 1121, 1068
2081, 1198, 1156, 1158
2082, 1128, 1112, 1122
2083, 1123, 1071, 1072
2084, 1125, 1072, 1075
2085, 1144, 1127, 1095
2086, 1124, 1074, 1071
2087, 1196, 1075, 1161
2088, 1157, 1110, 1132
2089, 1145, 1144, 1099
2090, 1126, 1076, 1074
2091, 1127, 1077, 1095
2092, 1144, 1095, 1099
2093, 1228, 1208, 1203
2094, 1128, 1073, 1112
2095, 1146, 1145, 1097
2096, 1129, 1089, 1076
2097, 1133, 1079, 1130
2098, 1130, 1079, 1078
2099, 1131, 1078, 1080
2100, 1143, 1094, 1036
2101, 1167, 1166, 1123
2102, 1132, 1110, 1077
2103, 1155, 1154, 1107
2104, 1133, 1081, 1079
2105, 1194, 1134, 1176
2106, 1134, 1083, 1081
2107, 1147, 1146, 1098
2108, 1135, 1085, 1089
2109, 1214, 1177, 1212
2110, 1136, 1084, 1085
2111, 1178, 1137, 1177
2112, 1137, 1088, 1084
2113, 1149, 1148, 1100
2114, 1138, 1087, 1088
2115, 1151, 1149, 1102
2116, 1139, 1086, 1087
2117, 1152, 1151, 1103
2118, 1140, 1091, 1086
2119, 1153, 1152, 1105
2120, 1141, 1092, 1091
2121, 1183, 1130, 1131
2122, 1142, 1093, 1092
2123, 1143, 1036, 1093
2124, 1183, 1093, 1142
2125, 1145, 1099, 1097
2126, 1206, 1205, 1171
2127, 1146, 1097, 1098
2128, 1207, 1168, 1206
2129, 1147, 1098, 1104
2130, 1210, 1170, 1207
2131, 1150, 1104, 1101
2132, 1211, 1173, 1210
2133, 1148, 1101, 1100
2134, 1149, 1100, 1102
2135, 1151, 1102, 1103
2136, 1215, 1189, 1188
2137, 1150, 1147, 1104
2138, 1150, 1101, 1148
2139, 1152, 1103, 1105
2140, 1216, 1179, 1215
2141, 1153, 1105, 1106
2142, 1217, 1180, 1216
2143, 1154, 1153, 1106
2144, 1194, 1193, 1154
2145, 1154, 1106, 1107
2146, 1229, 1213, 1174
2147, 1155, 1107, 1109
2148, 1219, 1109, 1082
2149, 1159, 1156, 1122
2150, 1158, 1096, 1113
2151, 1162, 1158, 1113
2152, 1157, 1114, 1110
2153, 1202, 1198, 1201
2154, 1158, 1156, 1096
2155, 1159, 1069, 1070
2156, 1159, 1108, 1156
2157, 1160, 1115, 1066
2158, 1164, 1111, 1121
2159, 1161, 1075, 1044
2160, 1199, 1115, 1160
2161, 1200, 1157, 1195
2162, 1224, 1200, 1222
2163, 1163, 1070, 1061
2164, 1163, 1060, 1108
2165, 1227, 1197, 1203
2166, 1203, 1197, 1119
2167, 1165, 1119, 1073
2168, 1209, 1169, 1202
2169, 1166, 1124, 1123
2170, 1167, 1123, 1125
2171, 1220, 1125, 1196
2172, 1205, 1195, 1171
2173, 1184, 1172, 1144
2174, 1168, 1126, 1124
2175, 1169, 1128, 1122
2176, 1201, 1162, 1200
2177, 1185, 1184, 1145
2178, 1170, 1129, 1126
2179, 1171, 1132, 1127
2180, 1172, 1127, 1144
2181, 1184, 1144, 1145
2182, 1207, 1206, 1172
2183, 1186, 1185, 1146
2184, 1173, 1135, 1129
2185, 1176, 1133, 1174
2186, 1174, 1133, 1130
2187, 1187, 1186, 1147
2188, 1175, 1136, 1135
2189, 1225, 1194, 1176
2190, 1176, 1134, 1133
2191, 1215, 1214, 1189
2192, 1177, 1137, 1136
2193, 1216, 1215, 1188
2194, 1178, 1138, 1137
2195, 1190, 1188, 1149
2196, 1179, 1139, 1138
2197, 1191, 1190, 1151
2198, 1180, 1140, 1139
2199, 1192, 1191, 1152
2200, 1181, 1141, 1140
2201, 1225, 1221, 1193
2202, 1182, 1142, 1141
2203, 1183, 1143, 1093
2204, 1229, 1182, 1213
2205, 1185, 1145, 1146
2206, 1210, 1207, 1184
2207, 1186, 1146, 1147
2208, 1211, 1210, 1185
2209, 1187, 1147, 1150
2210, 1212, 1211, 1186
2211, 1189, 1150, 1148
2212, 1214, 1212, 1187
2213, 1188, 1148, 1149
2214, 1190, 1149, 1151
2215, 1189, 1187, 1150
2216, 1189, 1148, 1188
2217, 1191, 1151, 1152
2218, 1217, 1216, 1190
2219, 1192, 1152, 1153
2220, 1218, 1217, 1191
2221, 1193, 1192, 1153
2222, 1221, 1218, 1192
2223, 1193, 1153, 1154
2224, 1225, 1213, 1221
2225, 1194, 1154, 1155
2226, 1219, 1194, 1155
2227, 1224, 1222, 1220
2228, 1195, 1157, 1132
2229, 1196, 1125, 1075
2230, 1223, 1161, 1199
2231, 1197, 1120, 1116
2232, 1203, 1119, 1165
2233, 1198, 1169, 1156
2234, 1201, 1158, 1162
2235, 1199, 1161, 1115
2236, 1208, 1160, 1164
2237, 1200, 1162, 1157
2238, 1222, 1195, 1205
2239, 1234, 1201, 1224
2240, 1201, 1198, 1158
2241, 1231, 1223, 1226
2242, 1202, 1169, 1198
2243, 1232, 1226, 1223
2244, 1227, 1204, 1197
2245, 1230, 1121,  751
2246, 1204, 1120, 1197
2247, 1205, 1166, 1167
2248, 1222, 1205, 1167
2249, 1206, 1168, 1166
2250, 1206, 1166, 1205
2251, 1207, 1172, 1184
2252, 1207, 1170, 1168
2253, 1208, 1199, 1160
2254, 1227, 1208, 1164
2255, 1209, 1165, 1128
2256, 1209, 1128, 1169
2257, 1210, 1184, 1185
2258, 1210, 1173, 1170
2259, 1211, 1185, 1186
2260, 1211, 1175, 1173
2261, 1212, 1186, 1187
2262, 1212, 1177, 1175
2263, 1213, 1176, 1174
2264, 1229, 1174, 1183
2265, 1214, 1187, 1189
2266, 1214, 1178, 1177
2267, 1215, 1179, 1178
2268, 1215, 1178, 1214
2269, 1216, 1188, 1190
2270, 1216, 1180, 1179
2271, 1217, 1190, 1191
2272, 1217, 1181, 1180
2273, 1218, 1191, 1192
2274, 1218, 1182, 1181
2275, 1219, 1082, 1083
2276, 1219, 1083, 1134
2277, 1220, 1167, 1125
2278, 1234, 1226, 1202
2279, 1221, 1192, 1193
2280, 1221, 1213, 1182
2281, 1222, 1167, 1220
2282, 1222, 1200, 1195
2283, 1223, 1196, 1161
2284, 1232, 1208, 1228
2285, 1231, 1224, 1220
2286, 1224, 1201, 1200
2287, 1225, 1193, 1194
2288, 1225, 1176, 1213
2289, 1226, 1209, 1202
2290, 1234, 1231, 1226
2291, 1227, 1203, 1208
2292, 1227, 1164, 1204
2293, 1228, 1203, 1165
2294, 1228, 1165, 1209
2295, 1229, 1183, 1142
2296, 1229, 1142, 1182
2297, 1230,  751,  752
2298, 1235, 1230,  752
2299, 1231, 1220, 1196
2300, 1231, 1196, 1223
2301, 1232, 1223, 1199
2302, 1232, 1199, 1208
2303, 1233,  776,  751
2304, 1233,  751, 1121
2305, 1234, 1202, 1201
2306, 1234, 1224, 1231
2307, 1235,  752,  775
2308, 1235,  775, 1067
*Orientation, name=Ori-1
1., 0., 0., 0., 1., 0.
3, 0.
** Region: (CompositeLayup-1-1: Generated From Layup)
*Elset, elset=CompositeLayup-1-1, generate
    1,  2308,     1
** Section: CompositeLayup-1-1
*Shell Section, elset=CompositeLayup-1-1, composite, orientation=Ori-1, layup=CompositeLayup-1, symmetric
0.25, 3, CFRP, 0., Ply-1
0.25, 3, CFRP, 45., Ply-2
0.25, 3, CFRP, 90., Ply-3
0.25, 3, CFRP, -45., Ply-4
*End Part
**  
**
** ASSEMBLY
**
*Assembly, name=Assembly
**  
*Instance, name=Plate-1, part=PLATE
*End Instance
**  
*Nset, nset=Set-1, instance=Plate-1
   6,   7,  12,  67,  68,  69,  70,  71,  72,  73,  74,  75,  76,  77,  78,  79
  80, 168, 169, 170, 171, 172, 173, 174, 175, 176, 177, 178, 179, 180, 181, 182
 183, 184, 185, 186, 187, 188, 189, 190, 191, 192, 193, 194, 195, 196
*Elset, elset=Set-1, instance=Plate-1
  253,  254,  268,  327,  329,  330,  332,  334,  336,  338,  340,  342,  344,  346,  348, 1282
 1283, 1293, 1401, 1404, 1406, 1408, 1410, 1412, 1414, 1416, 1418, 1420, 1422, 1424, 1426, 1428
 1430, 1432, 1434, 1436, 1438, 1440, 1442, 1444, 1446, 1448, 1450, 1452, 1598
*Nset, nset=Set-2, instance=Plate-1
   4,   5,  11,  31,  32,  33,  34,  35,  36,  37,  38,  39,  40,  41,  42,  43
  44, 129, 130, 131, 132, 133, 134, 135, 136, 137, 138, 139, 140, 141, 142, 143
 144, 145, 146, 147, 148, 149, 150, 151, 152, 153, 154, 155, 156, 157
*Elset, elset=Set-2, instance=Plate-1
  19,  22,  35,  77,  80,  82,  84,  86,  88,  90,  92,  94,  96,  98, 148, 776
 777, 783, 873, 876, 878, 880, 882, 884, 886, 888, 890, 892, 894, 896, 898, 900
 902, 904, 906, 908, 910, 912, 914, 916, 918, 920, 922, 924, 926
*End Assembly
** 
** MATERIALS
** 
*Material, name=CFRP
*Elastic, type=ENGINEERING CONSTANTS
150000.,9000.,9000., 0.34, 0.34,  0.4,5000.,5000.
5000.,
** ----------------------------------------------------------------
** 
** STEP: Step-1
** 
*Step, name=Step-1, nlgeom=NO
*Static
1., 1., 1e-05, 1.
** 
** BOUNDARY CONDITIONS
** 
** Name: BC-1 Type: Symmetry/Antisymmetry/Encastre
*Boundary
Set-1, ENCASTRE
** Name: DISPLACEMENT Type: Displacement/Rotation
*Boundary
Set-2, 1, 1, 1.26316
** 
** OUTPUT REQUESTS
** 
*Restart, write, frequency=0
** 
** FIELD OUTPUT: F-Output-1
** 
*Output, field
*Element Output, position=NODES, directions=YES
E, 
** 
** HISTORY OUTPUT: H-Output-1
** 
*Output, history, variable=PRESELECT
*End Step
