*Heading
** Job name: Plate_104 Model name: Model-1
** Generated by: Abaqus/CAE 2024.HF3
*Preprint, echo=NO, model=NO, history=NO, contact=NO
**
** PARTS
**
*Part, name=PLATE
*Node
      1,   46.5293503,   166.276428,           0.
      2,   46.5293503,   83.1725616,           0.
      3,   65.9626083,   63.7392998,           0.
      4,   121.380913,   63.7392998,           0.
      5,   121.380913,   166.276428,           0.
      6,           0.,   166.276428,           0.
      7,           0.,   63.7392998,           0.
      8,   27.0960884,   63.7392998,           0.
      9,   46.5293503,   44.3060379,           0.
     10,   46.5293503,           0.,           0.
     11,   121.380913,           0.,           0.
     12,           0.,           0.,           0.
     13,   46.5293503,   161.902542,           0.
     14,   46.5293503,   157.528656,           0.
     15,   46.5293503,    153.15477,           0.
     16,   46.5293503,   148.780884,           0.
     17,   46.5293503,   144.406998,           0.
     18,   46.5293503,   140.033112,           0.
     19,   46.5293503,   135.659225,           0.
     20,   46.5293503,   131.285324,           0.
     21,   46.5293503,   126.911446,           0.
     22,   46.5293503,   122.537552,           0.
     23,   46.5293503,   118.163666,           0.
     24,   46.5293503,    113.78978,           0.
     25,   46.5293503,   109.415894,           0.
     26,   46.5293503,      105.042,           0.
     27,   46.5293503,   100.668114,           0.
     28,   46.5293503,   96.2942276,           0.
     29,   46.5293503,   91.9203339,           0.
     30,   46.5293503,   87.5464478,           0.
     31,   50.8536568,   82.6853256,           0.
     32,   54.9611244,   81.2480621,           0.
     33,   58.6457901,   78.9328384,           0.
     34,   61.7228851,   75.8557434,           0.
     35,   64.0381165,   72.1710739,           0.
     36,   65.4753799,   68.0636063,           0.
     37,   70.2255554,   63.7392998,           0.
     38,   74.4885025,   63.7392998,           0.
     39,   78.7514496,   63.7392998,           0.
     40,   83.0143967,   63.7392998,           0.
     41,   87.2773438,   63.7392998,           0.
     42,   91.5402908,   63.7392998,           0.
     43,   95.8032379,   63.7392998,           0.
     44,   100.066185,   63.7392998,           0.
     45,   104.329132,   63.7392998,           0.
     46,   108.592072,   63.7392998,           0.
     47,   112.855019,   63.7392998,           0.
     48,   117.117966,   63.7392998,           0.
     49,   121.380913,   68.0116806,           0.
     50,   121.380913,   72.2840576,           0.
     51,   121.380913,   76.5564423,           0.
     52,   121.380913,   80.8288193,           0.
     53,   121.380913,   85.1012039,           0.
     54,   121.380913,   89.3735809,           0.
     55,   121.380913,   93.6459656,           0.
     56,   121.380913,   97.9183426,           0.
     57,   121.380913,   102.190727,           0.
     58,   121.380913,   106.463104,           0.
     59,   121.380913,   110.735489,           0.
     60,   121.380913,   115.007866,           0.
     61,   121.380913,   119.280251,           0.
     62,   121.380913,   123.552628,           0.
     63,   121.380913,   127.825012,           0.
     64,   121.380913,   132.097397,           0.
     65,   121.380913,   136.369766,           0.
     66,   121.380913,   140.642151,           0.
     67,   121.380913,   144.914536,           0.
     68,   121.380913,   149.186905,           0.
     69,   121.380913,    153.45929,           0.
     70,   121.380913,   157.731674,           0.
     71,   121.380913,   162.004059,           0.
     72,   116.977882,   166.276428,           0.
     73,   112.574844,   166.276428,           0.
     74,   108.171814,   166.276428,           0.
     75,   103.768784,   166.276428,           0.
     76,   99.3657455,   166.276428,           0.
     77,   94.9627151,   166.276428,           0.
     78,   90.5596848,   166.276428,           0.
     79,   86.1566467,   166.276428,           0.
     80,   81.7536163,   166.276428,           0.
     81,   77.3505859,   166.276428,           0.
     82,   72.9475479,   166.276428,           0.
     83,   68.5445175,   166.276428,           0.
     84,   64.1414795,   166.276428,           0.
     85,   59.7384491,   166.276428,           0.
     86,   55.3354149,   166.276428,           0.
     87,   50.9323845,   166.276428,           0.
     88,    42.299408,   166.276428,           0.
     89,   38.0694695,   166.276428,           0.
     90,   33.8395271,   166.276428,           0.
     91,   29.6095867,   166.276428,           0.
     92,   25.3796463,   166.276428,           0.
     93,    21.149704,   166.276428,           0.
     94,   16.9197636,   166.276428,           0.
     95,   12.6898232,   166.276428,           0.
     96,   8.45988178,   166.276428,           0.
     97,   4.22994089,   166.276428,           0.
     98,           0.,   162.004059,           0.
     99,           0.,   157.731674,           0.
    100,           0.,    153.45929,           0.
    101,           0.,   149.186905,           0.
    102,           0.,   144.914536,           0.
    103,           0.,   140.642151,           0.
    104,           0.,   136.369766,           0.
    105,           0.,   132.097397,           0.
    106,           0.,   127.825012,           0.
    107,           0.,   123.552628,           0.
    108,           0.,   119.280251,           0.
    109,           0.,   115.007866,           0.
    110,           0.,   110.735489,           0.
    111,           0.,   106.463104,           0.
    112,           0.,   102.190727,           0.
    113,           0.,   97.9183426,           0.
    114,           0.,   93.6459656,           0.
    115,           0.,   89.3735809,           0.
    116,           0.,   85.1012039,           0.
    117,           0.,   80.8288193,           0.
    118,           0.,   76.5564423,           0.
    119,           0.,   72.2840576,           0.
    120,           0.,   68.0116806,           0.
    121,   4.51601505,   63.7392998,           0.
    122,   9.03203011,   63.7392998,           0.
    123,   13.5480442,   63.7392998,           0.
    124,   18.0640602,   63.7392998,           0.
    125,   22.5800743,   63.7392998,           0.
    126,   27.5833206,   68.0636063,           0.
    127,    29.020586,   72.1710739,           0.
    128,   31.3358154,   75.8557434,           0.
    129,   34.4129105,   78.9328384,           0.
    130,   38.0975723,   81.2480621,           0.
    131,   42.2050438,   82.6853256,           0.
    132,   46.5293503,   39.8754349,           0.
    133,   46.5293503,   35.4448318,           0.
    134,   46.5293503,   31.0142269,           0.
    135,   46.5293503,   26.5836239,           0.
    136,   46.5293503,    22.153019,           0.
    137,   46.5293503,   17.7224159,           0.
    138,   46.5293503,   13.2918119,           0.
    139,   46.5293503,   8.86120796,           0.
    140,   46.5293503,   4.43060398,           0.
    141,   50.9323845,           0.,           0.
    142,   55.3354149,           0.,           0.
    143,   59.7384491,           0.,           0.
    144,   64.1414795,           0.,           0.
    145,   68.5445175,           0.,           0.
    146,   72.9475479,           0.,           0.
    147,   77.3505859,           0.,           0.
    148,   81.7536163,           0.,           0.
    149,   86.1566467,           0.,           0.
    150,   90.5596848,           0.,           0.
    151,   94.9627151,           0.,           0.
    152,   99.3657455,           0.,           0.
    153,   103.768784,           0.,           0.
    154,   108.171814,           0.,           0.
    155,   112.574844,           0.,           0.
    156,   116.977882,           0.,           0.
    157,   121.380913,   4.24928665,           0.
    158,   121.380913,    8.4985733,           0.
    159,   121.380913,     12.74786,           0.
    160,   121.380913,   16.9971466,           0.
    161,   121.380913,   21.2464333,           0.
    162,   121.380913,   25.4957199,           0.
    163,   121.380913,   29.7450066,           0.
    164,   121.380913,   33.9942932,           0.
    165,   121.380913,   38.2435799,           0.
    166,   121.380913,   42.4928665,           0.
    167,   121.380913,   46.7421532,           0.
    168,   121.380913,   50.9914398,           0.
    169,   121.380913,   55.2407265,           0.
    170,   121.380913,   59.4900131,           0.
    171,   65.4753799,   59.4149933,           0.
    172,   64.0381165,   55.3075256,           0.
    173,   61.7228851,     51.62286,           0.
    174,   58.6457901,   48.5457649,           0.
    175,   54.9611244,   46.2305374,           0.
    176,   50.8536568,   44.7932701,           0.
    177,   42.2050438,   44.7932701,           0.
    178,   38.0975723,   46.2305374,           0.
    179,   34.4129105,   48.5457649,           0.
    180,   31.3358154,     51.62286,           0.
    181,    29.020586,   55.3075256,           0.
    182,   27.5833206,   59.4149933,           0.
    183,           0.,   59.4900131,           0.
    184,           0.,   55.2407265,           0.
    185,           0.,   50.9914398,           0.
    186,           0.,   46.7421532,           0.
    187,           0.,   42.4928665,           0.
    188,           0.,   38.2435799,           0.
    189,           0.,   33.9942932,           0.
    190,           0.,   29.7450066,           0.
    191,           0.,   25.4957199,           0.
    192,           0.,   21.2464333,           0.
    193,           0.,   16.9971466,           0.
    194,           0.,     12.74786,           0.
    195,           0.,    8.4985733,           0.
    196,           0.,   4.24928665,           0.
    197,   4.22994089,           0.,           0.
    198,   8.45988178,           0.,           0.
    199,   12.6898232,           0.,           0.
    200,   16.9197636,           0.,           0.
    201,    21.149704,           0.,           0.
    202,   25.3796463,           0.,           0.
    203,   29.6095867,           0.,           0.
    204,   33.8395271,           0.,           0.
    205,   38.0694695,           0.,           0.
    206,    42.299408,           0.,           0.
    207,   50.5156822,   160.393982,           0.
    208,   59.4850349,   83.4655914,           0.
    209,   65.5853195,   75.9553757,           0.
    210,   68.3295517,   72.0865784,           0.
    211,   50.3158302,    142.21312,           0.
    212,   50.3152275,   137.844193,           0.
    213,   50.3143539,   133.471588,           0.
    214,   50.3136024,   129.098129,           0.
    215,   50.3131638,   124.724403,           0.
    216,    50.313076,   120.350571,           0.
    217,   50.3129997,   115.976669,           0.
    218,   50.3127441,   111.602707,           0.
    219,   50.3130646,   107.228485,           0.
    220,    50.321312,   102.844994,           0.
    221,   50.3433876,   98.4247437,           0.
    222,    50.434639,   93.8968811,           0.
    223,   50.6688919,   88.9961395,           0.
    224,   62.7533455,    79.606575,           0.
    225,   55.3454514,   86.3702698,           0.
    226,   89.4057922,   67.4376755,           0.
    227,   85.1028748,   67.4523087,           0.
    228,   80.7512436,    67.511261,           0.
    229,   76.2504578,   67.7451477,           0.
    230,   71.3969193,   67.9472122,           0.
    231,   117.364586,   160.515244,           0.
    232,   117.558929,   151.392075,           0.
    233,   117.635567,   147.069656,           0.
    234,   117.665794,   142.782959,           0.
    235,   117.674606,   138.506821,           0.
    236,   117.676193,   134.233749,           0.
    237,    117.67662,   129.961227,           0.
    238,    117.67675,    125.68882,           0.
    239,   117.676796,   121.416435,           0.
    240,   117.676842,   117.144043,           0.
    241,   117.676926,   112.871628,           0.
    242,   117.677139,   108.599167,           0.
    243,   117.677567,   104.326683,           0.
    244,   117.678192,   100.054222,           0.
    245,   117.678963,   95.7818298,           0.
    246,    117.67952,   91.5091324,           0.
    247,   117.677841,   87.2334824,           0.
    248,   117.655144,    82.920433,           0.
    249,   117.600044,   78.5559464,           0.
    250,   117.475319,   74.0817947,           0.
    251,   117.471214,   69.4401627,           0.
    252,    57.535099,   162.453629,           0.
    253,   61.8988991,   162.461349,           0.
    254,   66.3204956,   162.465546,           0.
    255,   70.7415924,   162.467697,           0.
    256,   75.1485672,   162.468506,           0.
    257,   79.5527954,   162.470261,           0.
    258,   83.9563141,   162.472824,           0.
    259,   88.3594818,   162.475769,           0.
    260,   92.7624359,   162.478699,           0.
    261,   97.1662216,   162.478088,           0.
    262,   101.568153,   162.461212,           0.
    263,   105.974266,   162.440323,           0.
    264,   110.339378,   162.464447,           0.
    265,   93.6721802,   67.4357834,           0.
    266,   102.187958,   67.4551239,           0.
    267,   97.9305191,   67.4398651,           0.
    268,   87.2510834,   71.1427307,           0.
    269,   78.5511398,    71.379158,           0.
    270,   114.263344,   67.1469269,           0.
    271,   82.9238358,   71.1848831,           0.
    272,   106.445221,   67.4748535,           0.
    273,    110.66452,    67.457283,           0.
    274,   117.399155,   155.851578,           0.
    275,   113.954338,   140.646805,           0.
    276,   113.834373,    76.288208,           0.
    277,   113.964104,   85.0439072,           0.
    278,   113.971107,   110.735161,           0.
    279,   113.970215,   127.825005,           0.
    280,   113.973091,   102.189789,           0.
    281,   113.970604,   119.280205,           0.
    282,   113.976303,   93.6443329,           0.
    283,   113.974525,   89.3580322,           0.
    284,   113.835251,   149.253082,           0.
    285,    113.90493,   144.941666,           0.
    286,   113.964882,   136.370972,           0.
    287,   113.968323,    132.09761,           0.
    288,   113.969955,   123.552605,           0.
    289,   113.970352,   115.007721,           0.
    290,   113.971512,   106.462418,           0.
    291,    113.97438,   97.9170532,           0.
    292,   113.934433,   80.6726379,           0.
    293,   54.1005096,   105.035484,           0.
    294,   54.0990601,   135.656616,           0.
    295,   54.0967369,   131.283936,           0.
    296,   54.2072334,   96.1770782,           0.
    297,   54.0945129,   118.163506,           0.
    298,   54.0939026,   113.789459,           0.
    299,   50.3400688,   146.594696,           0.
    300,   54.1013222,   140.017212,           0.
    301,   50.4045944,   151.039017,           0.
    302,   54.1277962,   100.633125,           0.
    303,    54.095211,   126.910835,           0.
    304,   54.0942764,   122.537285,           0.
    305,   54.0946503,   109.414291,           0.
    306,   103.808975,   158.518539,           0.
    307,   68.4988098,   158.660553,           0.
    308,    77.352623,   158.665955,           0.
    309,   86.1609879,   158.677567,           0.
    310,   94.9678192,   158.685883,           0.
    311,   53.8248596,   162.742905,           0.
    312,   59.6139755,   158.674591,           0.
    313,   64.0205307,   158.672974,           0.
    314,   81.7574844,   158.672287,           0.
    315,   72.9399872,   158.663361,           0.
    316,   90.5645523,   158.684402,           0.
    317,   99.3662949,   158.641418,           0.
    318,   108.260574,   158.546082,           0.
    319,   113.258644,   71.4621811,           0.
    320,   54.8696747,   158.348419,           0.
    321,   95.8003082,   71.1439133,           0.
    322,    108.62738,   71.3128662,           0.
    323,   100.043243,   71.1999741,           0.
    324,   104.330566,   71.3462601,           0.
    325,   80.7475586,   74.8677444,           0.
    326,   85.0760803,   74.8481293,           0.
    327,   91.5373611,   71.1404343,           0.
    328,   110.261017,   117.143814,           0.
    329,   110.260345,   121.416298,           0.
    330,   110.259628,   125.688614,           0.
    331,   110.257385,   129.960724,           0.
    332,   110.249588,   134.232712,           0.
    333,   110.221909,   138.506577,           0.
    334,   110.152794,   142.801895,           0.
    335,   110.261322,   112.871056,           0.
    336,   110.083214,   147.135071,           0.
    337,   110.262421,   108.598038,           0.
    338,   110.273781,   82.8000259,           0.
    339,   110.294334,   78.4105911,           0.
    340,   110.274506,   91.5005112,           0.
    341,   110.269279,   87.1751251,           0.
    342,   110.270508,   95.7786179,           0.
    343,   110.264198,   104.324921,           0.
    344,   110.266731,   100.051796,           0.
    345,   113.685814,   153.603455,           0.
    346,   54.4973373,   91.5556183,           0.
    347,   54.3209686,   148.814499,           0.
    348,   50.5306015,    155.63089,           0.
    349,    57.872097,   115.976135,           0.
    350,   57.8724632,   120.350014,           0.
    351,   57.8736038,   124.723274,           0.
    352,   57.8767586,    129.09523,           0.
    353,   57.8715553,   111.601807,           0.
    354,   57.9393463,   98.4694901,           0.
    355,   57.8921967,   102.848022,           0.
    356,   57.8760109,   107.226311,           0.
    357,   57.8864708,   133.463562,           0.
    358,   57.9047318,   137.812836,           0.
    359,   54.1623497,   144.376938,           0.
    360,   113.047272,   158.431549,           0.
    361,   75.1519928,   154.864975,           0.
    362,   70.6769409,   154.850296,           0.
    363,   66.1319733,   154.863815,           0.
    364,   61.6565514,    154.94397,           0.
    365,   97.1481171,   154.885071,           0.
    366,   79.5595551,   154.873459,           0.
    367,   101.474953,    154.78717,           0.
    368,   92.7653427,   154.900284,           0.
    369,   88.3675537,   154.893372,           0.
    370,   106.165924,   154.183121,           0.
    371,   83.9649429,   154.883865,           0.
    372,   73.6294785,   72.4244156,           0.
    373,   93.6755219,   74.8604584,           0.
    374,   97.9043121,    74.912529,           0.
    375,   106.580696,   75.6637878,           0.
    376,   102.069992,   75.0439453,           0.
    377,   82.8246384,   78.5635223,           0.
    378,   110.519081,   74.6275253,           0.
    379,   106.560738,   97.9142151,           0.
    380,   106.546211,   93.6330185,           0.
    381,   106.492905,   84.9201355,           0.
    382,   106.249626,   144.995667,           0.
    383,   106.406197,   140.644867,           0.
    384,   106.487717,    136.36853,           0.
    385,   106.525581,   132.096909,           0.
    386,   106.540054,   127.824326,           0.
    387,   106.544769,   123.552147,           0.
    388,    106.54644,   119.279747,           0.
    389,   106.513214,   89.3112946,           0.
    390,   106.606316,   80.4637985,           0.
    391,   106.549408,   110.733528,           0.
    392,   106.547302,   115.006805,           0.
    393,   106.555237,   102.186493,           0.
    394,   106.551277,   106.459778,           0.
    395,   89.3943405,   74.8512115,           0.
    396,   110.047112,   151.467041,           0.
    397,   110.241341,   155.246246,           0.
    398,   58.0912781,   94.0887756,           0.
    399,   61.7577972,   135.589264,           0.
    400,   61.6961212,   131.252167,           0.
    401,   57.9479523,   142.132614,           0.
    402,   61.6828499,   100.700798,           0.
    403,   61.6617661,   126.900261,           0.
    404,   61.6557541,   105.048225,           0.
    405,   61.6505127,   122.533745,           0.
    406,   61.6467896,   118.161835,           0.
    407,   61.6451797,   113.788429,           0.
    408,   61.6468582,   109.416168,           0.
    409,   58.0848656,   146.425278,           0.
    410,   54.4403267,   153.365387,           0.
    411,   57.8621483,   155.288132,           0.
    412,   94.9590454,     151.1241,           0.
    413,    90.565918,   151.115219,           0.
    414,   86.1684113,    151.10939,           0.
    415,   72.9023438,   151.043549,           0.
    416,   68.3178024,     150.9664,           0.
    417,   63.7083397,   151.088455,           0.
    418,   99.2998276,   151.139786,           0.
    419,   103.037323,   151.361755,           0.
    420,   81.7683105,   151.092819,           0.
    421,   77.3551407,   151.072678,           0.
    422,   114.060791,   162.792816,           0.
    423,   66.9736481,    79.796669,           0.
    424,   64.2757492,    83.403801,           0.
    425,   69.9203568,   76.2001572,           0.
    426,   58.8095932,   151.120361,           0.
    427,   73.9995117,   77.0480499,           0.
    428,   91.5443268,   78.5493469,           0.
    429,   95.7811737,   78.5561523,           0.
    430,   99.9391708,   78.6108932,           0.
    431,   103.524544,   78.4577179,           0.
    432,   102.810028,    95.777771,           0.
    433,   102.691429,   87.1301422,           0.
    434,   102.374504,    82.442215,           0.
    435,   102.685379,   91.4636383,           0.
    436,   102.581261,    142.71077,           0.
    437,   102.709129,   138.488388,           0.
    438,   102.771942,   134.233917,           0.
    439,   102.805565,   129.962936,           0.
    440,   102.820534,   125.688835,           0.
    441,   102.826393,   121.415771,           0.
    442,   102.829025,   117.142639,           0.
    443,   102.831284,   112.868843,           0.
    444,   102.834724,   100.049332,           0.
    445,   102.834122,   108.594536,           0.
    446,   102.836121,   104.320946,           0.
    447,   106.259148,   149.408981,           0.
    448,   78.0237045,   78.6766586,           0.
    449,   87.2302933,   78.5521011,           0.
    450,   58.4171677,   89.7590408,           0.
    451,   61.7676964,   96.3761368,           0.
    452,   65.6097488,   133.349442,           0.
    453,   61.8189507,   139.902603,           0.
    454,   65.4975281,    129.04541,           0.
    455,   65.4414291,   124.706306,           0.
    456,   65.4226685,   120.343994,           0.
    457,    65.431488,     102.8881,           0.
    458,   65.4187851,   107.237221,           0.
    459,   65.4163513,   115.973595,           0.
    460,   65.4150009,   111.603172,           0.
    461,   61.8386536,   144.186966,           0.
    462,   88.3561935,   147.348785,           0.
    463,   92.7837677,   147.291519,           0.
    464,   97.2207031,   147.374557,           0.
    465,   70.7283936,   147.238953,           0.
    466,   83.9732819,   147.332031,           0.
    467,   65.8703537,   146.750626,           0.
    468,   101.974251,   147.316986,           0.
    469,   75.1672211,   147.297379,           0.
    470,   79.5791626,   147.315079,           0.
    471,   61.6623611,   147.914337,           0.
    472,   76.9902802,   74.8792038,           0.
    473,   89.4134903,   82.2067795,           0.
    474,    93.678978,   82.1526184,           0.
    475,   97.8510742,   82.1281738,           0.
    476,   99.0663452,   132.105423,           0.
    477,   99.0214157,   136.373032,           0.
    478,   99.0785904,    93.696106,           0.
    479,   99.0967712,   127.826004,           0.
    480,   99.1037674,   123.551567,           0.
    481,   99.1321106,   97.8818436,           0.
    482,   98.9869156,   140.584457,           0.
    483,   99.1064529,   119.278214,           0.
    484,   98.5138092,   89.2373276,           0.
    485,   99.1089172,   115.004074,           0.
    486,   99.1120987,   110.727654,           0.
    487,   99.1236877,   102.151093,           0.
    488,    99.116478,   106.441742,           0.
    489,   85.0781708,    82.260582,           0.
    490,      80.6819,   82.4292526,           0.
    491,   61.9382172,   92.0222092,           0.
    492,   65.5067139,   98.5546112,           0.
    493,   69.3766174,   131.114944,           0.
    494,   65.8042297,   137.677887,           0.
    495,    69.266655,   126.835129,           0.
    496,    69.212265,   122.506798,           0.
    497,    69.178009,   105.054428,           0.
    498,   69.1899033,   118.151756,           0.
    499,   65.7893906,   142.038605,           0.
    500,   69.1766663,   109.419029,           0.
    501,   69.1807709,   113.786087,           0.
    502,   90.4957123,   143.637054,           0.
    503,   95.1498871,   143.147888,           0.
    504,   86.1863098,   143.637772,           0.
    505,   99.1826019,   144.226929,           0.
    506,   69.1349258,   143.896149,           0.
    507,    81.809639,   143.582184,           0.
    508,   72.9746323,   143.617874,           0.
    509,   77.3821106,   143.570129,           0.
    510,   91.6485367,   85.7987823,           0.
    511,   87.3492813,   85.9593735,           0.
    512,   95.2651901,   134.236923,           0.
    513,   95.3724365,   129.942123,           0.
    514,   95.2690125,   138.523727,           0.
    515,   95.3900986,   125.680466,           0.
    516,   95.3857498,   121.411713,           0.
    517,   95.3840637,   117.138672,           0.
    518,   95.6149445,   95.6829224,           0.
    519,   95.9168015,   92.1805191,           0.
    520,   95.4708023,   99.8995514,           0.
    521,    95.386467,   112.859451,           0.
    522,   95.4189987,   104.238556,           0.
    523,   95.3965988,   108.560204,           0.
    524,   62.0973129,   87.4295349,           0.
    525,   76.4551697,   82.9675903,           0.
    526,   82.9937973,    86.102005,           0.
    527,   65.6594467,   94.2205276,           0.
    528,   69.2521286,   100.691811,           0.
    529,   69.5614319,   135.314102,           0.
    530,   73.0852585,   128.935013,           0.
    531,   73.0101089,   124.674423,           0.
    532,   72.9695663,   120.367722,           0.
    533,   72.9224396,   107.255066,           0.
    534,   72.9475174,   116.033234,           0.
    535,   72.9298859,   111.671387,           0.
    536,     88.39254,   140.055405,           0.
    537,   84.0723419,   139.907242,           0.
    538,   70.2116852,   139.878815,           0.
    539,    79.598259,   139.758698,           0.
    540,   75.0729675,   139.859711,           0.
    541,   95.8586197,   85.6513367,           0.
    542,   99.4578857,   85.3178406,           0.
    543,   66.1069565,    86.355072,           0.
    544,   89.7615738,    89.707222,           0.
    545,   91.6451035,   131.914627,           0.
    546,   91.6965103,   127.725845,           0.
    547,   91.6807556,   123.484283,           0.
    548,   91.6648178,   119.222595,           0.
    549,   92.4979935,   93.0959854,           0.
    550,   91.8856354,   97.3952942,           0.
    551,   91.6595612,   114.940704,           0.
    552,   91.7594757,   101.865166,           0.
    553,   91.6939926,   106.254951,           0.
    554,   91.6658554,    110.59819,           0.
    555,   85.3168716,   89.9540176,           0.
    556,   78.6710052,   86.3371353,           0.
    557,   58.8362427,   86.7561111,           0.
    558,   72.9721222,    102.86541,           0.
    559,   69.4756088,   96.2985611,           0.
    560,   73.1909561,   133.122345,           0.
    561,   76.7847137,   126.906891,           0.
    562,   76.7471237,      122.667,           0.
    563,   76.7151947,   118.380959,           0.
    564,   76.6771011,   109.603958,           0.
    565,   76.6903458,   114.039452,           0.
    566,   86.3664093,   136.314819,           0.
    567,   81.9508667,   136.074707,           0.
    568,   77.1322174,   135.626724,           0.
    569,    91.050354,   136.391205,           0.
    570,   92.0715027,   140.351059,           0.
    571,   68.4601822,   83.4158096,           0.
    572,   88.0431213,    129.67627,           0.
    573,    87.917244,   94.3746796,           0.
    574,   87.9828186,   125.465538,           0.
    575,   87.9513092,   121.209488,           0.
    576,   87.9329605,   116.922073,           0.
    577,   88.1246033,   99.3332062,           0.
    578,   88.0169144,   103.758369,           0.
    579,   87.9241257,   112.571854,           0.
    580,    87.947731,   108.161896,           0.
    581,   94.0328903,   89.2785263,           0.
    582,   65.8819199,   89.9122391,           0.
    583,   80.8575897,   89.9738388,           0.
    584,   74.4881287,    86.701973,           0.
    585,   69.6037445,   91.9531403,           0.
    586,    76.709404,   105.154434,           0.
    587,   73.1347351,   98.5433884,           0.
    588,   76.8098907,   131.095642,           0.
    589,   80.5045395,   125.025742,           0.
    590,    80.478302,   120.768852,           0.
    591,   80.4494629,   116.454239,           0.
    592,   80.4347076,   112.058357,           0.
    593,   84.2336731,   132.118637,           0.
    594,   80.1231613,   132.823486,           0.
    595,   73.0338516,   136.760345,           0.
    596,   74.3886337,   80.4372635,           0.
    597,   72.4574051,   83.4992599,           0.
    598,   69.9803467,    87.404274,           0.
    599,   84.2490463,   127.442528,           0.
    600,   84.2289734,   123.135338,           0.
    601,   84.2046509,   118.841888,           0.
    602,   84.1857071,   114.496964,           0.
    603,   84.3921204,   101.188828,           0.
    604,   84.2461624,    105.63382,           0.
    605,    84.195755,   110.080109,           0.
    606,   88.2677307,   133.283112,           0.
    607,   83.0252762,   93.8944626,           0.
    608,    76.544014,   90.0892181,           0.
    609,   73.8254395,   93.9242783,           0.
    610,   80.4631577,   107.588898,           0.
    611,    76.761322,   100.758064,           0.
    612,   84.8241959,   97.3721161,           0.
    613,   78.5813675,   93.8107071,           0.
    614,   72.8883362,   90.0145798,           0.
    615,   80.5389786,   103.065575,           0.
    616,   76.5929184,   97.0211716,           0.
    617,   80.6737366,   98.1587067,           0.
    618,    71.033287,   80.0662003,           0.
    619,   80.4508362,   129.235489,           0.
    620,   19.0260849,    162.52774,           0.
    621,   23.2616386,     162.5896,           0.
    622,   27.4924393,   162.593781,           0.
    623,   31.7392311,   162.552658,           0.
    624,   36.1420059,   162.400345,           0.
    625,   40.7707825,   162.349228,           0.
    626,    3.7042439,   134.233673,           0.
    627,   3.70360279,   138.506241,           0.
    628,   3.70199323,   142.778778,           0.
    629,   3.69990635,   147.051163,           0.
    630,   3.73143768,    151.34903,           0.
    631,   3.83798075,   155.804535,           0.
    632,   3.83695579,   160.474365,           0.
    633,   3.95449615,   69.5899048,           0.
    634,   3.87789178,    74.259758,           0.
    635,   3.73545837,   78.6826553,           0.
    636,   3.71131754,   82.9655762,           0.
    637,   3.70651197,   87.2374954,           0.
    638,    3.7053659,   91.5098114,           0.
    639,   3.70502186,   95.7821808,           0.
    640,   3.70492125,    100.05455,           0.
    641,   3.70489001,    104.32692,           0.
    642,   3.70487785,   108.599297,           0.
    643,   3.70487189,   112.871681,           0.
    644,   3.70486975,   117.144058,           0.
    645,   3.70488524,   121.416435,           0.
    646,   3.70505095,    125.68882,           0.
    647,   3.70504141,   129.961212,           0.
    648,   24.5611763,   72.0237198,           0.
    649,   34.3555984,   82.9445419,           0.
    650,   38.4843178,   85.0021439,           0.
    651,   30.5217457,   79.8727112,           0.
    652,   27.3150444,   76.1145554,           0.
    653,   42.7496719,   142.219879,           0.
    654,   42.7462349,   133.472275,           0.
    655,   42.7462654,   111.602821,           0.
    656,   42.7462387,   124.724495,           0.
    657,   42.7463799,   120.350609,           0.
    658,    42.746521,    107.22892,           0.
    659,   42.7499008,   102.851738,           0.
    660,   42.7963829,   98.5060272,           0.
    661,   42.7488365,   150.985245,           0.
    662,   42.7547722,   146.594391,           0.
    663,   42.7481842,   137.846222,           0.
    664,   42.7468719,   129.098389,           0.
    665,   42.7466774,   115.976723,           0.
    666,     42.97015,   94.3033676,           0.
    667,   11.3946877,   67.8365707,           0.
    668,   16.3294773,   67.9629211,           0.
    669,   21.4315662,   67.9217072,           0.
    670,     14.79634,   162.421875,           0.
    671,   33.9656754,   158.705399,           0.
    672,   25.3710613,   158.910172,           0.
    673,   21.1587772,   158.787674,           0.
    674,   10.6012001,   162.417923,           0.
    675,   29.6613483,   158.845337,           0.
    676,   7.03105164,   162.767273,           0.
    677,   7.40795422,   140.644058,           0.
    678,   7.42248487,   149.184433,           0.
    679,   7.58208227,   76.6286011,           0.
    680,   7.41435289,   93.6461105,           0.
    681,   7.41294479,   132.097702,           0.
    682,     7.413836,   110.735489,           0.
    683,   7.41386795,   102.190758,           0.
    684,   7.41384602,   119.280251,           0.
    685,    7.4139905,   127.825081,           0.
    686,   7.41843557,   85.1048431,           0.
    687,   7.41468191,    106.46312,           0.
    688,   7.41666222,   89.3745575,           0.
    689,   7.41471434,   123.552643,           0.
    690,   7.41466618,   115.007874,           0.
    691,   7.49712181,   153.496887,           0.
    692,   7.41183472,   136.370926,           0.
    693,   7.40737629,   144.916428,           0.
    694,   8.48330212,    71.933548,           0.
    695,   7.45162106,   80.8680496,           0.
    696,   7.41483974,   97.9184265,           0.
    697,   42.6004257,   86.3150787,           0.
    698,   42.7356606,   155.354858,           0.
    699,   38.9697571,   135.659836,           0.
    700,   38.9735718,   105.021339,           0.
    701,   38.9020348,   148.817078,           0.
    702,   43.0508881,   159.039856,           0.
    703,   38.9686813,   131.285522,           0.
    704,   38.9675293,   118.163666,           0.
    705,   39.2830696,   96.1015549,           0.
    706,   38.9681664,   113.789749,           0.
    707,   38.9794502,   144.396027,           0.
    708,   38.9681129,    122.53756,           0.
    709,   38.9697113,   109.412369,           0.
    710,   39.0392036,   100.522591,           0.
    711,   38.9752655,   140.032791,           0.
    712,   38.9689026,   126.911491,           0.
    713,   7.47610617,   67.3677216,           0.
    714,   14.0698681,   72.5945663,           0.
    715,   19.4873238,    72.147522,           0.
    716,   38.7700119,   158.042221,           0.
    717,    8.0492487,   158.349564,           0.
    718,   34.7477303,    87.436264,           0.
    719,   22.5845585,   76.2392654,           0.
    720,   29.8778801,   84.9193573,           0.
    721,   25.4979496,   80.9868469,           0.
    722,   39.0775452,   89.0583801,           0.
    723,   35.6586266,   155.254608,           0.
    724,   12.6528664,   158.472595,           0.
    725,   23.2773933,     155.1147,           0.
    726,   27.5562935,     155.1651,           0.
    727,   31.8711777,   155.113892,           0.
    728,   16.9147949,   158.548416,           0.
    729,   11.1275692,   129.961838,           0.
    730,   11.1290798,   125.689018,           0.
    731,   11.1293135,   121.416473,           0.
    732,   11.1255074,   134.235855,           0.
    733,   11.1293488,   117.144066,           0.
    734,   11.1293554,   112.871689,           0.
    735,   11.1293554,   108.599319,           0.
    736,   11.1293354,   104.326958,           0.
    737,   11.1293106,   100.054665,           0.
    738,   11.1304321,   95.7826767,           0.
    739,   11.1352463,   91.5116196,           0.
    740,   11.1570759,   87.2444458,           0.
    741,   11.2695856,   82.9420013,           0.
    742,   11.0902443,   147.061752,           0.
    743,   11.1204367,   138.510651,           0.
    744,   11.0370617,     151.3591,           0.
    745,   11.1111269,   142.785721,           0.
    746,   11.1272926,   78.8331528,           0.
    747,   11.0169039,   75.3533554,           0.
    748,   10.7917356,   155.163803,           0.
    749,   38.9053574,   153.277374,           0.
    750,   35.1977692,   133.474014,           0.
    751,   35.1965218,   129.098953,           0.
    752,   35.2050705,   137.852402,           0.
    753,   35.1958199,   124.724617,           0.
    754,   35.1955566,   120.350624,           0.
    755,   35.1955795,   115.976669,           0.
    756,   35.1962166,    111.60006,           0.
    757,   35.2000465,   107.193306,           0.
    758,   35.1936378,   97.9376373,           0.
    759,   35.2138252,   102.662132,           0.
    760,   35.2303276,   142.219879,           0.
    761,   35.1521301,    146.55455,           0.
    762,   17.6655769,   76.3896027,           0.
    763,   13.8749838,   76.7249603,           0.
    764,   34.5658531,    151.24411,           0.
    765,   14.7004728,   154.172028,           0.
    766,    25.378521,   151.468903,           0.
    767,   29.7389946,   151.404922,           0.
    768,   19.1581097,    154.89447,           0.
    769,   15.4161587,    80.496994,           0.
    770,   14.8635931,   145.023697,           0.
    771,   14.9750452,    85.080574,           0.
    772,   14.8965139,   89.3422241,           0.
    773,   14.8519726,   97.9183426,           0.
    774,   14.8647852,   93.6370468,           0.
    775,    14.851222,   102.190727,           0.
    776,   14.8508921,   106.463112,           0.
    777,   14.8507175,   110.735504,           0.
    778,   14.8508215,   115.007881,           0.
    779,   14.8508482,   119.280258,           0.
    780,   14.8507786,   123.552811,           0.
    781,    14.846014,   132.101028,           0.
    782,   14.8500261,   127.826309,           0.
    783,   14.7174635,   149.422043,           0.
    784,   14.8495789,   140.683701,           0.
    785,   14.8453045,   136.384872,           0.
    786,    35.664032,   92.6195679,           0.
    787,   31.0289116,   100.514053,           0.
    788,   31.2363033,   113.932953,           0.
    789,   31.2210808,   122.670143,           0.
    790,   31.2021046,   127.044754,           0.
    791,   31.1830463,   131.419342,           0.
    792,   31.1554432,   118.353416,           0.
    793,   31.1814346,   135.788818,           0.
    794,   31.1574249,     105.1464,           0.
    795,   31.1288548,   109.630745,           0.
    796,   31.3105392,     144.4776,           0.
    797,   31.1540508,   140.178894,           0.
    798,   20.2686787,   80.2825317,           0.
    799,   27.3016815,   147.341766,           0.
    800,   18.2597141,   83.4369202,           0.
    801,   21.2597256,   151.477371,           0.
    802,   18.6233406,   87.0558548,           0.
    803,   19.0239506,    147.64035,           0.
    804,   18.7397709,   91.3498383,           0.
    805,   18.6778717,   95.6905746,           0.
    806,   18.7379284,   99.9044647,           0.
    807,   18.6944542,   108.498184,           0.
    808,   18.7170887,   112.760925,           0.
    809,   18.7349224,   117.028511,           0.
    810,   18.7377148,   121.308754,           0.
    811,   18.7399273,   125.590591,           0.
    812,   18.7830372,   104.138176,           0.
    813,   18.7376347,   129.875931,           0.
    814,   18.8169842,   142.870224,           0.
    815,   18.7440586,   134.165817,           0.
    816,   18.7908878,    138.47525,           0.
    817,   31.6138401,    148.20459,           0.
    818,   30.7589054,   90.0370865,           0.
    819,   39.9821167,   92.4856796,           0.
    820,   26.9745941,   125.145477,           0.
    821,   26.9673214,   116.484093,           0.
    822,   26.9556274,   120.825821,           0.
    823,   26.9685669,   129.482681,           0.
    824,   26.9341946,   112.175186,           0.
    825,   26.9079685,   103.374466,           0.
    826,     26.90732,   107.819786,           0.
    827,    26.971777,   133.821167,           0.
    828,   26.9611549,    138.18869,           0.
    829,   27.0546246,   142.587555,           0.
    830,   21.8943844,   84.3166656,           0.
    831,   42.9481544,   90.2715454,           0.
    832,    17.771944,   151.521255,           0.
    833,   23.0272846,   88.8084488,           0.
    834,   22.5834599,    93.476059,           0.
    835,   22.5683727,   97.5302124,           0.
    836,   22.7755718,   110.345779,           0.
    837,   22.8061447,   114.632629,           0.
    838,   22.8182144,   118.930054,           0.
    839,   22.8245449,   123.231972,           0.
    840,   22.8233547,   105.972107,           0.
    841,   22.7629471,   101.651627,           0.
    842,   22.8246803,   127.538399,           0.
    843,   23.0082417,   144.910538,           0.
    844,   22.8358059,   131.846344,           0.
    845,   23.1944237,    148.56778,           0.
    846,   22.9000015,    140.53772,           0.
    847,    22.867281,   136.172501,           0.
    848,    30.265543,    95.351738,           0.
    849,   26.5526524,   98.9809418,           0.
    850,   25.4886169,   85.4269867,           0.
    851,   27.1653595,   88.2183609,           0.
    852,   26.5971222,   91.8925476,           0.
    853,   25.7134304,   95.4462967,           0.
    854,   117.471657,   58.0746346,           0.
    855,   117.679657,   44.6195107,           0.
    856,   117.693588,    40.369175,           0.
    857,   117.694138,   36.1195526,           0.
    858,   117.692299,   31.8702278,           0.
    859,   117.690224,   27.6209068,           0.
    860,   117.686653,   23.3719616,           0.
    861,    117.68013,   19.1237354,           0.
    862,   117.637939,   14.8580952,           0.
    863,   117.495262,   10.4468975,           0.
    864,   117.446579,   5.80105782,           0.
    865,   89.4098663,   60.0421524,           0.
    866,   80.7587891,   59.9465065,           0.
    867,   76.2096024,    59.836628,           0.
    868,   110.650642,   60.0744324,           0.
    869,   93.6731873,    60.044136,           0.
    870,   85.1162338,   60.0156364,           0.
    871,   71.3914413,   59.6955299,           0.
    872,   65.8283615,   51.4389572,           0.
    873,   62.6852264,   47.6823158,           0.
    874,   59.0256767,    44.440136,           0.
    875,   68.4675598,   55.5485458,           0.
    876,   92.7615356,   3.80540156,           0.
    877,   88.3585739,   3.80688405,           0.
    878,   75.1493073,   3.81116867,           0.
    879,   70.7463608,   3.81251621,           0.
    880,   61.9172058,   3.85225034,           0.
    881,   57.3329887,   3.97785783,           0.
    882,   101.587486,   3.82338953,           0.
    883,   97.1669846,   3.80607295,           0.
    884,   83.9554443,   3.80820584,           0.
    885,   79.5524139,   3.80940127,           0.
    886,   66.3395691,   3.82024288,           0.
    887,   52.5198174,   3.99627376,           0.
    888,   50.3626175,   24.3685474,           0.
    889,   50.3595505,   28.7986679,           0.
    890,   50.3608742,   33.2636147,           0.
    891,   50.5271606,   15.4748497,           0.
    892,   117.614655,   48.9433098,           0.
    893,     117.4748,    53.409111,           0.
    894,   113.971291,   42.4933014,           0.
    895,   113.998779,   38.2464561,           0.
    896,   113.987495,   25.4992294,           0.
    897,   113.994156,   29.7480164,           0.
    898,   113.998421,   33.9974174,           0.
    899,   113.801476,   12.6594534,           0.
    900,   113.919334,   16.9564743,           0.
    901,   113.968063,   21.2439899,           0.
    902,   106.438713,   60.0574799,           0.
    903,   102.192841,   60.0498886,           0.
    904,   97.9350052,   60.0461426,           0.
    905,    91.545517,   56.3436165,           0.
    906,   87.2660599,   56.3234024,           0.
    907,   78.3108444,   56.0512123,           0.
    908,   82.8818741,   56.2219276,           0.
    909,   54.5679245,   40.9341354,           0.
    910,   106.030724,    3.8459549,           0.
    911,   72.9495392,   7.62226248,           0.
    912,   94.9630203,    7.6021266,           0.
    913,   90.5617599,   7.60602522,           0.
    914,   110.422371,   3.84811211,           0.
    915,   86.1584167,   7.61049891,           0.
    916,   77.3521271,    7.6181221,           0.
    917,   68.5482254,   7.62838411,           0.
    918,    114.12281,   3.51871753,           0.
    919,   64.1542282,   7.66053104,           0.
    920,   59.7190437,   7.75900984,           0.
    921,   99.3716354,   7.62391949,           0.
    922,   81.7551804,   7.61400938,           0.
    923,    50.455925,   19.9253044,           0.
    924,   50.5281334,   11.0724535,           0.
    925,     50.32304,   37.7725677,           0.
    926,    54.137188,   31.0495453,           0.
    927,   50.1598358,   7.34096909,           0.
    928,   54.1778984,   26.5918789,           0.
    929,   113.137993,   7.84192181,           0.
    930,   70.7200546,   51.5833092,           0.
    931,   63.4892998,   43.1731911,           0.
    932,   67.9156036,   46.6748619,           0.
    933,   54.7222748,   8.37278843,           0.
    934,   73.4773712,   55.7961273,           0.
    935,   114.261475,   60.3386841,           0.
    936,   113.210632,   56.0714264,           0.
    937,   110.334915,   10.9771614,           0.
    938,    110.27552,   40.3543167,           0.
    939,   110.295525,   31.8781509,           0.
    940,   110.297195,   36.1248055,           0.
    941,   110.283119,   27.6300735,           0.
    942,   110.267151,   23.3814621,           0.
    943,   110.229652,   19.0712719,           0.
    944,   110.179749,   14.7609682,           0.
    945,   113.764481,   46.8220024,           0.
    946,   108.565498,   56.3987274,           0.
    947,    100.06675,   56.3562126,           0.
    948,   89.4200363,   52.6251831,           0.
    949,   85.1072922,   52.5361786,           0.
    950,   80.5748062,   52.3508911,           0.
    951,   95.8074493,   56.3485985,           0.
    952,   104.326439,    56.379528,           0.
    953,   103.847847,   7.73623753,           0.
    954,   83.9598694,   11.4119358,           0.
    955,    79.556572,   11.4185629,           0.
    956,   75.1544571,   11.4259663,           0.
    957,   61.9471397,   11.4691439,           0.
    958,   66.3460846,   11.4579992,           0.
    959,   88.3643188,   11.4029121,           0.
    960,   70.7514725,   11.4376574,           0.
    961,   92.7645721,   11.3942823,           0.
    962,   97.1531372,   11.3935585,           0.
    963,   108.340233,   7.71466398,           0.
    964,   54.3243027,   22.1816349,           0.
    965,   54.1013222,   35.5651894,           0.
    966,   54.6167374,   13.2072277,           0.
    967,   57.8941956,   28.8584766,           0.
    968,   54.5660095,   17.7270775,           0.
    969,   58.0264091,   11.2459583,           0.
    970,   113.621086,   51.2386475,           0.
    971,   75.7697449,   52.0221062,           0.
    972,   59.9425011,   40.0102425,           0.
    973,   106.270309,   12.0522871,           0.
    974,   109.377441,   49.0642433,           0.
    975,   59.0768089,   15.3862877,           0.
    976,   106.415482,   21.1786118,           0.
    977,   106.599709,   38.2164841,           0.
    978,    106.53643,    25.502512,           0.
    979,   106.387848,   16.7925453,           0.
    980,   106.572632,   29.7630329,           0.
    981,   106.589684,   34.0067863,           0.
    982,   110.112724,   44.5080757,           0.
    983,   82.9209442,   48.7147102,           0.
    984,   97.9630432,    52.635273,           0.
    985,    87.299614,   48.8559113,           0.
    986,   106.567093,   52.7626266,           0.
    987,   102.294128,   52.6578636,           0.
    988,   93.6874084,   52.6381454,           0.
    989,   101.520981,   11.4626398,           0.
    990,   77.3610382,   15.2226171,           0.
    991,   72.9588242,   15.2360907,           0.
    992,   81.7646179,   15.2104273,           0.
    993,   94.9789963,   15.1299095,           0.
    994,   63.9681511,   15.3185196,           0.
    995,   68.4603348,   15.3725147,           0.
    996,   86.1697235,   15.1965904,           0.
    997,   90.5758743,   15.1723948,           0.
    998,   58.0867538,   24.4718304,           0.
    999,   64.1969528,    38.563282,           0.
   1000,   57.6894913,   33.2670975,           0.
   1001,     58.32938,   20.1298294,           0.
   1002,   78.3001251,   48.3873711,           0.
   1003,   73.4750519,   47.7621155,           0.
   1004,   106.678482,   45.9428711,           0.
   1005,   80.8741226,    44.833416,           0.
   1006,   110.268349,   53.1071358,           0.
   1007,   102.704483,   23.4235954,           0.
   1008,   102.070908,   18.8553867,           0.
   1009,   102.817978,   27.6481266,           0.
   1010,   102.823311,   36.0790825,           0.
   1011,   102.869347,   31.8644104,           0.
   1012,   95.8478851,   48.9113579,           0.
   1013,   85.2336884,   45.0681038,           0.
   1014,   100.228004,   48.8637733,           0.
   1015,   104.633057,   49.0160408,           0.
   1016,   106.540565,   42.3529663,           0.
   1017,   91.5770721,   48.9111252,           0.
   1018,   99.3540421,   15.0759878,           0.
   1019,   60.9604378,   35.7024994,           0.
   1020,   103.120819,   14.8477697,           0.
   1021,   75.1697159,   19.0265369,           0.
   1022,   70.7954102,   19.1239014,           0.
   1023,    79.572998,   19.0084229,           0.
   1024,    66.039772,   19.6996288,           0.
   1025,   83.9787903,    18.989006,           0.
   1026,   92.8211975,   18.9473801,           0.
   1027,    88.376564,   18.9468346,           0.
   1028,   61.4785385,   31.2857113,           0.
   1029,   61.8330269,   26.7985039,           0.
   1030,   62.0175056,   22.3727474,           0.
   1031,    61.886322,   18.5814018,           0.
   1032,   71.8437042,   43.3761139,           0.
   1033,     83.26651,   41.2636871,           0.
   1034,    102.66938,   44.8132744,           0.
   1035,   99.2670441,   21.9158783,           0.
   1036,   99.0995102,   25.5821991,           0.
   1037,   93.7528305,   45.2386169,           0.
   1038,   99.1789932,   29.7377033,           0.
   1039,   99.1760788,   33.8123398,           0.
   1040,   98.0352631,   45.2557526,           0.
   1041,    102.83725,   40.2747917,           0.
   1042,   89.4964218,   45.1751862,           0.
   1043,   76.3699493,   44.2759323,           0.
   1044,   97.2848511,   18.8274975,           0.
   1045,   64.9163742,   33.9939232,           0.
   1046,   67.7491913,   41.3946342,           0.
   1047,   77.3859329,   22.8065548,           0.
   1048,   72.9895554,   22.8406754,           0.
   1049,   69.1762085,    22.627758,           0.
   1050,    81.791626,   22.7815208,           0.
   1051,   86.1923294,   22.7014885,           0.
   1052,   90.5371857,   22.6498642,           0.
   1053,    65.563942,   29.2983608,           0.
   1054,   57.4523354,   37.0958328,           0.
   1055,   95.2297668,   23.0756378,           0.
   1056,   71.0286865,   39.5762253,           0.
   1057,   99.6420898,   42.0367317,           0.
   1058,   78.9743576,   40.8885612,           0.
   1059,   91.7167435,   41.5652809,           0.
   1060,   95.3707809,   27.6827431,           0.
   1061,    95.515358,   31.8303299,           0.
   1062,    95.961113,     41.72229,           0.
   1063,   87.4800339,    41.417057,           0.
   1064,   98.6215744,   38.1822586,           0.
   1065,   68.2865143,   36.9418068,           0.
   1066,   65.7975388,   24.6231232,           0.
   1067,   75.1830902,   26.7637444,           0.
   1068,   70.1717606,    27.054697,           0.
   1069,   79.6244278,   26.6051579,           0.
   1070,   84.0003281,   26.4850273,           0.
   1071,   88.3356552,   26.3267555,           0.
   1072,   72.8299866,   35.8312721,           0.
   1073,   89.8328094,   37.8536682,           0.
   1074,   85.6164398,    37.661541,           0.
   1075,   94.0782776,   38.1775551,           0.
   1076,    91.112915,   30.0504684,           0.
   1077,    81.401062,   37.4629707,           0.
   1078,   74.7103424,   40.1790619,           0.
   1079,   69.1935349,   32.3519745,           0.
   1080,   73.5081482,   31.0144405,           0.
   1081,   77.6337814,   30.3719215,           0.
   1082,   81.7846069,    30.247242,           0.
   1083,    86.153511,   30.1660862,           0.
   1084,   92.1172638,   25.9570942,           0.
   1085,   88.1393738,   34.0266762,           0.
   1086,     83.78022,   33.9071617,           0.
   1087,   92.4404984,   34.5352631,           0.
   1088,   95.9663544,   35.3075485,           0.
   1089,   77.2668228,   36.9835739,           0.
   1090,   79.6608963,   33.7723312,           0.
   1091,    76.179924,   33.5947075,           0.
   1092,   49.7606659,   41.5362892,           0.
   1093,   33.5780449,   43.9210663,           0.
   1094,   24.7752514,   55.0179482,           0.
   1095,   27.5492706,   51.2376022,           0.
   1096,   42.6609726,   15.4773426,           0.
   1097,   42.6963692,   19.9340611,           0.
   1098,   42.7014008,   24.3688641,           0.
   1099,   42.6750679,   28.8365421,           0.
   1100,   42.6328506,   33.4369164,           0.
   1101,   42.4172974,   38.3961525,           0.
   1102,   30.3653431,   47.7265587,           0.
   1103,   37.7432518,   41.0477448,           0.
   1104,    11.282855,   59.7352638,           0.
   1105,   15.8658924,   59.6919823,           0.
   1106,   20.9823914,    58.889183,           0.
   1107,   3.79415989,   10.6248121,           0.
   1108,   3.74712849,   14.8549128,           0.
   1109,   3.70429182,   19.1161938,           0.
   1110,   3.69069195,    23.370203,           0.
   1111,   3.68791151,    27.620306,           0.
   1112,   3.68713498,   31.8696671,           0.
   1113,   3.68715858,   36.1188812,           0.
   1114,   3.68854284,   40.3677559,           0.
   1115,   3.69208956,   44.6164131,           0.
   1116,    3.7350812,   48.8637505,           0.
   1117,   3.89308071,   53.2284737,           0.
   1118,   3.99315405,   57.8922272,           0.
   1119,   40.7163658,   3.95154428,           0.
   1120,    36.100666,   3.90729666,           0.
   1121,   23.2670097,    3.6797359,           0.
   1122,   19.0363178,   3.67755079,           0.
   1123,    14.792778,   3.70708632,           0.
   1124,   10.3954115,   3.82427073,           0.
   1125,   5.76051378,   3.84174514,           0.
   1126,   27.4919472,    3.6868093,           0.
   1127,   21.1473866,   7.37298298,           0.
   1128,   31.7354927,   3.75343752,           0.
   1129,   16.8943138,   7.38547945,           0.
   1130,   12.5900707,   7.46624374,           0.
   1131,   7.42267895,   46.6747131,           0.
   1132,   7.38235235,   38.2420311,           0.
   1133,    7.4197135,   21.2353897,           0.
   1134,   7.61866426,   12.6536121,           0.
   1135,   7.38110352,    29.745182,           0.
   1136,   7.60717487,   16.9338188,           0.
   1137,   7.39421701,    25.492897,           0.
   1138,   3.48560309,   7.04942179,           0.
   1139,   7.38162518,   33.9939613,           0.
   1140,   7.39493895,   42.4780884,           0.
   1141,   7.60318375,   50.8740692,           0.
   1142,   38.8122101,   31.1108303,           0.
   1143,   38.9003105,   22.1787891,           0.
   1144,   42.6553612,   11.0575466,           0.
   1145,   38.8012085,    17.690012,           0.
   1146,   38.8729706,   26.6120796,           0.
   1147,   7.43055105,   60.1458588,           0.
   1148,   13.6536541,   55.3985558,           0.
   1149,   38.6543198,   8.29968929,           0.
   1150,   8.42257595,   55.6458473,           0.
   1151,   7.79983044,    8.0326252,           0.
   1152,   11.0468521,   52.2682762,           0.
   1153,   29.6368713,   7.47627831,           0.
   1154,   14.6728563,   11.0135517,           0.
   1155,   18.9572182,   11.0860376,           0.
   1156,   33.9297295,   7.65243435,           0.
   1157,   11.9153337,   14.7088976,           0.
   1158,   11.2504673,   19.2305336,           0.
   1159,   11.0832253,   31.8695412,           0.
   1160,   11.0856171,   36.1157608,           0.
   1161,   11.1231766,   23.4072895,           0.
   1162,   11.0940351,   27.6264572,           0.
   1163,   11.0946751,   40.3572273,           0.
   1164,   11.1055889,   44.5304718,           0.
   1165,   11.0613079,   48.6264305,           0.
   1166,   25.3996582,   7.41551304,           0.
   1167,   10.9193506,   10.7749863,           0.
   1168,   38.5736122,   35.8078079,           0.
   1169,   38.8253059,   13.1649075,           0.
   1170,   35.0600815,   20.0494099,           0.
   1171,   35.0007782,   28.7916317,           0.
   1172,   35.0827599,   24.4182301,           0.
   1173,   20.3911381,   53.9450569,           0.
   1174,   14.3655138,   50.9466057,           0.
   1175,   31.8501625,   11.3253651,           0.
   1176,    27.559103,   11.2677135,           0.
   1177,   14.8100615,   42.4504089,           0.
   1178,   14.7679558,   46.7849083,           0.
   1179,   14.8038378,   38.2290306,           0.
   1180,   14.7975292,   29.7464256,           0.
   1181,   14.7993736,   33.9901123,           0.
   1182,   14.7935591,   25.5445213,           0.
   1183,   14.6675138,   17.7963505,           0.
   1184,   14.8295546,   21.4019756,           0.
   1185,   23.2609882,   11.1971779,           0.
   1186,   35.5682373,    11.148242,           0.
   1187,   34.8014145,   33.1899872,           0.
   1188,   34.4982338,   15.2832232,           0.
   1189,   31.0073147,   26.4766064,           0.
   1190,   31.1398029,   22.1448345,           0.
   1191,   17.5702286,   56.2392464,           0.
   1192,   43.0169487,   7.32011843,           0.
   1193,   26.2951126,   47.2666016,           0.
   1194,   28.7083855,   43.8747368,           0.
   1195,    23.361618,   50.5528145,           0.
   1196,   18.6953583,   49.4954376,           0.
   1197,   29.6787605,   15.1259909,           0.
   1198,   25.2694721,   15.0003462,           0.
   1199,   18.5788746,   44.6058693,           0.
   1200,   18.5273762,   40.2999573,           0.
   1201,   18.5161438,   36.1064911,           0.
   1202,   18.5485916,   31.9290695,           0.
   1203,   18.6058903,   27.7911587,           0.
   1204,   18.7207584,   23.5583134,           0.
   1205,   18.8072872,   18.8951435,           0.
   1206,   20.9760876,   14.8484497,           0.
   1207,   16.9351788,   53.2049828,           0.
   1208,   34.4942436,   37.5575752,           0.
   1209,   30.7696819,     30.70714,           0.
   1210,   26.8911495,   23.9924412,           0.
   1211,    22.389513,   46.3625069,           0.
   1212,   22.1522694,   42.3390617,           0.
   1213,   22.9958706,   17.9495926,           0.
   1214,   22.2828884,   38.3342209,           0.
   1215,   22.4417706,   34.2532463,           0.
   1216,   22.5676136,   30.1304607,           0.
   1217,   22.7070408,    25.915102,           0.
   1218,     16.66605,   14.7247381,           0.
   1219,   30.6251392,   35.0523758,           0.
   1220,   27.1956177,   19.1896477,           0.
   1221,   26.7464924,   28.2836418,           0.
   1222,   31.5144997,   18.3586216,           0.
   1223,   25.9143887,   40.8260956,           0.
   1224,   26.4397717,   36.7822647,           0.
   1225,   26.5984116,   32.5348549,           0.
   1226,   22.8862877,    21.583374,           0.
   1227,    30.595232,   39.7997246,           0.
   1228,   34.1026917,   40.5815277,           0.
   1229,   25.0919342,   44.1338005,           0.
*Element, type=S3
  1, 311,  87, 207
  2, 207,  13,  14
  3, 224,  33,  34
  4, 210,  35,  36
  5, 210, 209,  35
  6, 326, 325, 271
  7, 320, 312, 252
  8, 299,  17, 211
  9, 211,  17,  18
 10, 258,  79,  80
 11, 212, 211,  18
 12, 213, 212,  19
 13, 214, 213,  20
 14, 215, 214,  21
 15, 216, 215,  22
 16, 217, 216,  23
 17, 218, 217,  24
 18, 220,  26,  27
 19, 556, 490, 526
 20, 221, 220,  27
 21, 222, 221,  28
 22, 223, 222,  29
 23, 223,  30,  31
 24,  30,   2,  31
 25,  36,   3,  37
 26, 224,  34, 209
 27, 225, 223,  31
 28,  48,   4,  49
 29, 251,  49,  50
 30, 322, 273, 319
 31, 282, 246, 245
 32, 374, 373, 321
 33, 272,  45,  46
 34, 390, 375, 339
 35, 265,  42,  43
 36, 227,  41, 226
 37, 268, 227, 226
 38, 228,  40, 227
 39, 230,  37,  38
 40,  72,  71,   5
 41, 231,  71,  72
 42, 264,  74, 263
 43, 300, 212, 294
 44, 233,  68, 232
 45, 234,  67, 233
 46, 235,  66, 234
 47, 236,  65, 235
 48, 237,  64, 236
 49, 238,  63, 237
 50, 239,  62, 238
 51, 240,  61, 239
 52, 241,  60, 240
 53, 242,  59, 241
 54, 278, 242, 241
 55, 243,  58, 242
 56, 245,  56, 244
 57, 246,  55, 245
 58, 247,  54, 246
 59, 248,  53, 247
 60, 249,  52, 248
 61, 250,  51, 249
 62, 251,  50, 250
 63,  87,   1,  13
 64, 207,  87,  13
 65, 311, 252,  86
 66, 320, 252, 311
 67, 253,  85, 252
 68, 254,  84, 253
 69, 254,  83,  84
 70, 255,  82,  83
 71, 256,  81,  82
 72, 257,  80,  81
 73, 259,  78,  79
 74, 261,  77, 260
 75, 262,  76, 261
 76, 306, 263, 262
 77, 263,  75, 262
 78, 422,  72,  73
 79, 348,  15, 301
 80, 301,  16, 299
 81, 219, 218,  25
 82, 208,  32,  33
 83, 209,  34,  35
 84, 372, 230, 229
 85, 230,  36,  37
 86, 229,  39, 228
 87, 212,  18,  19
 88, 315, 256, 255
 89, 213,  19,  20
 90, 284, 233, 232
 91, 214,  20,  21
 92, 314, 309, 258
 93, 215,  21,  22
 94, 275, 235, 234
 95, 216,  22,  23
 96, 286, 235, 275
 97, 217,  23,  24
 98, 332, 331, 287
 99, 218,  24,  25
100, 279, 238, 237
101, 219,  25,  26
102, 288, 238, 279
103, 220, 219,  26
104, 290, 280, 243
105, 221,  27,  28
106, 302, 220, 221
107, 222,  28,  29
108, 525, 448, 490
109, 223,  29,  30
110, 346, 222, 223
111, 225,  31,  32
112, 346, 223, 225
113, 244,  57, 243
114, 224, 208,  33
115, 225,  32, 208
116, 346, 296, 222
117, 226,  41,  42
118, 280, 244, 243
119, 271, 227, 268
120, 227,  40,  41
121, 269, 229, 228
122, 228,  39,  40
123, 372, 229, 269
124, 229,  38,  39
125, 230, 210,  36
126, 230,  38, 229
127, 274, 232,  69
128, 231,  70,  71
129, 232,  68,  69
130, 274,  69,  70
131, 334, 333, 275
132, 233,  67,  68
133, 295, 294, 213
134, 234,  66,  67
135, 331, 330, 279
136, 235,  65,  66
137, 304, 216, 297
138, 236,  64,  65
139, 352, 303, 351
140, 237,  63,  64
141, 329, 328, 281
142, 238,  62,  63
143, 281, 240, 239
144, 239,  61,  62
145, 289, 240, 281
146, 240,  60,  61
147, 305, 219, 293
148, 241,  59,  60
149, 290, 242, 278
150, 242,  58,  59
151, 449, 326, 395
152, 243,  57,  58
153, 291, 244, 280
154, 244,  56,  57
155, 343, 280, 290
156, 245,  55,  56
157, 339, 292, 338
158, 246,  54,  55
159, 273,  46,  47
160, 247,  53,  54
161, 292, 248, 277
162, 248,  52,  53
163, 319, 250, 276
164, 249,  51,  52
165, 273, 272,  46
166, 250,  50,  51
167, 270,  48, 251
168, 251,  48,  49
169, 252,  85,  86
170, 411, 320, 410
171, 364, 363, 313
172, 253,  84,  85
173, 358, 294, 357
174, 255,  83, 254
175, 313, 254, 253
176, 256,  82, 255
177, 315, 308, 256
178, 257,  81, 256
179, 314, 258, 257
180, 258,  80, 257
181, 371, 314, 366
182, 259,  79, 258
183, 316, 259, 309
184, 260,  78, 259
185, 464, 418, 412
186, 260,  77,  78
187, 447, 370, 419
188, 261,  76,  77
189, 397, 360, 318
190, 262,  75,  76
191, 318, 264, 263
192, 263,  74,  75
193, 422, 264, 360
194, 264,  73,  74
195, 265, 226,  42
196, 267,  43,  44
197, 266,  44,  45
198, 378, 375, 322
199, 267, 265,  43
200, 267,  44, 266
201, 271, 269, 228
202, 327, 226, 265
203, 472, 427, 372
204, 271, 228, 227
205, 273,  47, 270
206, 270,  47,  48
207, 389, 340, 380
208, 325, 269, 271
209, 276, 250, 249
210, 272, 266,  45
211, 319, 251, 250
212, 378, 319, 276
213, 274,  70, 231
214, 360, 264, 318
215, 285, 234, 233
216, 351, 304, 350
217, 292, 249, 248
218, 277, 248, 247
219, 323, 267, 266
220, 283, 247, 246
221, 289, 241, 240
222, 337, 278, 335
223, 287, 237, 236
224, 298, 297, 217
225, 290, 243, 242
226, 472, 448, 427
227, 288, 281, 239
228, 388, 329, 387
229, 283, 246, 282
230, 291, 282, 245
231, 389, 381, 341
232, 283, 277, 247
233, 345, 232, 274
234, 336, 334, 285
235, 285, 275, 234
236, 285, 233, 284
237, 286, 236, 235
238, 333, 332, 286
239, 287, 279, 237
240, 287, 236, 286
241, 288, 239, 238
242, 330, 329, 288
243, 335, 289, 328
244, 289, 278, 241
245, 305, 298, 218
246, 343, 290, 337
247, 291, 245, 244
248, 342, 340, 282
249, 338, 292, 277
250, 292, 276, 249
251, 293, 219, 220
252, 394, 393, 343
253, 294, 212, 213
254, 295, 213, 214
255, 303, 214, 215
256, 357, 295, 352
257, 296, 221, 222
258, 425, 423, 209
259, 297, 216, 217
260, 298, 217, 218
261, 305, 218, 219
262, 392, 328, 388
263, 299,  16,  17
264, 359, 211, 300
265, 313, 253, 312
266, 300, 211, 212
267, 410, 301, 347
268, 301,  15,  16
269, 302, 293, 220
270, 302, 221, 296
271, 303, 295, 214
272, 304, 303, 215
273, 304, 215, 216
274, 350, 297, 349
275, 408, 356, 404
276, 355, 293, 302
277, 317, 262, 261
278, 310, 261, 260
279, 315, 255, 307
280, 307, 255, 254
281, 314, 257, 308
282, 308, 257, 256
283, 412, 365, 368
284, 309, 259, 258
285, 317, 261, 310
286, 316, 310, 260
287, 311,  86,  87
288, 320, 311, 207
289, 312, 253, 252
290, 347, 301, 299
291, 426, 417, 364
292, 313, 307, 254
293, 438, 384, 437
294, 399, 358, 357
295, 462, 413, 414
296, 362, 361, 315
297, 316, 260, 259
298, 468, 382, 447
299, 365, 317, 310
300, 317, 306, 262
301, 397, 370, 396
302, 318, 263, 306
303, 319, 273, 270
304, 319, 270, 251
305, 348, 320, 207
306, 410, 348, 301
307, 373, 327, 321
308, 321, 265, 267
309, 324, 272, 322
310, 322, 272, 273
311, 323, 321, 267
312, 324, 323, 266
313, 324, 266, 272
314, 381, 338, 341
315, 427, 425, 372
316, 326, 271, 268
317, 395, 268, 327
318, 340, 283, 282
319, 327, 268, 226
320, 327, 265, 321
321, 328, 289, 281
322, 329, 281, 288
323, 330, 288, 279
324, 441, 387, 440
325, 331, 279, 287
326, 440, 386, 439
327, 332, 287, 286
328, 439, 385, 438
329, 333, 286, 275
330, 416, 362, 363
331, 334, 275, 285
332, 447, 396, 370
333, 336, 285, 284
334, 418, 365, 412
335, 353, 349, 298
336, 335, 278, 289
337, 396, 284, 345
338, 367, 317, 365
339, 355, 302, 354
340, 337, 290, 278
341, 341, 277, 283
342, 429, 428, 373
343, 378, 339, 375
344, 339, 276, 292
345, 342, 282, 291
346, 344, 291, 280
347, 341, 338, 277
348, 341, 283, 340
349, 344, 280, 343
350, 380, 342, 379
351, 394, 337, 391
352, 432, 380, 379
353, 379, 342, 344
354, 344, 342, 291
355, 345, 284, 232
356, 360, 345, 274
357, 557, 450, 225
358, 398, 354, 296
359, 359, 347, 299
360, 506, 467, 499
361, 348, 207,  14
362, 348,  14,  15
363, 349, 297, 298
364, 353, 298, 305
365, 387, 330, 386
366, 350, 304, 297
367, 386, 331, 385
368, 351, 303, 304
369, 385, 332, 384
370, 352, 295, 303
371, 356, 305, 293
372, 408, 353, 356
373, 354, 302, 296
374, 398, 296, 346
375, 445, 394, 391
376, 356, 293, 355
377, 404, 355, 402
378, 356, 353, 305
379, 362, 315, 307
380, 357, 294, 295
381, 363, 362, 307
382, 358, 300, 294
383, 359, 299, 211
384, 401, 300, 358
385, 360, 274, 231
386, 422, 360, 231
387, 366, 308, 361
388, 361, 308, 315
389, 363, 307, 313
390, 416, 415, 362
391, 364, 313, 312
392, 471, 467, 417
393, 426, 410, 347
394, 409, 359, 401
395, 368, 310, 316
396, 369, 316, 309
397, 383, 333, 334
398, 366, 314, 308
399, 468, 447, 419
400, 367, 306, 317
401, 368, 365, 310
402, 369, 368, 316
403, 371, 309, 314
404, 371, 369, 309
405, 370, 318, 306
406, 370, 306, 367
407, 421, 420, 366
408, 463, 413, 462
409, 425, 210, 372
410, 372, 210, 230
411, 428, 395, 373
412, 374, 321, 323
413, 376, 323, 324
414, 484, 435, 478
415, 375, 324, 322
416, 390, 339, 338
417, 376, 374, 323
418, 376, 324, 375
419, 377, 325, 326
420, 511, 473, 510
421, 378, 322, 319
422, 378, 276, 339
423, 393, 344, 343
424, 394, 343, 337
425, 435, 380, 432
426, 380, 340, 342
427, 430, 429, 374
428, 389, 341, 340
429, 383, 334, 382
430, 382, 334, 336
431, 413, 412, 368
432, 384, 333, 383
433, 400, 399, 357
434, 384, 332, 333
435, 403, 400, 352
436, 385, 331, 332
437, 405, 403, 351
438, 386, 330, 331
439, 406, 405, 350
440, 387, 329, 330
441, 392, 391, 335
442, 388, 328, 329
443, 474, 473, 428
444, 435, 433, 389
445, 431, 375, 390
446, 390, 338, 381
447, 391, 337, 335
448, 392, 335, 328
449, 442, 388, 441
450, 443, 392, 442
451, 444, 432, 379
452, 393, 379, 344
453, 446, 394, 445
454, 445, 391, 443
455, 395, 326, 268
456, 395, 327, 373
457, 396, 336, 284
458, 397, 396, 345
459, 397, 345, 360
460, 397, 318, 370
461, 450, 398, 346
462, 424, 208, 224
463, 421, 366, 361
464, 400, 357, 352
465, 403, 352, 351
466, 477, 476, 438
467, 401, 359, 300
468, 453, 358, 399
469, 402, 355, 354
470, 451, 354, 398
471, 405, 351, 350
472, 570, 536, 569
473, 407, 406, 349
474, 404, 356, 355
475, 406, 350, 349
476, 479, 439, 476
477, 407, 349, 353
478, 483, 441, 480
479, 408, 407, 353
480, 460, 408, 458
481, 488, 446, 445
482, 460, 459, 407
483, 426, 364, 411
484, 409, 347, 359
485, 426, 411, 410
486, 410, 320, 348
487, 411, 364, 312
488, 411, 312, 320
489, 413, 368, 369
490, 414, 369, 371
491, 414, 413, 369
492, 514, 482, 503
493, 420, 371, 366
494, 466, 462, 414
495, 421, 361, 415
496, 415, 361, 362
497, 417, 416, 363
498, 538, 499, 494
499, 417, 363, 364
500, 461, 401, 453
501, 468, 436, 382
502, 418, 367, 365
503, 419, 370, 367
504, 419, 367, 418
505, 469, 421, 415
506, 420, 414, 371
507, 470, 421, 469
508, 469, 415, 465
509, 422, 231,  72
510, 422,  73, 264
511, 423, 224, 209
512, 490, 377, 489
513, 491, 451, 398
514, 424, 224, 423
515, 425, 209, 210
516, 472, 372, 269
517, 426, 347, 409
518, 471, 426, 409
519, 448, 325, 377
520, 618, 427, 596
521, 474, 428, 429
522, 429, 373, 374
523, 430, 374, 376
524, 433, 381, 389
525, 431, 430, 376
526, 434, 390, 381
527, 431, 376, 375
528, 434, 431, 390
529, 473, 449, 428
530, 444, 379, 393
531, 475, 474, 429
532, 435, 389, 380
533, 434, 430, 431
534, 434, 381, 433
535, 478, 435, 432
536, 542, 541, 475
537, 437, 383, 436
538, 436, 383, 382
539, 514, 477, 482
540, 437, 384, 383
541, 454, 452, 400
542, 438, 385, 384
543, 455, 454, 403
544, 439, 386, 385
545, 480, 440, 479
546, 440, 387, 386
547, 456, 455, 405
548, 441, 388, 387
549, 460, 407, 408
550, 442, 392, 388
551, 458, 404, 457
552, 443, 391, 392
553, 446, 393, 394
554, 481, 478, 432
555, 488, 487, 446
556, 486, 443, 485
557, 488, 445, 486
558, 446, 444, 393
559, 447, 382, 336
560, 447, 336, 396
561, 614, 608, 609
562, 596, 448, 525
563, 449, 377, 326
564, 449, 395, 428
565, 450, 346, 225
566, 524, 208, 424
567, 451, 402, 354
568, 491, 398, 450
569, 452, 399, 400
570, 454, 400, 403
571, 453, 401, 358
572, 494, 399, 452
573, 455, 403, 405
574, 513, 476, 512
575, 456, 405, 406
576, 566, 536, 537
577, 459, 406, 407
578, 498, 496, 456
579, 457, 404, 402
580, 492, 402, 451
581, 485, 442, 483
582, 458, 408, 404
583, 546, 513, 545
584, 459, 456, 406
585, 551, 517, 548
586, 547, 515, 546
587, 471, 461, 467
588, 461, 409, 401
589, 482, 477, 437
590, 466, 414, 420
591, 502, 463, 462
592, 463, 412, 413
593, 505, 468, 464
594, 464, 412, 463
595, 465, 415, 416
596, 467, 465, 416
597, 470, 420, 421
598, 507, 504, 466
599, 467, 416, 417
600, 499, 453, 494
601, 468, 419, 418
602, 468, 418, 464
603, 538, 494, 529
604, 508, 465, 506
605, 509, 469, 508
606, 470, 466, 420
607, 471, 417, 426
608, 471, 409, 461
609, 472, 269, 325
610, 472, 325, 448
611, 541, 510, 474
612, 489, 449, 473
613, 475, 429, 430
614, 519, 484, 478
615, 475, 430, 434
616, 542, 434, 433
617, 476, 439, 438
618, 477, 438, 437
619, 482, 437, 436
620, 514, 512, 477
621, 481, 432, 444
622, 550, 549, 518
623, 495, 493, 454
624, 479, 440, 439
625, 496, 495, 455
626, 480, 441, 440
627, 487, 444, 446
628, 573, 544, 549
629, 505, 482, 436
630, 503, 464, 463
631, 500, 460, 458
632, 483, 442, 441
633, 542, 484, 541
634, 484, 433, 435
635, 500, 458, 497
636, 485, 443, 442
637, 523, 486, 521
638, 486, 445, 443
639, 520, 518, 481
640, 487, 481, 444
641, 501, 460, 500
642, 523, 488, 486
643, 549, 519, 518
644, 489, 377, 449
645, 526, 489, 511
646, 490, 448, 377
647, 524, 491, 450
648, 543, 524, 424
649, 492, 457, 402
650, 527, 451, 491
651, 493, 452, 454
652, 495, 454, 455
653, 494, 453, 399
654, 529, 452, 493
655, 496, 455, 456
656, 515, 479, 513
657, 498, 456, 459
658, 516, 480, 515
659, 497, 458, 457
660, 528, 457, 492
661, 501, 459, 460
662, 517, 483, 516
663, 499, 467, 461
664, 499, 461, 453
665, 523, 522, 488
666, 553, 552, 522
667, 521, 485, 517
668, 501, 498, 459
669, 504, 462, 466
670, 504, 502, 462
671, 505, 503, 482
672, 503, 463, 502
673, 507, 466, 470
674, 570, 569, 514
675, 505, 436, 468
676, 505, 464, 503
677, 595, 568, 540
678, 506, 465, 467
679, 509, 470, 469
680, 539, 537, 507
681, 540, 508, 538
682, 508, 469, 465
683, 595, 538, 529
684, 509, 507, 470
685, 510, 473, 474
686, 581, 544, 510
687, 555, 511, 544
688, 511, 489, 473
689, 593, 566, 567
690, 512, 476, 477
691, 531, 530, 495
692, 513, 479, 476
693, 570, 503, 502
694, 536, 502, 504
695, 532, 531, 496
696, 515, 480, 479
697, 548, 516, 547
698, 516, 483, 480
699, 534, 532, 498
700, 517, 485, 483
701, 518, 478, 481
702, 520, 481, 487
703, 581, 541, 484
704, 519, 478, 518
705, 522, 487, 488
706, 612, 607, 573
707, 535, 500, 533
708, 521, 486, 485
709, 552, 550, 520
710, 522, 520, 487
711, 535, 534, 501
712, 554, 521, 551
713, 557, 524, 450
714, 582, 491, 524
715, 571, 543, 424
716, 597, 596, 525
717, 614, 609, 585
718, 526, 490, 489
719, 527, 492, 451
720, 582, 524, 543
721, 528, 497, 457
722, 559, 492, 527
723, 529, 494, 452
724, 560, 493, 530
725, 530, 493, 495
726, 531, 495, 496
727, 532, 496, 498
728, 574, 546, 572
729, 534, 498, 501
730, 575, 547, 574
731, 533, 500, 497
732, 558, 497, 528
733, 535, 501, 500
734, 576, 548, 575
735, 554, 553, 523
736, 580, 554, 579
737, 537, 504, 507
738, 537, 536, 504
739, 539, 507, 509
740, 619, 561, 589
741, 538, 508, 506
742, 538, 506, 499
743, 540, 539, 509
744, 594, 568, 588
745, 540, 509, 508
746, 595, 529, 560
747, 541, 474, 475
748, 581, 484, 519
749, 542, 475, 434
750, 542, 433, 484
751, 571, 424, 423
752, 598, 597, 584
753, 544, 511, 510
754, 581, 549, 544
755, 545, 513, 512
756, 569, 545, 512
757, 619, 593, 594
758, 546, 515, 513
759, 562, 561, 531
760, 547, 516, 515
761, 563, 562, 532
762, 548, 517, 516
763, 550, 518, 520
764, 573, 549, 550
765, 552, 520, 522
766, 616, 609, 613
767, 565, 535, 564
768, 551, 521, 517
769, 553, 522, 523
770, 617, 615, 611
771, 554, 523, 521
772, 578, 577, 552
773, 610, 605, 592
774, 579, 551, 576
775, 617, 616, 613
776, 555, 526, 511
777, 556, 525, 490
778, 583, 526, 555
779, 557, 225, 208
780, 557, 208, 524
781, 558, 533, 497
782, 587, 528, 559
783, 559, 528, 492
784, 585, 527, 582
785, 560, 529, 493
786, 588, 530, 561
787, 561, 530, 531
788, 562, 531, 532
789, 563, 532, 534
790, 600, 589, 590
791, 565, 534, 535
792, 601, 590, 591
793, 564, 535, 533
794, 586, 533, 558
795, 602, 591, 592
796, 565, 563, 534
797, 606, 569, 566
798, 567, 566, 537
799, 567, 537, 539
800, 568, 567, 539
801, 568, 539, 540
802, 588, 568, 560
803, 569, 512, 514
804, 569, 536, 566
805, 570, 514, 503
806, 570, 502, 536
807, 618, 597, 571
808, 584, 525, 556
809, 572, 546, 545
810, 606, 572, 545
811, 573, 555, 544
812, 577, 573, 550
813, 599, 574, 572
814, 574, 547, 546
815, 590, 589, 562
816, 575, 548, 547
817, 591, 590, 563
818, 576, 551, 548
819, 577, 550, 552
820, 578, 552, 553
821, 580, 553, 554
822, 604, 603, 578
823, 592, 591, 565
824, 579, 554, 551
825, 615, 604, 610
826, 580, 578, 553
827, 581, 519, 549
828, 581, 510, 541
829, 582, 527, 491
830, 598, 585, 582
831, 583, 556, 526
832, 607, 555, 573
833, 608, 556, 583
834, 598, 571, 597
835, 585, 559, 527
836, 598, 582, 543
837, 586, 564, 533
838, 611, 558, 587
839, 587, 558, 528
840, 613, 608, 583
841, 588, 560, 530
842, 619, 599, 593
843, 589, 561, 562
844, 590, 562, 563
845, 591, 563, 565
846, 601, 600, 590
847, 592, 565, 564
848, 602, 601, 591
849, 610, 604, 605
850, 605, 602, 592
851, 606, 593, 572
852, 594, 593, 567
853, 594, 567, 568
854, 619, 588, 561
855, 595, 540, 538
856, 595, 560, 568
857, 618, 596, 597
858, 596, 427, 448
859, 597, 525, 584
860, 618, 571, 423
861, 598, 543, 571
862, 614, 584, 608
863, 600, 599, 589
864, 599, 572, 593
865, 600, 575, 574
866, 600, 574, 599
867, 601, 576, 575
868, 601, 575, 600
869, 602, 579, 576
870, 602, 576, 601
871, 603, 577, 578
872, 604, 578, 580
873, 605, 604, 580
874, 610, 592, 564
875, 605, 580, 579
876, 605, 579, 602
877, 606, 566, 593
878, 606, 545, 569
879, 607, 583, 555
880, 612, 573, 577
881, 608, 584, 556
882, 613, 609, 608
883, 609, 587, 559
884, 609, 559, 585
885, 610, 564, 586
886, 615, 610, 586
887, 611, 586, 558
888, 617, 613, 607
889, 612, 577, 603
890, 617, 603, 615
891, 613, 583, 607
892, 617, 607, 612
893, 614, 585, 598
894, 614, 598, 584
895, 615, 603, 604
896, 615, 586, 611
897, 616, 611, 587
898, 616, 587, 609
899, 617, 612, 603
900, 617, 611, 616
901, 618, 423, 425
902, 618, 425, 427
903, 619, 594, 588
904, 619, 589, 599
 905, 697, 650, 131
 906, 736, 735, 687
 907, 774, 739, 772
 908, 713, 121, 122
 909, 769, 763, 762
 910, 848, 818, 786
 911,  13,   1,  88
 912, 625,  88,  89
 913, 761, 760, 707
 914, 764, 749, 723
 915, 803, 783, 770
 916, 673, 672, 621
 917, 743, 692, 732
 918, 663,  18, 653
 919, 793, 791, 750
 920, 689, 645, 684
 921, 708, 704, 657
 922, 690, 643, 682
 923, 706, 665, 704
 924, 706, 655, 665
 925, 710, 659, 700
 926, 737, 736, 683
 927, 660,  27, 659
 928, 650, 649, 130
 929,  98,  97,   6
 930, 632,  98,  99
 931, 724, 674, 717
 932, 674, 670,  95
 933, 670,  94,  95
 934, 621,  93, 620
 935, 622,  92, 621
 936, 623,  91, 622
 937, 624,  90, 623
 938, 625,  89, 624
 939, 120,   7, 121
 940, 633, 120, 121
 941, 634, 119, 633
 942, 635, 118, 634
 943, 636, 117, 635
 944, 637, 116, 636
 945, 638, 115, 637
 946, 639, 114, 638
 947, 640, 113, 639
 948, 641, 112, 640
 949, 642, 111, 641
 950, 643, 110, 642
 951, 644, 109, 643
 952, 645, 108, 644
 953, 646, 107, 645
 954, 646, 106, 107
 955, 626, 104, 105
 956, 627, 104, 626
 957, 628, 103, 627
 958, 629, 102, 628
 959, 630, 101, 629
 960, 631, 100, 630
 961, 632,  99, 631
 962, 667, 122, 123
 963, 633, 119, 120
 964, 669, 125, 126
 965, 669, 126, 648
 966, 125,   8, 126
 967, 697,   2,  30
 968, 721, 651, 720
 969, 648, 126, 127
 970, 662,  16, 661
 971, 620,  93,  94
 972, 698,  15,  14
 973, 621,  92,  93
 974, 698, 661,  15
 975, 622,  91,  92
 976, 749, 716, 723
 977, 623,  90,  91
 978, 716, 698, 702
 979, 624,  89,  90
 980, 702,  13, 625
 981, 625,  13,  88
 982, 647, 105, 106
 983, 692, 626, 681
 984, 764, 761, 701
 985, 627, 103, 104
 986, 742, 678, 693
 987, 628, 102, 103
 988, 693, 628, 677
 989, 629, 101, 102
 990, 744, 678, 742
 991, 630, 100, 101
 992, 691, 630, 678
 993, 631,  99, 100
 994, 676,  97, 632
 995, 632,  97,  98
 996, 714, 694, 667
 997, 713, 694, 633
 998, 652, 128, 651
 999, 634, 118, 119
1000, 771, 741, 769
1001, 635, 117, 118
1002, 651, 129, 649
1003, 636, 116, 117
1004, 739, 738, 680
1005, 637, 115, 116
1006, 649, 129, 130
1007, 638, 114, 115
1008, 659,  26, 658
1009, 639, 113, 114
1010, 658,  25, 655
1011, 640, 112, 113
1012, 735, 734, 682
1013, 641, 111, 112
1014, 657,  23,  22
1015, 642, 110, 111
1016, 657,  22, 656
1017, 643, 109, 110
1018, 730, 729, 685
1019, 644, 108, 109
1020, 664,  20, 654
1021, 645, 107, 108
1022, 664, 656,  21
1023, 647, 106, 646
1024, 810, 779, 809
1025, 647, 626, 105
1026, 668, 667, 123
1027, 652, 127, 128
1028, 650, 130, 131
1029, 831, 722, 697
1030, 697, 131,   2
1031, 666,  28, 660
1032, 740, 739, 688
1033, 651, 128, 129
1034, 695, 635, 679
1035, 652, 648, 127
1036, 653,  18,  17
1037, 662,  17,  16
1038, 654,  20,  19
1039, 663, 654,  19
1040, 655,  25,  24
1041, 665,  24,  23
1042, 656,  22,  21
1043, 664,  21,  20
1044, 733, 731, 684
1045, 665,  23, 657
1046, 696, 639, 680
1047, 658,  26,  25
1048, 834, 804, 833
1049, 659,  27,  26
1050, 705, 666, 660
1051, 660,  28,  27
1052, 661,  16,  15
1053, 671, 624, 623
1054, 749, 698, 716
1055, 662, 653,  17
1056, 663,  19,  18
1057, 707, 653, 662
1058, 703, 654, 699
1059, 712, 664, 703
1060, 734, 733, 690
1061, 665, 655,  24
1062, 831, 819, 722
1063, 666,  29,  28
1064, 713, 667, 694
1065, 668, 123, 124
1066, 669, 668, 124
1067, 747, 694, 714
1068, 669, 124, 125
1069, 715, 669, 648
1070, 670, 620,  94
1071, 674,  95,  96
1072, 675, 623, 622
1073, 672, 622, 621
1074, 673, 621, 620
1075, 768, 673, 728
1076, 728, 620, 670
1077, 678, 630, 629
1078, 676, 674,  96
1079, 717, 632, 631
1080, 675, 671, 623
1081, 675, 622, 672
1082, 676,  96,  97
1083, 717, 676, 632
1084, 677, 628, 627
1085, 692, 627, 626
1086, 765, 724, 748
1087, 693, 678, 629
1088, 679, 635, 634
1089, 694, 679, 634
1090, 680, 639, 638
1091, 688, 638, 637
1092, 681, 626, 647
1093, 685, 647, 646
1094, 682, 643, 642
1095, 687, 642, 641
1096, 683, 641, 640
1097, 696, 683, 640
1098, 684, 645, 644
1099, 690, 684, 644
1100, 685, 681, 647
1101, 689, 685, 646
1102, 686, 637, 636
1103, 695, 686, 636
1104, 687, 682, 642
1105, 687, 641, 683
1106, 688, 680, 638
1107, 688, 637, 686
1108, 689, 646, 645
1109, 731, 730, 689
1110, 690, 644, 643
1111, 778, 734, 777
1112, 748, 717, 691
1113, 691, 631, 630
1114, 732, 681, 729
1115, 692, 677, 627
1116, 693, 629, 628
1117, 743, 677, 692
1118, 694, 634, 633
1119, 714, 667, 668
1120, 695, 636, 635
1121, 746, 741, 695
1122, 696, 640, 639
1123, 738, 737, 696
1124, 831,  30,  29
1125, 831, 697,  30
1126, 702, 698,  14
1127, 716, 625, 624
1128, 699, 654, 663
1129, 711, 663, 653
1130, 700, 659, 658
1131, 709, 658, 655
1132, 707, 662, 701
1133, 701, 662, 661
1134, 702,  14,  13
1135, 716, 702, 625
1136, 791, 790, 751
1137, 703, 664, 654
1138, 704, 665, 657
1139, 708, 657, 656
1140, 722, 718, 650
1141, 710, 705, 660
1142, 756, 706, 755
1143, 709, 655, 706
1144, 726, 672, 725
1145, 711, 653, 707
1146, 712, 708, 656
1147, 782, 781, 729
1148, 808, 777, 807
1149, 709, 700, 658
1150, 710, 660, 659
1151, 759, 700, 757
1152, 745, 677, 743
1153, 711, 699, 663
1154, 712, 656, 664
1155, 751, 703, 750
1156, 713, 633, 121
1157, 713, 122, 667
1158, 715, 668, 669
1159, 715, 714, 668
1160, 719, 648, 652
1161, 719, 715, 648
1162, 716, 624, 671
1163, 723, 716, 671
1164, 717, 674, 676
1165, 717, 631, 691
1166, 773, 737, 738
1167, 718, 649, 650
1168, 721, 652, 651
1169, 769, 746, 763
1170, 720, 651, 649
1171, 720, 649, 718
1172, 741, 740, 686
1173, 721, 719, 652
1174, 722, 650, 697
1175, 819, 786, 722
1176, 727, 671, 675
1177, 817, 764, 767
1178, 832, 803, 801
1179, 724, 670, 674
1180, 725, 672, 673
1181, 783, 744, 742
1182, 766, 726, 725
1183, 726, 675, 672
1184, 727, 723, 671
1185, 727, 675, 726
1186, 728, 673, 620
1187, 728, 670, 724
1188, 729, 681, 685
1189, 730, 685, 689
1190, 731, 689, 684
1191, 753, 712, 751
1192, 733, 684, 690
1193, 754, 708, 753
1194, 752, 750, 699
1195, 732, 692, 681
1196, 734, 690, 682
1197, 755, 704, 754
1198, 735, 682, 687
1199, 837, 836, 824
1200, 736, 687, 683
1201, 757, 709, 756
1202, 737, 683, 696
1203, 795, 794, 757
1204, 738, 696, 680
1205, 759, 758, 710
1206, 739, 680, 688
1207, 774, 773, 738
1208, 740, 688, 686
1209, 802, 771, 800
1210, 741, 686, 695
1211, 772, 740, 771
1212, 746, 695, 679
1213, 798, 769, 762
1214, 745, 693, 677
1215, 817, 796, 761
1216, 785, 732, 781
1217, 784, 770, 745
1218, 765, 748, 744
1219, 744, 691, 678
1220, 760, 752, 711
1221, 745, 742, 693
1222, 747, 746, 679
1223, 763, 714, 762
1224, 747, 679, 694
1225, 762, 714, 715
1226, 748, 724, 717
1227, 748, 691, 744
1228, 749, 701, 661
1229, 749, 661, 698
1230, 750, 703, 699
1231, 752, 699, 711
1232, 782, 730, 780
1233, 751, 712, 703
1234, 760, 711, 707
1235, 785, 784, 743
1236, 780, 731, 779
1237, 753, 708, 712
1238, 779, 733, 778
1239, 754, 704, 708
1240, 777, 735, 776
1241, 755, 706, 704
1242, 776, 736, 775
1243, 756, 709, 706
1244, 775, 737, 773
1245, 757, 700, 709
1246, 758, 705, 710
1247, 759, 710, 700
1248, 812, 807, 776
1249, 806, 773, 805
1250, 761, 707, 701
1251, 829, 828, 797
1252, 764, 701, 749
1253, 799, 767, 766
1254, 762, 715, 719
1255, 798, 719, 721
1256, 763, 746, 747
1257, 763, 747, 714
1258, 764, 723, 727
1259, 767, 726, 766
1260, 832, 801, 768
1261, 765, 728, 724
1262, 801, 725, 768
1263, 770, 742, 745
1264, 767, 764, 727
1265, 767, 727, 726
1266, 768, 725, 673
1267, 768, 728, 765
1268, 800, 769, 798
1269, 769, 741, 746
1270, 784, 745, 743
1271, 846, 843, 814
1272, 800, 771, 769
1273, 771, 740, 741
1274, 804, 774, 772
1275, 772, 739, 740
1276, 853, 848, 849
1277, 849, 825, 841
1278, 774, 738, 739
1279, 804, 772, 802
1280, 794, 787, 759
1281, 775, 736, 737
1282, 795, 756, 788
1283, 776, 735, 736
1284, 826, 795, 824
1285, 777, 734, 735
1286, 792, 754, 789
1287, 778, 733, 734
1288, 838, 837, 821
1289, 779, 731, 733
1290, 790, 789, 753
1291, 780, 730, 731
1292, 781, 732, 729
1293, 782, 729, 730
1294, 822, 821, 792
1295, 842, 839, 820
1296, 783, 765, 744
1297, 783, 742, 770
1298, 785, 743, 732
1299, 797, 760, 796
1300, 815, 781, 813
1301, 816, 785, 815
1302, 786, 718, 722
1303, 786, 705, 758
1304, 787, 758, 759
1305, 794, 759, 757
1306, 788, 756, 755
1307, 792, 755, 754
1308, 789, 754, 753
1309, 790, 753, 751
1310, 791, 751, 750
1311, 811, 780, 810
1312, 793, 750, 752
1313, 813, 782, 811
1314, 809, 778, 808
1315, 792, 788, 755
1316, 797, 752, 760
1317, 844, 842, 823
1318, 795, 757, 756
1319, 812, 775, 806
1320, 826, 825, 794
1321, 824, 788, 821
1322, 796, 760, 761
1323, 817, 799, 796
1324, 847, 846, 816
1325, 797, 793, 752
1326, 798, 762, 719
1327, 830, 798, 721
1328, 845, 843, 799
1329, 814, 803, 770
1330, 830, 800, 798
1331, 830, 802, 800
1332, 801, 766, 725
1333, 832, 768, 765
1334, 850, 833, 830
1335, 802, 772, 771
1336, 814, 770, 784
1337, 845, 803, 843
1338, 818, 720, 718
1339, 805, 774, 804
1340, 852, 833, 851
1341, 805, 773, 774
1342, 841, 825, 840
1343, 806, 775, 773
1344, 807, 777, 776
1345, 812, 776, 775
1346, 838, 821, 822
1347, 808, 778, 777
1348, 822, 789, 820
1349, 809, 779, 778
1350, 842, 820, 823
1351, 810, 780, 779
1352, 823, 820, 790
1353, 811, 782, 780
1354, 835, 806, 805
1355, 840, 825, 826
1356, 827, 823, 791
1357, 813, 781, 782
1358, 816, 784, 785
1359, 846, 814, 816
1360, 828, 827, 793
1361, 815, 785, 781
1362, 846, 828, 829
1363, 816, 814, 784
1364, 817, 761, 764
1365, 817, 767, 799
1366, 818, 718, 786
1367, 848, 786, 758
1368, 819, 666, 705
1369, 819, 705, 786
1370, 820, 789, 790
1371, 823, 790, 791
1372, 821, 788, 792
1373, 822, 792, 789
1374, 839, 838, 822
1375, 839, 822, 820
1376, 827, 791, 793
1377, 844, 823, 827
1378, 837, 824, 821
1379, 824, 795, 788
1380, 825, 787, 794
1381, 826, 794, 795
1382, 836, 826, 824
1383, 840, 826, 836
1384, 828, 793, 797
1385, 847, 827, 828
1386, 829, 797, 796
1387, 847, 815, 844
1388, 829, 796, 799
1389, 843, 829, 799
1390, 850, 721, 720
1391, 851, 850, 720
1392, 831,  29, 666
1393, 831, 666, 819
1394, 832, 765, 783
1395, 832, 783, 803
1396, 833, 804, 802
1397, 833, 802, 830
1398, 853, 852, 848
1399, 834, 805, 804
1400, 849, 841, 835
1401, 835, 805, 834
1402, 836, 808, 807
1403, 840, 836, 807
1404, 837, 809, 808
1405, 837, 808, 836
1406, 838, 810, 809
1407, 838, 809, 837
1408, 839, 811, 810
1409, 839, 810, 838
1410, 840, 807, 812
1411, 841, 840, 812
1412, 841, 812, 806
1413, 841, 806, 835
1414, 842, 813, 811
1415, 842, 811, 839
1416, 845, 799, 766
1417, 843, 803, 814
1418, 844, 815, 813
1419, 844, 813, 842
1420, 845, 766, 801
1421, 845, 801, 803
1422, 847, 816, 815
1423, 846, 829, 843
1424, 847, 844, 827
1425, 847, 828, 846
1426, 848, 758, 787
1427, 849, 848, 787
1428, 849, 787, 825
1429, 853, 835, 834
1430, 850, 830, 721
1431, 851, 720, 818
1432, 852, 851, 818
1433, 851, 833, 850
1434, 852, 818, 848
1435, 852, 834, 833
1436, 853, 849, 835
1437, 853, 834, 852
1438,  925,  133,  890
1439,  874,  873,  174
1440,  990,  956,  955
1441,  895,  856,  894
1442,  935,   48,   47
1443,  961,  959,  913
1444,  140,   10,  141
1445,  887,  141,  142
1446,  960,  911,  956
1447,  886,  880,  144
1448,  911,  879,  878
1449,  975,  968,  966
1450,  923,  136,  137
1451,  890,  134,  889
1452, 1092,  909,  176
1453,  156,   11,  157
1454,  864,  157,  158
1455,  943,  901,  942
1456,  896,  860,  859
1457,  921,  912,  883
1458,  921,  883,  882
1459,  883,  151,  152
1460,  877,  150,  876
1461,  913,  876,  912
1462,  884,  149,  877
1463,  884,  148,  149
1464,  879,  146,  878
1465,  886,  145,  879
1466,  880,  143,  144
1467,  881,  143,  880
1468,  887,  142,  881
1469,   48,  170,    4
1470,  854,  170,   48
1471,  893,  169,  854
1472,  892,  855,  167
1473,  855,  166,  167
1474,  856,  166,  855
1475,  857,  165,  856
1476,  857,  164,  165
1477,  859,  163,  858
1478,  860,  162,  859
1479,  861,  161,  860
1480,  862,  160,  861
1481,  863,  159,  862
1482,  864,  158,  863
1483,  902,   46,   45
1484, 1006,  986,  974
1485,  904,   44,   43
1486,  904,   43,  869
1487,  869,   42,  865
1488,  865,   42,   41
1489,  905,  869,  865
1490,  866,   40,   39
1491,  906,  905,  865
1492,  867,  866,   39
1493,  871,   37,  171
1494,   37,    3,  171
1495, 1092,    9,  132
1496,  873,  872,  173
1497,  934,  875,  930
1498,  854,  169,  170
1499,  868,   47,   46
1500,  892,  167,  168
1501,  945,  855,  892
1502,  982,  945,  974
1503,  856,  165,  166
1504,  898,  857,  895
1505,  858,  164,  857
1506,  883,  152,  882
1507,  858,  163,  164
1508,  910,  153,  154
1509,  859,  162,  163
1510,  963,  929,  937
1511,  860,  161,  162
1512,  914,  910,  154
1513,  861,  160,  161
1514,  899,  863,  862
1515,  862,  159,  160
1516,  929,  863,  899
1517,  863,  158,  159
1518,  918,  156,  864
1519,  864,  156,  157
1520,  870,   41,   40
1521, 1015,  974,  986
1522,  867,   39,   38
1523,  934,  867,  871
1524,  871,   38,   37
1525,  871,  867,   38
1526,  936,  935,  868
1527,  986,  946,  952
1528,  903,  902,   45
1529,  869,   43,   42
1530,  870,  865,   41
1531,  870,   40,  866
1532,  875,  171,  172
1533,  930,  875,  872
1534,  872,  172,  173
1535,  873,  173,  174
1536,  874,  174,  175
1537,  956,  916,  955
1538,  909,  175,  176
1539,  889,  135,  888
1540,  875,  871,  171
1541,  875,  172,  872
1542,  876,  150,  151
1543,  941,  897,  939
1544,  885,  148,  884
1545,  877,  149,  150
1546,  878,  146,  147
1547,  885,  147,  148
1548,  924,  138,  139
1549,  879,  145,  146
1550,  924,  891,  138
1551,  886,  144,  145
1552,  933,  924,  927
1553,  881,  142,  143
1554,  882,  152,  153
1555,  973,  937,  944
1556,  901,  860,  896
1557,  883,  876,  151
1558,  915,  877,  913
1559,  922,  884,  915
1560,  922,  916,  885
1561,  885,  878,  147
1562,  917,  879,  911
1563,  919,  886,  917
1564,  927,  140,  887
1565,  887,  140,  141
1566,  928,  926,  889
1567,  888,  135,  136
1568,  926,  890,  889
1569,  889,  134,  135
1570, 1000,  926,  967
1571,  890,  133,  134
1572,  891,  137,  138
1573,  920,  880,  919
1574,  893,  168,  169
1575,  893,  892,  168
1576,  936,  854,  935
1577,  936,  893,  854
1578,  894,  856,  855
1579, 1016,  982, 1004
1580,  962,  961,  912
1581,  895,  857,  856
1582,  897,  859,  858
1583,  897,  896,  859
1584,  898,  858,  857
1585,  898,  897,  858
1586,  940,  895,  938
1587,  997,  996,  959
1588,  900,  862,  861
1589,  900,  899,  862
1590,  901,  900,  861
1591,  942,  896,  941
1592,  901,  861,  860
1593, 1036, 1035, 1007
1594,  902,  868,   46
1595,  903,   45,   44
1596,  904,  903,   44
1597,  952,  903,  947
1598,  951,  869,  905
1599,  947,  903,  904
1600,  906,  865,  870
1601,  908,  870,  866
1602,  971,  934,  930
1603, 1042, 1037, 1017
1604,  907,  866,  867
1605,  949,  948,  906
1606,  908,  906,  870
1607,  908,  866,  907
1608,  909,  874,  175
1609, 1092,  925,  909
1610,  910,  882,  153
1611,  914,  154,  155
1612,  916,  878,  885
1613,  998,  928,  964
1614,  932,  873,  931
1615,  912,  876,  883
1616,  959,  954,  915
1617,  913,  877,  876
1618,  918,  914,  155
1619,  929,  918,  864
1620,  992,  990,  955
1621,  915,  884,  877
1622,  916,  911,  878
1623,  922,  885,  884
1624,  968,  891,  966
1625,  917,  886,  879
1626,  918,  155,  156
1627,  929,  864,  863
1628,  995,  994,  958
1629,  919,  880,  886
1630,  966,  924,  933
1631,  920,  881,  880
1632,  953,  882,  910
1633, 1018,  962,  989
1634,  997,  959,  961
1635,  985,  949,  983
1636,  923,  888,  136
1637,  923,  137,  891
1638,  927,  924,  139
1639,  933,  887,  881
1640,  925,  132,  133
1641,  965,  890,  926
1642, 1054,  909,  965
1643,  928,  889,  888
1644,  927,  139,  140
1645,  933,  927,  887
1646,  964,  888,  923
1647,  960,  958,  917
1648,  937,  929,  899
1649,  929,  914,  918
1650,  932,  872,  873
1651,  948,  905,  906
1652,  931,  873,  874
1653,  972,  874,  909
1654,  955,  922,  954
1655,  932,  930,  872
1656,  933,  881,  920
1657,  969,  966,  933
1658,  934,  907,  867
1659,  934,  871,  875
1660,  935,  854,   48
1661,  935,   47,  868
1662,  946,  868,  902
1663,  970,  945,  892
1664,  973,  963,  937
1665,  944,  899,  900
1666,  938,  895,  894
1667, 1080, 1079, 1068
1668,  939,  897,  898
1669,  940,  939,  898
1670,  940,  898,  895
1671, 1014,  984, 1012
1672, 1007,  976,  978
1673,  941,  896,  897
1674,  989,  953,  973
1675,  942,  901,  896
1676, 1044, 1008, 1035
1677,  943,  900,  901
1678,  944,  937,  899
1679,  944,  900,  943
1680,  945,  894,  855
1681,  970,  892,  893
1682,  946,  936,  868
1683,  952,  902,  903
1684,  951,  904,  869
1685,  988,  984,  951
1686,  949,  906,  908
1687,  950,  908,  907
1688,  950,  949,  908
1689, 1046, 1032,  932
1690,  971,  907,  934
1691,  971,  950,  907
1692,  951,  947,  904
1693,  988,  905,  948
1694,  987,  947,  984
1695,  952,  946,  902
1696,  953,  921,  882
1697,  963,  953,  910
1698,  954,  922,  915
1699,  959,  915,  913
1700, 1023, 1021,  990
1701,  955,  916,  922
1702,  958,  957,  919
1703,  956,  911,  916
1704,  957,  920,  919
1705,  958,  919,  917
1706,  995,  960,  991
1707, 1031, 1024, 1030
1708,  961,  913,  912
1709, 1055, 1044, 1035
1710,  960,  917,  911
1711,  991,  956,  990
1712,  962,  912,  921
1713, 1020, 1008, 1018
1714,  989,  921,  953
1715,  976,  943,  942
1716,  963,  910,  914
1717,  963,  914,  929
1718,  964,  928,  888
1719,  975,  966,  969
1720,  965,  909,  925
1721,  965,  925,  890
1722,  966,  891,  924
1723,  969,  933,  920
1724, 1054, 1019,  972
1725,  967,  926,  928
1726,  968,  964,  923
1727,  968,  923,  891
1728,  969,  920,  957
1729,  975,  969,  957
1730,  970,  893,  936
1731, 1006,  936,  946
1732, 1003,  930,  932
1733, 1002,  983,  950
1734,  972,  931,  874
1735, 1054, 1000, 1019
1736,  973,  953,  963
1737,  979,  943,  976
1738, 1015,  986,  987
1739,  974,  945,  970
1740, 1001,  968,  975
1741,  994,  957,  958
1742,  978,  942,  941
1743,  980,  941,  939
1744,  981,  940,  977
1745,  977,  940,  938
1746,  978,  976,  942
1747,  980,  978,  941
1748,  979,  973,  944
1749,  979,  944,  943
1750,  981,  980,  939
1751, 1041, 1016, 1034
1752,  981,  939,  940
1753, 1013,  983, 1005
1754,  982,  938,  894
1755,  982,  894,  945
1756,  983,  949,  950
1757, 1002,  950,  971
1758,  984,  947,  951
1759, 1034, 1016, 1004
1760, 1037, 1012, 1017
1761,  985,  948,  949
1762, 1006,  974,  970
1763,  987,  986,  952
1764,  987,  952,  947
1765, 1062, 1037, 1059
1766,  988,  951,  905
1767, 1017,  948,  985
1768,  989,  962,  921
1769, 1020,  973,  979
1770,  992,  955,  954
1771, 1045, 1019, 1028
1772, 1024,  995, 1022
1773,  991,  960,  956
1774,  996,  954,  959
1775, 1043, 1002, 1003
1776,  997,  961,  993
1777,  993,  961,  962
1778,  994,  975,  957
1779,  995,  958,  960
1780, 1022,  991, 1021
1781, 1091, 1080, 1081
1782, 1050, 1047, 1023
1783,  996,  992,  954
1784, 1044, 1018, 1008
1785, 1084, 1055, 1060
1786,  998,  967,  928
1787, 1001,  998,  964
1788,  999,  931,  972
1789, 1080, 1068, 1067
1790, 1000,  965,  926
1791, 1028, 1000,  967
1792, 1001,  964,  968
1793, 1031, 1030, 1001
1794, 1003, 1002,  971
1795, 1056, 1032, 1046
1796, 1003,  971,  930
1797, 1046,  932,  931
1798, 1034, 1004, 1015
1799, 1004,  982,  974
1800, 1025, 1023,  992
1801, 1005,  983, 1002
1802, 1006,  970,  936
1803, 1006,  946,  986
1804, 1009,  978,  980
1805, 1009, 1007,  978
1806, 1008,  979,  976
1807, 1008,  976, 1007
1808, 1011,  980,  981
1809, 1039, 1038, 1011
1810, 1010,  981,  977
1811, 1061, 1060, 1038
1812, 1011, 1009,  980
1813, 1011,  981, 1010
1814, 1012,  984,  988
1815, 1017, 1012,  988
1816, 1027,  997, 1026
1817, 1013,  985,  983
1818, 1034, 1015, 1014
1819, 1014,  987,  984
1820, 1015, 1004,  974
1821, 1015,  987, 1014
1822, 1016,  977,  938
1823, 1016,  938,  982
1824, 1017,  988,  948
1825, 1042,  985, 1013
1826, 1018,  993,  962
1827, 1020, 1018,  989
1828, 1029, 1028,  967
1829, 1019,  999,  972
1830, 1020,  989,  973
1831, 1020,  979, 1008
1832, 1021,  991,  990
1833, 1023,  990,  992
1834, 1066, 1053, 1029
1835, 1022,  995,  991
1836, 1025,  992,  996
1837, 1069, 1067, 1047
1838, 1031, 1001,  975
1839, 1024,  994,  995
1840, 1027,  996,  997
1841, 1051, 1050, 1025
1842, 1026,  997,  993
1843, 1055, 1052, 1026
1844, 1052, 1051, 1027
1845, 1027, 1025,  996
1846, 1028, 1019, 1000
1847, 1029,  967,  998
1848, 1030, 1029,  998
1849, 1049, 1022, 1048
1850, 1030,  998, 1001
1851, 1066, 1024, 1049
1852, 1031,  975,  994
1853, 1031,  994, 1024
1854, 1032, 1003,  932
1855, 1065, 1046,  999
1856, 1033, 1013, 1005
1857, 1058, 1005, 1043
1858, 1040, 1012, 1037
1859, 1057, 1034, 1040
1860, 1035, 1008, 1007
1861, 1036, 1007, 1009
1862, 1038, 1009, 1011
1863, 1038, 1036, 1009
1864, 1063, 1059, 1042
1865, 1057, 1041, 1034
1866, 1039, 1011, 1010
1867, 1071, 1070, 1051
1868, 1064, 1041, 1057
1869, 1059, 1037, 1042
1870, 1040, 1034, 1014
1871, 1040, 1014, 1012
1872, 1041, 1010,  977
1873, 1041,  977, 1016
1874, 1042, 1017,  985
1875, 1063, 1013, 1033
1876, 1043, 1005, 1002
1877, 1043, 1003, 1032
1878, 1044, 1026,  993
1879, 1044,  993, 1018
1880, 1048, 1021, 1047
1881, 1045,  999, 1019
1882, 1046,  931,  999
1883, 1065, 1056, 1046
1884, 1047, 1021, 1023
1885, 1050, 1023, 1025
1886, 1068, 1049, 1048
1887, 1048, 1022, 1021
1888, 1068, 1066, 1049
1889, 1049, 1024, 1022
1890, 1051, 1025, 1027
1891, 1077, 1074, 1033
1892, 1052, 1027, 1026
1893, 1070, 1069, 1050
1894, 1055, 1026, 1044
1895, 1060, 1055, 1036
1896, 1053, 1045, 1028
1897, 1053, 1028, 1029
1898, 1054,  972,  909
1899, 1054,  965, 1000
1900, 1055, 1035, 1036
1901, 1060, 1036, 1038
1902, 1089, 1078, 1072
1903, 1078, 1032, 1056
1904, 1062, 1040, 1037
1905, 1064, 1010, 1041
1906, 1058, 1033, 1005
1907, 1078, 1058, 1043
1908, 1087, 1085, 1076
1909, 1075, 1062, 1059
1910, 1061, 1038, 1039
1911, 1085, 1083, 1076
1912, 1088, 1064, 1075
1913, 1073, 1059, 1063
1914, 1075, 1064, 1062
1915, 1062, 1057, 1040
1916, 1063, 1042, 1013
1917, 1074, 1073, 1063
1918, 1064, 1039, 1010
1919, 1064, 1057, 1062
1920, 1065,  999, 1045
1921, 1079, 1072, 1065
1922, 1066, 1029, 1030
1923, 1066, 1030, 1024
1924, 1067, 1048, 1047
1925, 1069, 1047, 1050
1926, 1068, 1053, 1066
1927, 1068, 1048, 1067
1928, 1070, 1050, 1051
1929, 1091, 1090, 1089
1930, 1071, 1051, 1052
1931, 1090, 1086, 1077
1932, 1084, 1071, 1052
1933, 1076, 1060, 1061
1934, 1072, 1056, 1065
1935, 1079, 1065, 1045
1936, 1087, 1076, 1061
1937, 1074, 1063, 1033
1938, 1077, 1033, 1058
1939, 1083, 1082, 1070
1940, 1075, 1059, 1073
1941, 1088, 1075, 1087
1942, 1084, 1076, 1071
1943, 1088, 1087, 1061
1944, 1089, 1058, 1078
1945, 1082, 1081, 1069
1946, 1078, 1043, 1032
1947, 1078, 1056, 1072
1948, 1079, 1045, 1053
1949, 1079, 1053, 1068
1950, 1081, 1080, 1067
1951, 1080, 1072, 1079
1952, 1081, 1067, 1069
1953, 1082, 1069, 1070
1954, 1083, 1070, 1071
1955, 1090, 1082, 1086
1956, 1083, 1071, 1076
1957, 1086, 1083, 1085
1958, 1084, 1052, 1055
1959, 1084, 1060, 1076
1960, 1085, 1073, 1074
1961, 1086, 1085, 1074
1962, 1086, 1074, 1077
1963, 1086, 1082, 1083
1964, 1087, 1075, 1073
1965, 1087, 1073, 1085
1966, 1088, 1061, 1039
1967, 1088, 1039, 1064
1968, 1091, 1089, 1072
1969, 1089, 1077, 1058
1970, 1090, 1077, 1089
1971, 1090, 1081, 1082
1972, 1091, 1072, 1080
1973, 1091, 1081, 1090
1974, 1092,  176,    9
1975, 1092,  132,  925
1976, 1144,  138, 1096
1977, 1192,  140,  139
1978, 1133, 1110, 1109
1979, 1115,  187, 1114
1980, 1106,  182,  125
1981, 1095,  181, 1094
1982, 1126,  202,  203
1983, 1127, 1122, 1121
1984, 1097, 1096,  137
1985, 1098, 1097,  136
1986, 1099, 1098,  135
1987, 1100, 1099,  134
1988, 1101, 1100,  133
1989, 1101,  132,  177
1990,  132,    9,  177
1991,  182,    8,  125
1992, 1102,  180, 1095
1993, 1103, 1101,  177
1994,  121,    7,  183
1995, 1118,  121,  183
1996, 1147,  121, 1118
1997, 1105,  123, 1104
1998, 1106,  125,  124
1999,  197,  196,   12
2000, 1125,  196,  197
2001, 1167, 1157, 1134
2002, 1108,  194, 1107
2003, 1109,  193, 1108
2004, 1110,  192, 1109
2005, 1111,  191, 1110
2006, 1112,  190, 1111
2007, 1135, 1112, 1111
2008, 1113,  189, 1112
2009, 1163, 1132, 1160
2010, 1116,  186, 1115
2011, 1117,  185, 1116
2012, 1150, 1118, 1117
2013,  206,   10,  140
2014, 1119,  206,  140
2015, 1192, 1149, 1119
2016, 1120,  205, 1119
2017, 1128,  204, 1120
2018, 1128,  203,  204
2019, 1122,  201, 1121
2020, 1123,  200, 1122
2021, 1124,  199, 1123
2022, 1151, 1138, 1125
2023, 1093,  178,  179
2024, 1102,  179,  180
2025, 1094,  181,  182
2026, 1131, 1116, 1115
2027, 1132, 1114, 1113
2028, 1095,  180,  181
2029, 1096,  138,  137
2030, 1097,  137,  136
2031, 1098,  136,  135
2032, 1136, 1108, 1134
2033, 1099,  135,  134
2034, 1137, 1135, 1111
2035, 1100,  134,  133
2036, 1137, 1110, 1133
2037, 1101,  133,  132
2038, 1168, 1100, 1101
2039, 1103,  177,  178
2040, 1168, 1101, 1103
2041, 1114,  188, 1113
2042, 1102, 1093,  179
2043, 1103,  178, 1093
2044, 1168, 1142, 1100
2045, 1104,  123,  122
2046, 1177, 1164, 1163
2047, 1191, 1173, 1106
2048, 1105,  124,  123
2049, 1106, 1094,  182
2050, 1106,  124, 1105
2051, 1107,  194,  195
2052, 1138,  196, 1125
2053, 1190, 1172, 1189
2054, 1108,  193,  194
2055, 1218, 1157, 1154
2056, 1109,  192,  193
2057, 1161, 1137, 1133
2058, 1110,  191,  192
2059, 1160, 1139, 1159
2060, 1111,  190,  191
2061, 1201, 1200, 1179
2062, 1112,  189,  190
2063, 1164, 1140, 1163
2064, 1113,  188,  189
2065, 1152, 1148, 1150
2066, 1114,  187,  188
2067, 1150, 1148, 1104
2068, 1115,  186,  187
2069, 1141, 1116, 1131
2070, 1116,  185,  186
2071, 1150, 1117, 1141
2072, 1117,  184,  185
2073, 1118,  183,  184
2074, 1118,  184, 1117
2075, 1119,  205,  206
2076, 1192, 1144, 1149
2077, 1126, 1121,  202
2078, 1120,  204,  205
2079, 1121,  201,  202
2080, 1166, 1121, 1126
2081, 1129, 1122, 1127
2082, 1122,  200,  201
2083, 1130, 1123, 1129
2084, 1123,  199,  200
2085, 1151, 1125, 1124
2086, 1124,  198,  199
2087, 1125,  197,  198
2088, 1125,  198, 1124
2089, 1128, 1126,  203
2090, 1156, 1153, 1128
2091, 1145, 1097, 1143
2092, 1218, 1154, 1155
2093, 1188, 1186, 1169
2094, 1197, 1175, 1188
2095, 1151, 1134, 1107
2096, 1129, 1123, 1122
2097, 1167, 1151, 1130
2098, 1130, 1124, 1123
2099, 1140, 1115, 1114
2100, 1174, 1148, 1152
2101, 1139, 1113, 1112
2102, 1179, 1177, 1163
2103, 1136, 1109, 1108
2104, 1146, 1099, 1142
2105, 1134, 1108, 1107
2106, 1167, 1154, 1157
2107, 1137, 1111, 1110
2108, 1202, 1201, 1181
2109, 1154, 1130, 1129
2110, 1136, 1133, 1109
2111, 1203, 1202, 1180
2112, 1161, 1133, 1158
2113, 1138, 1107,  195
2114, 1138,  195,  196
2115, 1139, 1132, 1113
2116, 1139, 1112, 1135
2117, 1140, 1131, 1115
2118, 1140, 1114, 1132
2119, 1150, 1147, 1118
2120, 1141, 1117, 1116
2121, 1142, 1099, 1100
2122, 1214, 1212, 1200
2123, 1143, 1097, 1098
2124, 1146, 1143, 1098
2125, 1144,  139,  138
2126, 1169, 1096, 1145
2127, 1156, 1120, 1149
2128, 1145, 1096, 1097
2129, 1146, 1098, 1099
2130, 1223, 1212, 1214
2131, 1147, 1104,  122
2132, 1147,  122,  121
2133, 1191, 1106, 1105
2134, 1148, 1105, 1104
2135, 1149, 1120, 1119
2136, 1169, 1149, 1144
2137, 1152, 1150, 1141
2138, 1150, 1104, 1147
2139, 1151, 1107, 1138
2140, 1151, 1124, 1130
2141, 1165, 1141, 1131
2142, 1174, 1152, 1165
2143, 1176, 1153, 1175
2144, 1153, 1126, 1128
2145, 1155, 1129, 1127
2146, 1155, 1154, 1129
2147, 1185, 1127, 1166
2148, 1218, 1205, 1183
2149, 1156, 1128, 1120
2150, 1186, 1149, 1169
2151, 1158, 1136, 1157
2152, 1157, 1136, 1134
2153, 1172, 1146, 1171
2154, 1158, 1133, 1136
2155, 1159, 1139, 1135
2156, 1162, 1135, 1137
2157, 1211, 1195, 1196
2158, 1160, 1132, 1139
2159, 1184, 1158, 1183
2160, 1182, 1180, 1162
2161, 1162, 1159, 1135
2162, 1162, 1137, 1161
2163, 1207, 1191, 1148
2164, 1163, 1140, 1132
2165, 1199, 1196, 1178
2166, 1164, 1131, 1140
2167, 1165, 1152, 1141
2168, 1165, 1131, 1164
2169, 1166, 1127, 1121
2170, 1166, 1126, 1153
2171, 1167, 1134, 1151
2172, 1167, 1130, 1154
2173, 1228, 1208, 1103
2174, 1212, 1211, 1199
2175, 1169, 1144, 1096
2176, 1188, 1145, 1170
2177, 1170, 1145, 1143
2178, 1172, 1143, 1146
2179, 1171, 1146, 1142
2180, 1187, 1142, 1168
2181, 1221, 1217, 1210
2182, 1172, 1170, 1143
2183, 1195, 1094, 1173
2184, 1173, 1094, 1106
2185, 1178, 1165, 1164
2186, 1196, 1195, 1173
2187, 1175, 1153, 1156
2188, 1186, 1175, 1156
2189, 1198, 1176, 1197
2190, 1176, 1166, 1153
2191, 1179, 1163, 1160
2192, 1195, 1193, 1095
2193, 1178, 1174, 1165
2194, 1178, 1164, 1177
2195, 1181, 1160, 1159
2196, 1194, 1102, 1193
2197, 1180, 1159, 1162
2198, 1182, 1162, 1161
2199, 1181, 1179, 1160
2200, 1181, 1159, 1180
2201, 1184, 1161, 1158
2202, 1204, 1203, 1182
2203, 1183, 1158, 1157
2204, 1206, 1185, 1198
2205, 1226, 1205, 1213
2206, 1184, 1182, 1161
2207, 1185, 1155, 1127
2208, 1185, 1166, 1176
2209, 1186, 1156, 1149
2210, 1188, 1169, 1145
2211, 1187, 1171, 1142
2212, 1208, 1187, 1168
2213, 1222, 1197, 1188
2214, 1188, 1175, 1186
2215, 1189, 1172, 1171
2216, 1209, 1171, 1187
2217, 1222, 1220, 1197
2218, 1190, 1170, 1172
2219, 1191, 1105, 1148
2220, 1207, 1148, 1174
2221, 1192, 1119,  140
2222, 1192,  139, 1144
2223, 1200, 1199, 1177
2224, 1193, 1102, 1095
2225, 1219, 1209, 1187
2226, 1194, 1093, 1102
2227, 1195, 1095, 1094
2228, 1207, 1196, 1173
2229, 1196, 1174, 1178
2230, 1199, 1178, 1177
2231, 1197, 1176, 1175
2232, 1222, 1188, 1170
2233, 1218, 1206, 1205
2234, 1198, 1185, 1176
2235, 1200, 1177, 1179
2236, 1212, 1199, 1200
2237, 1201, 1179, 1181
2238, 1229, 1211, 1212
2239, 1202, 1181, 1180
2240, 1215, 1214, 1201
2241, 1203, 1180, 1182
2242, 1216, 1215, 1202
2243, 1204, 1182, 1184
2244, 1225, 1216, 1221
2245, 1205, 1204, 1184
2246, 1226, 1220, 1210
2247, 1205, 1184, 1183
2248, 1226, 1210, 1217
2249, 1206, 1155, 1185
2250, 1213, 1206, 1198
2251, 1207, 1174, 1196
2252, 1207, 1173, 1191
2253, 1208, 1168, 1103
2254, 1227, 1093, 1194
2255, 1209, 1189, 1171
2256, 1219, 1187, 1208
2257, 1210, 1190, 1189
2258, 1221, 1189, 1209
2259, 1211, 1193, 1195
2260, 1211, 1196, 1199
2261, 1214, 1200, 1201
2262, 1229, 1223, 1194
2263, 1213, 1205, 1206
2264, 1220, 1213, 1198
2265, 1215, 1201, 1202
2266, 1227, 1224, 1219
2267, 1216, 1202, 1203
2268, 1225, 1219, 1224
2269, 1217, 1216, 1203
2270, 1221, 1216, 1217
2271, 1217, 1203, 1204
2272, 1226, 1217, 1204
2273, 1218, 1183, 1157
2274, 1218, 1155, 1206
2275, 1227, 1219, 1208
2276, 1227, 1223, 1224
2277, 1220, 1198, 1197
2278, 1220, 1190, 1210
2279, 1221, 1210, 1189
2280, 1225, 1209, 1219
2281, 1222, 1170, 1190
2282, 1222, 1190, 1220
2283, 1229, 1194, 1193
2284, 1224, 1223, 1214
2285, 1224, 1214, 1215
2286, 1225, 1224, 1215
2287, 1225, 1215, 1216
2288, 1225, 1221, 1209
2289, 1226, 1204, 1205
2290, 1226, 1213, 1220
2291, 1228, 1227, 1208
2292, 1227, 1194, 1223
2293, 1228, 1103, 1093
2294, 1228, 1093, 1227
2295, 1229, 1193, 1211
2296, 1229, 1212, 1223
*Orientation, name=Ori-1
1., 0., 0., 0., 1., 0.
3, 0.
** Region: (CompositeLayup-1-1: Generated From Layup)
*Elset, elset=CompositeLayup-1-1, generate
    1,  2296,     1
** Section: CompositeLayup-1-1
*Shell Section, elset=CompositeLayup-1-1, composite, orientation=Ori-1, layup=CompositeLayup-1, symmetric
0.25, 3, CFRP, 0., Ply-1
0.25, 3, CFRP, 45., Ply-2
0.25, 3, CFRP, 90., Ply-3
0.25, 3, CFRP, -45., Ply-4
*End Part
**  
**
** ASSEMBLY
**
*Assembly, name=Assembly
**  
*Instance, name=Plate-1, part=PLATE
*End Instance
**  
*Nset, nset=Set-1, instance=Plate-1
   6,   7,  12,  98,  99, 100, 101, 102, 103, 104, 105, 106, 107, 108, 109, 110
 111, 112, 113, 114, 115, 116, 117, 118, 119, 120, 183, 184, 185, 186, 187, 188
 189, 190, 191, 192, 193, 194, 195, 196
*Elset, elset=Set-1, instance=Plate-1
  929,  930,  939,  954,  955,  963,  982,  985,  987,  989,  991,  993,  999, 1001, 1003, 1005
 1007, 1009, 1011, 1013, 1015, 1017, 1019, 1021, 1994, 1999, 2051, 2054, 2056, 2058, 2060, 2062
 2064, 2066, 2068, 2070, 2072, 2073, 2114
*Nset, nset=Set-2, instance=Plate-1
   4,   5,  11,  49,  50,  51,  52,  53,  54,  55,  56,  57,  58,  59,  60,  61
  62,  63,  64,  65,  66,  67,  68,  69,  70,  71, 157, 158, 159, 160, 161, 162
 163, 164, 165, 166, 167, 168, 169, 170
*Elset, elset=Set-2, instance=Plate-1
   28,   29,   40,  128,  129,  130,  132,  134,  136,  138,  140,  142,  144,  146,  148,  150
  152,  154,  156,  158,  160,  162,  164,  166, 1453, 1454, 1469, 1473, 1476, 1498, 1500, 1503
 1507, 1509, 1511, 1513, 1515, 1517, 1574
*End Assembly
** 
** MATERIALS
** 
*Material, name=CFRP
*Elastic, type=ENGINEERING CONSTANTS
150000.,9000.,9000., 0.34, 0.34,  0.4,5000.,5000.
5000.,
** ----------------------------------------------------------------
** 
** STEP: Step-1
** 
*Step, name=Step-1, nlgeom=NO
*Static
1., 1., 1e-05, 1.
** 
** BOUNDARY CONDITIONS
** 
** Name: BC-1 Type: Symmetry/Antisymmetry/Encastre
*Boundary
Set-1, ENCASTRE
** Name: DISPLACEMENT Type: Displacement/Rotation
*Boundary
Set-2, 1, 1, 1.21053
** 
** OUTPUT REQUESTS
** 
*Restart, write, frequency=0
** 
** FIELD OUTPUT: F-Output-1
** 
*Output, field
*Element Output, position=NODES, directions=YES
E, 
** 
** HISTORY OUTPUT: H-Output-1
** 
*Output, history, variable=PRESELECT
*End Step
