*Heading
** Job name: Plate_18 Model name: Model-1
** Generated by: Abaqus/CAE 2024.HF3
*Preprint, echo=NO, model=NO, history=NO, contact=NO
**
** PARTS
**
*Part, name=PLATE
*Node
      1,   51.3556519,   191.684296,           0.
      2,   51.3556519,   75.8469009,           0.
      3,   69.6972656,   57.5052872,           0.
      4,   171.185501,   57.5052872,           0.
      5,   171.185501,   191.684296,           0.
      6,           0.,   191.684296,           0.
      7,           0.,   57.5052872,           0.
      8,   33.0140381,   57.5052872,           0.
      9,   51.3556519,   39.1636734,           0.
     10,   51.3556519,           0.,           0.
     11,   171.185501,           0.,           0.
     12,           0.,           0.,           0.
     13,   51.3556519,   186.168228,           0.
     14,   51.3556519,   180.652161,           0.
     15,   51.3556519,   175.136093,           0.
     16,   51.3556519,   169.620026,           0.
     17,   51.3556519,   164.103958,           0.
     18,   51.3556519,   158.587891,           0.
     19,   51.3556519,   153.071823,           0.
     20,   51.3556519,   147.555756,           0.
     21,   51.3556519,   142.039688,           0.
     22,   51.3556519,   136.523636,           0.
     23,   51.3556519,   131.007568,           0.
     24,   51.3556519,   125.491493,           0.
     25,   51.3556519,   119.975433,           0.
     26,   51.3556519,   114.459366,           0.
     27,   51.3556519,   108.943298,           0.
     28,   51.3556519,   103.427231,           0.
     29,   51.3556519,   97.9111633,           0.
     30,   51.3556519,   92.3951035,           0.
     31,   51.3556519,   86.8790359,           0.
     32,   51.3556519,   81.3629684,           0.
     33,   57.0235214,   74.9491959,           0.
     34,   62.1365814,   72.3439636,           0.
     35,   66.1943283,   68.2862167,           0.
     36,   68.7995605,   63.1731567,           0.
     37,   75.3355026,   57.5052872,           0.
     38,    80.973732,   57.5052872,           0.
     39,    86.611969,   57.5052872,           0.
     40,    92.250206,   57.5052872,           0.
     41,    97.888443,   57.5052872,           0.
     42,    103.52668,   57.5052872,           0.
     43,   109.164909,   57.5052872,           0.
     44,   114.803146,   57.5052872,           0.
     45,   120.441383,   57.5052872,           0.
     46,    126.07962,   57.5052872,           0.
     47,    131.71785,   57.5052872,           0.
     48,   137.356094,   57.5052872,           0.
     49,   142.994324,   57.5052872,           0.
     50,   148.632553,   57.5052872,           0.
     51,   154.270798,   57.5052872,           0.
     52,   159.909027,   57.5052872,           0.
     53,   165.547272,   57.5052872,           0.
     54,   171.185501,   63.0960808,           0.
     55,   171.185501,   68.6868744,           0.
     56,   171.185501,   74.2776642,           0.
     57,   171.185501,    79.868454,           0.
     58,   171.185501,   85.4592438,           0.
     59,   171.185501,   91.0500412,           0.
     60,   171.185501,    96.640831,           0.
     61,   171.185501,   102.231621,           0.
     62,   171.185501,   107.822411,           0.
     63,   171.185501,   113.413208,           0.
     64,   171.185501,   119.003998,           0.
     65,   171.185501,   124.594788,           0.
     66,   171.185501,   130.185577,           0.
     67,   171.185501,   135.776367,           0.
     68,   171.185501,   141.367172,           0.
     69,   171.185501,   146.957962,           0.
     70,   171.185501,   152.548752,           0.
     71,   171.185501,   158.139542,           0.
     72,   171.185501,   163.730331,           0.
     73,   171.185501,   169.321121,           0.
     74,   171.185501,   174.911911,           0.
     75,   171.185501,   180.502701,           0.
     76,   171.185501,   186.093506,           0.
     77,   165.479324,   191.684296,           0.
     78,   159.773132,   191.684296,           0.
     79,   154.066956,   191.684296,           0.
     80,   148.360764,   191.684296,           0.
     81,   142.654587,   191.684296,           0.
     82,   136.948395,   191.684296,           0.
     83,   131.242218,   191.684296,           0.
     84,   125.536034,   191.684296,           0.
     85,   119.829849,   191.684296,           0.
     86,   114.123665,   191.684296,           0.
     87,    108.41748,   191.684296,           0.
     88,   102.711304,   191.684296,           0.
     89,   97.0051193,   191.684296,           0.
     90,   91.2989349,   191.684296,           0.
     91,   85.5927505,   191.684296,           0.
     92,   79.8865662,   191.684296,           0.
     93,   74.1803818,   191.684296,           0.
     94,   68.4741974,   191.684296,           0.
     95,   62.7680168,   191.684296,           0.
     96,   57.0618324,   191.684296,           0.
     97,   45.6494675,   191.684296,           0.
     98,   39.9432831,   191.684296,           0.
     99,   34.2370987,   191.684296,           0.
    100,   28.5309162,   191.684296,           0.
    101,   22.8247337,   191.684296,           0.
    102,   17.1185493,   191.684296,           0.
    103,   11.4123669,   191.684296,           0.
    104,   5.70618343,   191.684296,           0.
    105,           0.,   186.093506,           0.
    106,           0.,   180.502701,           0.
    107,           0.,   174.911911,           0.
    108,           0.,   169.321121,           0.
    109,           0.,   163.730331,           0.
    110,           0.,   158.139542,           0.
    111,           0.,   152.548752,           0.
    112,           0.,   146.957962,           0.
    113,           0.,   141.367172,           0.
    114,           0.,   135.776367,           0.
    115,           0.,   130.185577,           0.
    116,           0.,   124.594788,           0.
    117,           0.,   119.003998,           0.
    118,           0.,   113.413208,           0.
    119,           0.,   107.822411,           0.
    120,           0.,   102.231621,           0.
    121,           0.,    96.640831,           0.
    122,           0.,   91.0500412,           0.
    123,           0.,   85.4592438,           0.
    124,           0.,    79.868454,           0.
    125,           0.,   74.2776642,           0.
    126,           0.,   68.6868744,           0.
    127,           0.,   63.0960808,           0.
    128,   5.50233936,   57.5052872,           0.
    129,   11.0046787,   57.5052872,           0.
    130,    16.507019,   57.5052872,           0.
    131,   22.0093575,   57.5052872,           0.
    132,   27.5116978,   57.5052872,           0.
    133,   33.9117393,   63.1731567,           0.
    134,   36.5169716,   68.2862167,           0.
    135,   40.5747185,   72.3439636,           0.
    136,   45.6877785,   74.9491959,           0.
    137,   51.3556519,   33.5688629,           0.
    138,   51.3556519,   27.9740524,           0.
    139,   51.3556519,   22.3792419,           0.
    140,   51.3556519,   16.7844315,           0.
    141,   51.3556519,    11.189621,           0.
    142,   51.3556519,   5.59481049,           0.
    143,   57.0618324,           0.,           0.
    144,   62.7680168,           0.,           0.
    145,   68.4741974,           0.,           0.
    146,   74.1803818,           0.,           0.
    147,   79.8865662,           0.,           0.
    148,   85.5927505,           0.,           0.
    149,   91.2989349,           0.,           0.
    150,   97.0051193,           0.,           0.
    151,   102.711304,           0.,           0.
    152,    108.41748,           0.,           0.
    153,   114.123665,           0.,           0.
    154,   119.829849,           0.,           0.
    155,   125.536034,           0.,           0.
    156,   131.242218,           0.,           0.
    157,   136.948395,           0.,           0.
    158,   142.654587,           0.,           0.
    159,   148.360764,           0.,           0.
    160,   154.066956,           0.,           0.
    161,   159.773132,           0.,           0.
    162,   165.479324,           0.,           0.
    163,   171.185501,   5.75052881,           0.
    164,   171.185501,   11.5010576,           0.
    165,   171.185501,   17.2515869,           0.
    166,   171.185501,   23.0021152,           0.
    167,   171.185501,   28.7526436,           0.
    168,   171.185501,   34.5031738,           0.
    169,   171.185501,   40.2537003,           0.
    170,   171.185501,   46.0042305,           0.
    171,   171.185501,   51.7547569,           0.
    172,   68.7995605,   51.8374176,           0.
    173,   66.1943283,   46.7243576,           0.
    174,   62.1365814,   42.6666107,           0.
    175,   57.0235214,   40.0613747,           0.
    176,   45.6877785,   40.0613747,           0.
    177,   40.5747185,   42.6666107,           0.
    178,   36.5169716,   46.7243576,           0.
    179,   33.9117393,   51.8374176,           0.
    180,           0.,   51.7547569,           0.
    181,           0.,   46.0042305,           0.
    182,           0.,   40.2537003,           0.
    183,           0.,   34.5031738,           0.
    184,           0.,   28.7526436,           0.
    185,           0.,   23.0021152,           0.
    186,           0.,   17.2515869,           0.
    187,           0.,   11.5010576,           0.
    188,           0.,   5.75052881,           0.
    189,   5.70618343,           0.,           0.
    190,   11.4123669,           0.,           0.
    191,   17.1185493,           0.,           0.
    192,   22.8247337,           0.,           0.
    193,   28.5309162,           0.,           0.
    194,   34.2370987,           0.,           0.
    195,   39.9432831,           0.,           0.
    196,   45.6494675,           0.,           0.
    197,   56.4774704,   184.196594,           0.
    198,   72.5378342,   67.2879257,           0.
    199,   72.7725906,   61.5788574,           0.
    200,   56.1390381,   150.315018,           0.
    201,   56.1367874,   144.798157,           0.
    202,   56.1354256,   139.281601,           0.
    203,   56.1348228,   133.765533,           0.
    204,   56.1347122,   128.249527,           0.
    205,    56.135128,   122.733597,           0.
    206,   56.1369553,   117.217896,           0.
    207,   56.1407394,   111.702316,           0.
    208,   56.1455498,   106.186485,           0.
    209,    56.151825,   100.670662,           0.
    210,   56.1583443,   95.1512222,           0.
    211,   62.0043678,   77.0691986,           0.
    212,   56.1901093,   89.7439499,           0.
    213,   56.3389473,   84.4363632,           0.
    214,   56.5827827,   79.2810822,           0.
    215,   68.0321503,   73.6683731,           0.
    216,   106.347366,   62.3913307,           0.
    217,   100.708923,   62.3943825,           0.
    218,    95.063179,   62.4025764,           0.
    219,   89.3439789,   62.4539871,           0.
    220,   83.3984909,   62.6411209,           0.
    221,   77.4385452,     62.50354,           0.
    222,   166.059662,    184.01384,           0.
    223,   166.108643,   177.904556,           0.
    224,   166.289978,   172.130402,           0.
    225,   166.335312,   166.528687,           0.
    226,   166.343613,   160.935593,           0.
    227,     166.3452,   155.344269,           0.
    228,    166.34549,   149.753372,           0.
    229,   166.345535,   144.162567,           0.
    230,    166.34549,   138.571762,           0.
    231,   166.345108,   132.981018,           0.
    232,   166.344406,   127.390312,           0.
    233,   166.343567,   121.799583,           0.
    234,   166.342743,   116.208801,           0.
    235,   166.342087,   110.617981,           0.
    236,   166.341507,   105.027168,           0.
    237,   166.340897,   99.4363785,           0.
    238,   166.340225,   93.8456039,           0.
    239,   166.339523,   88.2548294,           0.
    240,   166.332169,   82.6560898,           0.
    241,   166.263168,   76.9856033,           0.
    242,   166.230881,    71.139946,           0.
    243,   166.230881,   65.1016769,           0.
    244,   122.686691,     186.7556,           0.
    245,   128.391556,   186.757721,           0.
    246,   134.096237,   186.759476,           0.
    247,   139.801941,   186.761246,           0.
    248,   145.508072,   186.763092,           0.
    249,   151.256607,   186.666336,           0.
    250,   156.933746,   186.602554,           0.
    251,   60.9517899,   103.434349,           0.
    252,   60.9188499,   142.039688,           0.
    253,   60.9166527,   136.523178,           0.
    254,   60.9194031,    119.97747,           0.
    255,   60.9274063,   114.463654,           0.
    256,   60.9392586,   108.949821,           0.
    257,    56.154583,   161.345932,           0.
    258,   56.1444778,   155.831818,           0.
    259,   60.9680672,   97.9133377,           0.
    260,   60.9929161,   92.4820709,           0.
    261,   60.9157143,   131.007492,           0.
    262,   60.9167862,   125.492279,           0.
    263,   60.9249229,   147.556473,           0.
    264,   161.423279,   169.382294,           0.
    265,   161.504944,   158.139847,           0.
    266,   161.506653,   146.957977,           0.
    267,   161.505981,   135.776718,           0.
    268,   161.361786,   73.7108688,           0.
    269,   161.481049,   85.4496307,           0.
    270,   161.490036,   91.0492096,           0.
    271,   161.493042,   96.6413574,           0.
    272,   161.494827,   102.232323,           0.
    273,   161.496338,   107.823135,           0.
    274,   161.502304,   124.595718,           0.
    275,   161.500107,   119.004951,           0.
    276,   161.497986,   113.414055,           0.
    277,   161.395355,   79.6591263,           0.
    278,   161.504486,   130.186401,           0.
    279,   161.251617,   175.020828,           0.
    280,   161.473099,   163.763046,           0.
    281,   161.505966,   152.548828,           0.
    282,   161.506882,   141.367325,           0.
    283,   111.985329,   62.3894463,           0.
    284,    123.26046,   62.3866844,           0.
    285,   97.8823318,   67.2974701,           0.
    286,   86.3173523,   67.6997757,           0.
    287,   117.622917,   62.3877983,           0.
    288,    103.53022,   67.2843323,           0.
    289,   92.1761856,   67.3820877,           0.
    290,   79.7043457,   68.6448746,           0.
    291,   156.857086,   63.5527687,           0.
    292,    161.97522,   62.2775955,           0.
    293,   128.898346,   62.3860359,           0.
    294,   116.980087,     186.7565,           0.
    295,   148.396637,   181.635635,           0.
    296,   136.950546,   181.846451,           0.
    297,   125.544479,   181.838577,           0.
    298,   65.6065674,   186.742447,           0.
    299,   82.7418289,   186.753922,           0.
    300,   88.4475098,   186.753845,           0.
    301,   94.1525879,   186.754333,           0.
    302,   99.8584366,   186.754791,           0.
    303,   105.565079,    186.75563,           0.
    304,    111.27243,   186.757141,           0.
    305,   131.247803,   181.843979,           0.
    306,   142.633575,   181.819412,           0.
    307,   154.202499,   181.526794,           0.
    308,   56.4763908,   178.199753,           0.
    309,   160.445679,   181.312027,           0.
    310,      161.541,   67.6473618,           0.
    311,   74.7180405,   73.2501907,           0.
    312,   66.9671555,   79.6257019,           0.
    313,   60.9500885,   158.581528,           0.
    314,   56.1941986,   166.865646,           0.
    315,   65.7035294,   122.737907,           0.
    316,   65.7003174,   128.250885,           0.
    317,   65.7002487,   133.764679,           0.
    318,   65.7032547,   139.280411,           0.
    319,   65.7116089,   144.795822,           0.
    320,   65.7138214,   117.226944,           0.
    321,   65.7518158,   106.204742,           0.
    322,   65.7314148,   111.717102,           0.
    323,   65.7774429,   100.685028,           0.
    324,   65.7696381,   95.1601715,           0.
    325,   60.9351807,   153.072372,           0.
    326,   61.1551247,   87.2132492,           0.
    327,   156.666779,   132.982895,           0.
    328,   156.668793,   138.572678,           0.
    329,   156.668671,   144.162598,           0.
    330,   156.666565,    149.75325,           0.
    331,   156.662918,   155.345993,           0.
    332,   156.634827,   160.975891,           0.
    333,   156.581451,   166.661484,           0.
    334,   156.525726,    172.30658,           0.
    335,   156.651428,   110.619888,           0.
    336,   156.645218,    99.438324,           0.
    337,   156.647995,   105.029182,           0.
    338,    156.65509,   116.211197,           0.
    339,   156.641693,   93.8475571,           0.
    340,   156.663406,   127.392921,           0.
    341,   156.630005,   88.2435684,           0.
    342,   156.524124,    82.458374,           0.
    343,   156.659378,   121.802422,           0.
    344,   156.433121,   76.3501663,           0.
    345,   156.692429,   70.1841278,           0.
    346,   114.806236,   67.2721634,           0.
    347,   134.536407,   62.3853989,           0.
    348,   151.100021,   62.5771294,           0.
    349,   140.165909,   62.3853951,           0.
    350,   145.688751,    62.429039,           0.
    351,   120.442833,    67.268959,           0.
    352,   126.079857,   67.2665024,           0.
    353,   89.4611511,   72.5178146,           0.
    354,   95.0676727,   72.2588348,           0.
    355,   100.715454,   72.1905746,           0.
    356,   109.169464,   67.2772217,           0.
    357,   119.837776,   181.838516,           0.
    358,   77.0165939,   186.736832,           0.
    359,   60.7974396,   187.162048,           0.
    360,   71.3156586,   186.752136,           0.
    361,   85.5978241,   181.833298,           0.
    362,   91.3026047,   181.833633,           0.
    363,   97.0066223,   181.834885,           0.
    364,   102.712708,   181.836136,           0.
    365,   108.420273,   181.837662,           0.
    366,   139.780502,    176.93158,           0.
    367,   134.101395,   176.938126,           0.
    368,   128.403763,   176.934387,           0.
    369,   145.387756,   176.780945,           0.
    370,   151.498901,   175.906509,           0.
    371,   114.128853,   181.839661,           0.
    372,   161.738312,   187.059402,           0.
    373,   56.2997551,    172.45108,           0.
    374,   71.7742615,   77.4425583,           0.
    375,   62.1347122,   181.557068,           0.
    376,   156.784882,   177.214554,           0.
    377,   72.3135986,   82.7026138,           0.
    378,   76.4785461,   78.1458511,           0.
    379,   70.5800095,   103.463913,           0.
    380,   70.4999466,   119.990387,           0.
    381,   65.7471771,   155.816483,           0.
    382,   70.5201874,   114.485641,           0.
    383,   70.4983444,    142.03389,           0.
    384,   70.5864792,   97.8125916,           0.
    385,    70.489769,   136.520676,           0.
    386,   70.4878845,   131.007843,           0.
    387,   70.4917526,   125.498344,           0.
    388,   70.5483856,   108.979134,           0.
    389,   61.0001602,   164.080078,           0.
    390,   65.7267532,   150.309723,           0.
    391,   61.5509796,   82.0741196,           0.
    392,   65.7969284,   89.8613205,           0.
    393,    151.82756,   130.190826,           0.
    394,   151.821838,   124.601196,           0.
    395,    151.52533,   79.3398132,           0.
    396,   151.777115,   91.0382462,           0.
    397,    151.78952,   96.6422577,           0.
    398,   151.802567,   107.827194,           0.
    399,   151.654434,   169.678696,           0.
    400,   151.621429,   163.915024,           0.
    401,   151.778564,   158.179688,           0.
    402,   151.815247,   152.554443,           0.
    403,   151.826538,   146.957504,           0.
    404,   151.709534,   85.3194427,           0.
    405,   151.830978,   141.367599,           0.
    406,   151.831131,   135.779465,           0.
    407,   151.796432,   102.235901,           0.
    408,    151.80864,   113.418777,           0.
    409,   151.815399,   119.010521,           0.
    410,    61.133934,    169.67128,           0.
    411,   111.992508,   72.1587296,           0.
    412,   131.740494,    67.295311,           0.
    413,   152.808868,   67.2640991,           0.
    414,   117.627724,   72.1521759,           0.
    415,   143.081589,    67.363266,           0.
    416,   123.263458,   72.1471252,           0.
    417,   97.9063416,   77.0864029,           0.
    418,   137.533981,   67.5008698,           0.
    419,   92.3495636,   77.3870239,           0.
    420,   148.307449,   67.3028336,           0.
    421,   106.356026,   72.1693115,           0.
    422,   122.696953,   176.932358,           0.
    423,   79.8926239,   181.820526,           0.
    424,   68.3433304,   181.722275,           0.
    425,   136.992752,   172.053223,           0.
    426,   131.270126,   172.041748,           0.
    427,   88.4545212,   176.925354,           0.
    428,   94.1578903,    176.92662,           0.
    429,   99.8610077,   176.928238,           0.
    430,   105.567802,   176.929688,           0.
    431,   142.611237,   172.075424,           0.
    432,    111.27652,   176.931366,           0.
    433,   74.1127701,   181.657089,           0.
    434,   116.986542,   176.933334,           0.
    435,    61.327095,   175.319931,           0.
    436,   79.3402252,   74.2633438,           0.
    437,   65.8725662,   166.882095,           0.
    438,   75.3077011,   117.253922,           0.
    439,   75.4091568,   100.586578,           0.
    440,   70.5460663,   153.052719,           0.
    441,   75.3749542,   106.223938,           0.
    442,   75.2898254,   122.753464,           0.
    443,   75.2868347,   139.272629,           0.
    444,    75.339653,   111.751282,           0.
    445,   75.2800064,   133.763855,           0.
    446,    75.282341,   128.256866,           0.
    447,   70.5180435,   147.545105,           0.
    448,     65.79599,   161.314636,           0.
    449,    70.549263,   92.2117767,           0.
    450,   66.3099213,   84.8005676,           0.
    451,   146.994217,   132.988342,           0.
    452,   146.995331,   138.573624,           0.
    453,   146.565796,   82.3667145,           0.
    454,   146.765869,    88.155426,           0.
    455,   146.890213,   93.8276215,           0.
    456,   146.987915,   127.400978,           0.
    457,   146.932007,   99.4394226,           0.
    458,   146.948914,   105.035423,           0.
    459,   146.824951,   160.992599,           0.
    460,   146.932053,   155.401062,           0.
    461,   146.972488,   149.764893,           0.
    462,   146.988556,   144.161957,           0.
    463,   146.959915,    110.62809,           0.
    464,    146.96991,   116.220314,           0.
    465,   146.979568,   121.811653,           0.
    466,   109.181808,   77.0453033,           0.
    467,   114.815605,   77.0353775,           0.
    468,   128.915512,   72.1800995,           0.
    469,   120.449631,   77.0276642,           0.
    470,   95.1248245,   82.2368774,           0.
    471,   140.820663,   73.0786972,           0.
    472,   134.577011,    72.324585,           0.
    473,   145.954132,   71.3955536,           0.
    474,   103.546082,   77.0611801,           0.
    475,   86.8735428,   77.8423004,           0.
    476,   125.558929,   172.037781,           0.
    477,   82.7285843,   176.909592,           0.
    478,   102.715042,   172.033066,           0.
    479,   97.0145721,   172.031784,           0.
    480,   91.3125992,   172.031662,           0.
    481,   134.117935,   167.094818,           0.
    482,   139.878616,   167.187485,           0.
    483,   108.423309,   172.035431,           0.
    484,   114.133629,   172.036575,           0.
    485,   77.0520477,   176.772507,           0.
    486,    119.84584,   172.038208,           0.
    487,   65.9570694,   172.502472,           0.
    488,   70.9502029,   176.001312,           0.
    489,   81.5699921,   78.2469559,           0.
    490,   70.7800598,   164.156433,           0.
    491,   70.7789917,   169.829147,           0.
    492,   80.2104416,   103.451706,           0.
    493,   80.0973053,   120.019951,           0.
    494,   75.3434143,   150.291718,           0.
    495,   80.1287231,   114.529976,           0.
    496,   80.1683578,    109.01564,           0.
    497,   80.0785141,   136.515182,           0.
    498,   80.0820847,   125.513412,           0.
    499,   80.0763168,    131.01358,           0.
    500,   75.3087463,   144.780884,           0.
    501,   70.6359482,   158.581268,           0.
    502,   75.5089111,   94.8270111,           0.
    503,   142.160583,   135.782166,           0.
    504,   142.155746,   141.362747,           0.
    505,   142.156448,   130.199677,           0.
    506,   141.425644,     85.26017,           0.
    507,   142.140808,   146.955811,           0.
    508,   141.799179,   91.0186081,           0.
    509,   142.004303,   96.6447678,           0.
    510,   142.076614,    102.24543,           0.
    511,   142.094788,   158.215225,           0.
    512,   142.109528,   152.594345,           0.
    513,   142.105103,   107.839661,           0.
    514,   142.147415,   124.613472,           0.
    515,   142.121964,   113.432442,           0.
    516,   142.135712,   119.024178,           0.
    517,   146.066177,   167.036484,           0.
    518,    146.20314,   76.3774338,           0.
    519,   106.374878,   81.9285736,           0.
    520,   74.9658508,   172.352905,           0.
    521,   151.132065,    72.602005,           0.
    522,    65.742485,   177.420609,           0.
    523,   117.638275,   81.9066315,           0.
    524,     112.0065,   81.9157715,           0.
    525,   126.095032,   77.0412903,           0.
    526,   100.744415,   81.9908829,           0.
    527,   136.745682,   76.8174515,           0.
    528,   131.803772,   77.0964661,           0.
    529,   83.8777695,    73.202507,           0.
    530,   89.4561081,   82.7402115,           0.
    531,   128.363953,   167.148422,           0.
    532,   85.5604858,   172.071014,           0.
    533,   99.8712997,   167.148041,           0.
    534,   94.1750336,   167.147141,           0.
    535,   105.572105,   167.151276,           0.
    536,   111.279732,    167.15213,           0.
    537,   137.130737,   161.596878,           0.
    538,   116.991951,   167.152145,           0.
    539,   79.8788528,   172.123123,           0.
    540,   122.689194,    167.15332,           0.
    541,   70.1188354,   87.6034164,           0.
    542,   76.3762283,   167.222076,           0.
    543,   75.5520935,   88.5382919,           0.
    544,   75.5878906,   161.293839,           0.
    545,   85.0019379,   106.284317,           0.
    546,   80.1280975,   147.522018,           0.
    547,    84.917305,   117.301262,           0.
    548,   84.8908844,   122.781998,           0.
    549,   84.9582596,   111.806236,           0.
    550,    84.874794,   133.764786,           0.
    551,   84.8781052,   128.271866,           0.
    552,   80.0981674,   142.017868,           0.
    553,   78.5051575,   82.9807816,           0.
    554,   75.4376831,   155.828827,           0.
    555,   80.3439941,   97.7761688,           0.
    556,   147.443695,   172.295609,           0.
    557,   137.310745,   144.146576,           0.
    558,   137.323425,   138.569382,           0.
    559,   137.325226,   132.994034,           0.
    560,   136.595367,   88.2904129,           0.
    561,   137.318161,   127.414185,           0.
    562,   137.303452,   149.832504,           0.
    563,   136.956985,   93.8609314,           0.
    564,   137.158249,   99.4594345,           0.
    565,   137.237381,   105.054466,           0.
    566,   137.269196,   110.647545,           0.
    567,   137.305649,   121.828743,           0.
    568,   137.289474,   116.239479,           0.
    569,     137.3965,   155.487259,           0.
    570,   142.399048,   163.005737,           0.
    571,   141.205002,   79.3577499,           0.
    572,   109.199844,   86.7918167,           0.
    573,   103.571785,   86.8127518,           0.
    574,   123.395119,   82.0749283,           0.
    575,    114.82888,    86.780838,           0.
    576,   97.8651886,   87.0193176,           0.
    577,   135.530991,   82.1519012,           0.
    578,   129.242325,   82.0610504,           0.
    579,   92.1511841,   87.4788437,           0.
    580,   131.050919,    162.08226,           0.
    581,   88.3829803,   167.128036,           0.
    582,    96.971489,   162.108688,           0.
    583,   102.718391,   162.249237,           0.
    584,    108.42627,   162.274033,           0.
    585,   114.136055,   162.277115,           0.
    586,   119.806396,   162.298828,           0.
    587,   125.402946,   162.132019,           0.
    588,   82.5756378,   167.276016,           0.
    589,   80.2201996,   158.494446,           0.
    590,   84.8487015,   144.748734,           0.
    591,   89.7092361,    120.06633,           0.
    592,   89.7472153,   114.588959,           0.
    593,   89.8281403,   109.019928,           0.
    594,   89.6856079,   125.543556,           0.
    595,   89.6772537,   131.026382,           0.
    596,   84.8794327,   139.257996,           0.
    597,    85.266571,   100.552963,           0.
    598,   80.1527634,   153.009537,           0.
    599,   80.6297607,    91.966774,           0.
    600,   132.481842,   141.346085,           0.
    601,   132.492035,   135.779892,           0.
    602,   132.546341,   147.070633,           0.
    603,    132.48999,   130.210007,           0.
    604,   131.880875,   91.1040955,           0.
    605,   132.478882,   124.632179,           0.
    606,     132.7314,   152.812714,           0.
    607,   132.299377,    102.26767,           0.
    608,    132.04715,   96.6573639,           0.
    609,   132.400421,   107.865517,           0.
    610,   132.438263,   113.458076,           0.
    611,   132.461426,   119.047424,           0.
    612,   100.594749,   91.7980347,           0.
    613,    83.919693,   82.9227066,           0.
    614,   106.366196,   91.6820221,           0.
    615,   120.463074,    86.907692,           0.
    616,   112.007851,    91.649826,           0.
    617,   126.613998,   87.6459427,           0.
    618,   131.972702,    86.250679,           0.
    619,   94.7717667,   92.1086655,           0.
    620,   91.2438507,   162.071625,           0.
    621,   99.9483948,   157.265442,           0.
    622,   111.280289,   157.412827,           0.
    623,    105.59111,    157.38475,           0.
    624,   116.915123,   157.438004,           0.
    625,   122.315674,   157.308411,           0.
    626,    128.11171,   156.441223,           0.
    627,   85.1674652,   161.681244,           0.
    628,   84.7488937,   155.689133,           0.
    629,   89.5869293,   142.000031,           0.
    630,   94.5388794,   117.348076,           0.
    631,   94.5030289,   122.828331,           0.
    632,   94.6319809,   111.723267,           0.
    633,   94.4845047,   128.301529,           0.
    634,   89.6639633,   136.511536,           0.
    635,   90.0826569,   103.391846,           0.
    636,   84.7281647,   150.221909,           0.
    637,   79.9854813,   163.193527,           0.
    638,   85.4864655,   94.7417297,           0.
    639,   127.671486,   138.531311,           0.
    640,   127.695824,   144.282196,           0.
    641,   127.663597,   132.992599,           0.
    642,   127.654388,   127.429886,           0.
    643,   127.968391,   150.151978,           0.
    644,    127.39566,   105.122887,           0.
    645,   127.637962,   121.853806,           0.
    646,   126.998886,   99.5068665,           0.
    647,   127.559586,   110.686462,           0.
    648,   127.610428,   116.270622,           0.
    649,   133.284256,   157.684067,           0.
    650,    89.884552,   92.0351181,           0.
    651,   117.644707,   91.6298676,           0.
    652,   103.308952,   96.7789459,           0.
    653,   97.3703537,   96.9324493,           0.
    654,   109.207344,   96.7191162,           0.
    655,   122.555695,   91.3237305,           0.
    656,   94.0040283,   156.480301,           0.
    657,   108.459404,   152.572815,           0.
    658,   102.844963,   152.598984,           0.
    659,   114.046165,   152.570175,           0.
    660,   119.453606,   152.559204,           0.
    661,   80.9349213,   86.9897537,           0.
    662,   86.0660934,   88.4107361,           0.
    663,   94.4128723,   139.238953,           0.
    664,   99.3350601,   120.100105,           0.
    665,   89.2831802,    153.00322,           0.
    666,   99.3736801,    114.56073,           0.
    667,   99.3023148,    125.58268,           0.
    668,   94.4658203,   133.775742,           0.
    669,   89.4516296,   147.515778,           0.
    670,   94.7657547,   106.087852,           0.
    671,   91.0670013,   97.2804871,           0.
    672,    122.90258,   135.764862,           0.
    673,   123.009155,   141.375443,           0.
    674,   122.850479,   130.221252,           0.
    675,   122.558525,   147.503326,           0.
    676,   122.821487,   124.656555,           0.
    677,   122.555229,    107.98555,           0.
    678,   122.228241,   102.531113,           0.
    679,   122.793701,   119.081139,           0.
    680,   126.886116,     93.81353,           0.
    681,   122.720749,   113.515999,           0.
    682,   115.037582,   96.5757751,           0.
    683,   100.045563,   102.587692,           0.
    684,   106.413124,   101.796532,           0.
    685,   98.0533142,   152.876434,           0.
    686,   121.285866,   96.5733795,           0.
    687,   88.8894806,    157.78511,           0.
    688,   111.084564,     147.5867,           0.
    689,   105.509476,   147.887848,           0.
    690,   116.611801,   147.606598,           0.
    691,   99.2114639,   136.488861,           0.
    692,   104.049812,   117.607117,           0.
    693,   104.050705,    123.08802,           0.
    694,   99.2734909,   131.047745,           0.
    695,   94.3529587,   144.774292,           0.
    696,   118.330185,   138.466537,           0.
    697,   99.5767975,    108.96743,           0.
    698,   94.6662674,   101.256065,           0.
    699,   118.166473,   132.774689,           0.
    700,   118.822754,   143.359467,           0.
    701,   118.101448,   127.187508,           0.
    702,   118.065712,   121.640373,           0.
    703,   117.632866,   105.324348,           0.
    704,   117.845604,   110.678329,           0.
    705,   118.001595,   116.085831,           0.
    706,   112.546616,   102.090866,           0.
    707,   99.5975494,   147.750107,           0.
    708,   104.624191,   106.878174,           0.
    709,   107.649452,   142.978348,           0.
    710,   113.516304,   141.806381,           0.
    711,   117.746231,   100.619095,           0.
    712,   104.159851,   112.243835,           0.
    713,   103.975929,   134.003784,           0.
    714,   108.701233,   120.796974,           0.
    715,   113.479462,   135.250168,           0.
    716,   104.030136,   128.567703,           0.
    717,   99.1075363,   141.895905,           0.
    718,   113.449112,   129.493484,           0.
    719,   113.407791,   123.971008,           0.
    720,   113.333748,   118.478813,           0.
    721,   113.253426,   113.092453,           0.
    722,   109.062965,   105.752586,           0.
    723,   108.720955,   131.819153,           0.
    724,   108.726654,   126.289391,           0.
    725,   103.635094,   139.450729,           0.
    726,   113.177902,   107.845634,           0.
    727,   103.099823,   143.992584,           0.
    728,   108.704002,   115.392403,           0.
    729,   108.830391,   110.200844,           0.
    730,   108.496201,   137.551422,           0.
    731,   124.081581,   152.792816,           0.
    732,   94.1237717,   150.400024,           0.
    733,   13.5025749,   62.6869316,           0.
    734,   19.5554657,   62.7248306,           0.
    735,   25.4974155,   62.5418625,           0.
    736,   30.0753994,   61.6100426,           0.
    737,   46.2498741,   184.107758,           0.
    738,   46.5742989,   144.797653,           0.
    739,   46.5745888,   133.765594,           0.
    740,   46.5746155,   111.701355,           0.
    741,   46.5745087,   122.733467,           0.
    742,   46.5738525,   106.185432,           0.
    743,   46.5714874,   100.669739,           0.
    744,   46.4159584,   89.6211777,           0.
    745,   45.6361771,   83.7052689,           0.
    746,   46.2936554,   178.090866,           0.
    747,   46.5567818,   166.859619,           0.
    748,   46.5686417,   161.345932,           0.
    749,   46.5718155,    155.82962,           0.
    750,   46.5728531,   150.313583,           0.
    751,   46.5741425,   139.281631,           0.
    752,   46.5740395,   128.249527,           0.
    753,   46.5742378,     117.2174,           0.
    754,   46.5342827,   95.1086884,           0.
    755,    47.043541,   78.8078461,           0.
    756,   4.46029234,   66.8753967,           0.
    757,   4.85898495,   71.5874786,           0.
    758,   4.85375166,   77.1016769,           0.
    759,   4.84596443,   82.6704712,           0.
    760,   4.84264135,   88.2565842,           0.
    761,   4.84015322,   93.8460083,           0.
    762,    4.8386817,   99.4364243,           0.
    763,   4.83786011,   105.027107,           0.
    764,   4.83755541,   110.617844,           0.
    765,    4.8376193,   116.208611,           0.
    766,   4.83753443,   121.799393,           0.
    767,   4.83751583,   127.390182,           0.
    768,   4.83751202,   132.980972,           0.
    769,   4.83751822,   138.571762,           0.
    770,   4.83756399,   144.162552,           0.
    771,   4.83770227,   149.753326,           0.
    772,   4.83860874,   155.343887,           0.
    773,   4.84092045,   160.934235,           0.
    774,   4.84832716,   166.523956,           0.
    775,   4.90276575,   172.140121,           0.
    776,   5.09077501,   177.966949,           0.
    777,    5.1411047,   184.084503,           0.
    778,   19.9614506,   186.748779,           0.
    779,   25.6822529,   186.765167,           0.
    780,   31.4365559,   186.680298,           0.
    781,   37.1248093,   186.640503,           0.
    782,   30.3252525,   67.3043289,           0.
    783,   41.3747787,   78.3207245,           0.
    784,   34.7951698,   74.0052109,           0.
    785,   7.43295193,    62.653511,           0.
    786,   16.5187588,   67.8299408,           0.
    787,   23.1080532,   68.6900864,           0.
    788,   46.4734497,   172.397644,           0.
    789,   41.7893639,   142.039398,           0.
    790,   41.7854233,   103.429504,           0.
    791,   41.7892609,   136.523514,           0.
    792,   41.7896347,   114.459465,           0.
    793,   41.7892647,   119.975449,           0.
    794,   41.7891579,   131.007538,           0.
    795,     41.78265,   158.587936,           0.
    796,   41.7868767,   97.8313828,           0.
    797,   41.6777496,   92.2124557,           0.
    798,   41.7877083,   108.944191,           0.
    799,   41.7887268,   125.491493,           0.
    800,    41.787487,   147.555084,           0.
    801,   41.7848206,   153.070786,           0.
    802,   41.7434959,    164.12059,           0.
    803,   9.95183372,   175.119568,           0.
    804,   9.69515896,   163.733444,           0.
    805,   9.67355156,   152.547806,           0.
    806,   9.67169285,   141.367126,           0.
    807,   9.67149162,   130.185577,           0.
    808,   9.69280148,   79.8450775,           0.
    809,   9.67162609,   119.004021,           0.
    810,   9.67696095,   96.6422272,           0.
    811,   9.67338562,    102.23233,           0.
    812,   10.0775852,   68.2666931,           0.
    813,   9.67078495,   124.594795,           0.
    814,   9.67129993,   113.413284,           0.
    815,   9.68300724,   91.0534134,           0.
    816,   9.67111683,   74.2610016,           0.
    817,   9.68900776,   85.4542389,           0.
    818,    9.6713562,   107.822693,           0.
    819,   9.67928219,   158.137817,           0.
    820,   9.67146206,   146.957672,           0.
    821,   9.67091656,   135.776367,           0.
    822,   9.78191185,   169.416595,           0.
    823,   14.2694283,   186.708099,           0.
    824,   28.6339645,   181.703995,           0.
    825,    9.4577961,   187.104202,           0.
    826,   22.7929497,    181.72319,           0.
    827,   34.4321404,   181.608444,           0.
    828,   40.6631508,   181.402023,           0.
    829,   10.7860241,   181.481918,           0.
    830,   35.5073853,   81.0010529,           0.
    831,   28.0620327,   73.4338913,           0.
    832,   41.4857483,   175.212814,           0.
    833,   36.9993706,   139.281067,           0.
    834,   36.9995842,   117.217506,           0.
    835,   42.0320091,   87.4981461,           0.
    836,    36.994854,   106.189804,           0.
    837,   36.9971504,   111.702942,           0.
    838,   36.9995003,   128.249496,           0.
    839,   36.9986305,   133.765366,           0.
    840,   36.9986382,   122.733482,           0.
    841,   36.9975014,   144.796387,           0.
    842,   37.0089531,   155.854492,           0.
    843,   36.9993477,   150.319794,           0.
    844,   36.8819923,    161.41861,           0.
    845,   37.0531769,   100.680656,           0.
    846,   36.9477043,   95.1668625,           0.
    847,   41.6378746,   169.676056,           0.
    848,   14.3364391,    138.56813,           0.
    849,   14.3559227,   132.847351,           0.
    850,   14.4287701,   127.170616,           0.
    851,   14.4689274,   121.562744,           0.
    852,   14.4738274,   115.977646,           0.
    853,   14.3068924,   144.217743,           0.
    854,   14.4225883,    110.46199,           0.
    855,    14.311698,   149.801407,           0.
    856,   14.3495188,   105.004204,           0.
    857,   14.3675985,    155.36972,           0.
    858,    14.373436,   99.4775162,           0.
    859,   14.4278412,   76.7445297,           0.
    860,   14.4671535,   93.8723221,           0.
    861,   14.5230722,   88.2594223,           0.
    862,   14.4653492,   160.947586,           0.
    863,   14.6345778,   82.4395599,           0.
    864,   14.6504374,    172.38649,           0.
    865,   13.8477278,   72.0128174,           0.
    866,   14.5514469,    166.63649,           0.
    867,   14.4341831,   177.388672,           0.
    868,   16.9920216,   181.689041,           0.
    869,   25.6133423,   176.758621,           0.
    870,    31.647316,   176.023972,           0.
    871,   41.9261169,   187.103775,           0.
    872,   40.1558189,   83.7642136,           0.
    873,   30.7489014,   78.1453018,           0.
    874,   18.5312023,   73.0827866,           0.
    875,   35.9199867,   88.4884262,           0.
    876,   29.3199215,   83.9475098,           0.
    877,   25.8715763,   78.6128235,           0.
    878,   19.5971165,   175.997528,           0.
    879,   36.6952553,   172.502869,           0.
    880,   32.3164635,   103.735001,           0.
    881,   32.4059105,   98.5565186,           0.
    882,   32.2898178,   158.803787,           0.
    883,   32.2373695,   142.347153,           0.
    884,   32.2556534,   147.941574,           0.
    885,   32.2561226,   136.856949,           0.
    886,   32.3116798,   131.227692,           0.
    887,   32.3822212,    125.60051,           0.
    888,    32.402935,   120.030518,           0.
    889,   32.4192543,   114.508911,           0.
    890,    32.402092,   109.116714,           0.
    891,   32.3284416,   153.526398,           0.
    892,    36.689476,    166.96492,           0.
    893,   36.9847221,   177.350021,           0.
    894,   18.9891682,   158.013885,           0.
    895,   19.4391994,   85.2653427,           0.
    896,   19.4149895,   163.764938,           0.
    897,   19.2615242,   91.0203476,           0.
    898,   19.0049572,   96.6944809,           0.
    899,   18.9036598,   102.126076,           0.
    900,   18.8291626,   152.436249,           0.
    901,    18.972147,   107.450935,           0.
    902,   18.7613602,   146.877243,           0.
    903,   19.0589619,   112.843781,           0.
    904,   18.7581902,   141.159256,           0.
    905,   19.1059475,   118.326797,           0.
    906,   19.0644226,   123.908287,           0.
    907,   18.9490108,   129.616364,           0.
    908,   18.8307762,   135.343399,           0.
    909,   19.5125732,   169.684525,           0.
    910,   19.9888153,   79.0619507,           0.
    911,   23.1123352,   74.5763092,           0.
    912,   31.6270676,   169.855026,           0.
    913,   27.8638744,   101.545845,           0.
    914,   27.9192734,   106.749695,           0.
    915,   27.8767242,   156.769012,           0.
    916,   27.6493053,   145.879196,           0.
    917,   27.6700039,   140.211334,           0.
    918,   27.7646637,   151.407715,           0.
    919,    28.026968,   117.473778,           0.
    920,   27.9953613,   112.103195,           0.
    921,   27.9862137,   123.073532,           0.
    922,   27.7763386,   134.452057,           0.
    923,    27.910141,   128.760361,           0.
    924,   31.8666134,   164.228348,           0.
    925,   23.5634174,   172.366257,           0.
    926,   23.8840313,   160.301453,           0.
    927,   25.6992626,   166.764389,           0.
    928,   23.8280735,   93.6948853,           0.
    929,   24.1266193,   87.9150238,           0.
    930,   23.7492256,   82.9605331,           0.
    931,   28.3232899,   161.373398,           0.
    932,   28.9612293,   90.6920853,           0.
    933,   27.6300812,   172.353653,           0.
    934,    23.418272,   154.720886,           0.
    935,   23.2581348,   149.195679,           0.
    936,   23.2124748,   143.533127,           0.
    937,   23.2758369,   137.782059,           0.
    938,   32.4615097,   93.8523178,           0.
    939,   23.3898754,   132.028229,           0.
    940,   28.1397343,   96.2955627,           0.
    941,   23.4954243,   126.326828,           0.
    942,   23.5247936,   99.1400681,           0.
    943,   23.5636292,   120.685883,           0.
    944,   23.4475899,   104.462769,           0.
    945,   23.5421085,    115.19957,           0.
    946,   23.4892406,   109.801659,           0.
    947,   56.4869423,   7.64164734,           0.
    948,   56.4460754,   13.7300539,           0.
    949,   56.2795639,   19.5310097,           0.
    950,   56.1863632,   25.0690784,           0.
    951,   56.1111984,   30.3309765,           0.
    952,   73.2927017,   52.1358261,           0.
    953,    151.50885,   52.5966644,           0.
    954,   134.536972,   52.6191711,           0.
    955,   123.260498,   52.6190948,           0.
    956,   100.707817,   52.6180878,           0.
    957,   83.9298172,   52.5064278,           0.
    958,   145.822754,   52.6145058,           0.
    959,   117.622269,   52.6189728,           0.
    960,   106.345924,   52.6183815,           0.
    961,   157.427017,   52.4155884,           0.
    962,   140.176727,   52.6178703,           0.
    963,   111.984055,   52.6185989,           0.
    964,   95.0698776,   52.6158829,           0.
    965,   89.4548187,   52.5950508,           0.
    966,    78.520752,    52.305851,           0.
    967,   128.898743,   52.6186829,           0.
    968,   139.801208,   4.93979645,           0.
    969,   151.212448,   5.14736843,           0.
    970,   145.508148,    5.0497551,           0.
    971,   134.095154,   4.93870449,           0.
    972,   116.976761,   4.93846464,           0.
    973,    88.445816,   4.94036722,           0.
    974,   82.7392731,    4.9397912,           0.
    975,   77.0326538,   4.93740749,           0.
    976,   71.2863541,   5.00531912,           0.
    977,   65.6120758,   5.02559519,           0.
    978,   128.389099,   4.93821573,           0.
    979,   122.682938,   4.93789959,           0.
    980,   111.270592,   4.93836164,           0.
    981,   105.564453,   4.93848801,           0.
    982,    99.858345,     4.938869,           0.
    983,   94.1521835,   4.93943548,           0.
    984,   67.9413986,   41.0424576,           0.
    985,   62.5446854,   36.8286285,           0.
    986,   71.0565033,   46.7122421,           0.
    987,   166.595062,   48.0458908,           0.
    988,   166.215942,    31.626112,           0.
    989,   166.214722,   25.8762054,           0.
    990,   166.167801,   20.0929356,           0.
    991,   166.009293,    14.084094,           0.
    992,   166.001633,   7.79313231,           0.
    993,   56.4570961,   35.3667641,           0.
    994,   61.2900848,   16.6183109,           0.
    995,   61.1245155,    22.185564,           0.
    996,   60.9356537,   27.6109657,           0.
    997,   163.591934,    52.328476,           0.
    998,   148.735611,   47.6938133,           0.
    999,   137.356186,   47.7293053,           0.
   1000,   86.7831802,   47.5481987,           0.
   1001,   97.8905182,    47.724369,           0.
   1002,   143.012634,   47.7213058,           0.
   1003,   154.556656,   47.5246811,           0.
   1004,   114.803192,   47.7296982,           0.
   1005,   120.441406,   47.7292862,           0.
   1006,   92.2858429,   47.6876183,           0.
   1007,   81.4677658,   47.2827034,           0.
   1008,    131.71785,   47.7292519,           0.
   1009,    126.07962,   47.7287979,           0.
   1010,    109.16523,   47.7286873,           0.
   1011,   103.527809,   47.7266693,           0.
   1012,    156.87294,   5.17963362,           0.
   1013,    142.62645,   10.0706587,           0.
   1014,   131.241852,   9.87407207,           0.
   1015,   79.8734589,    9.9005518,           0.
   1016,   74.0664368,   10.0806112,           0.
   1017,   114.123734,   9.87384987,           0.
   1018,   108.417747,   9.87389946,           0.
   1019,   85.5901642,   9.88241386,           0.
   1020,   102.711876,   9.87454796,           0.
   1021,   91.2990952,   9.87850285,           0.
   1022,   68.2851486,   10.1117764,           0.
   1023,   119.829865,   9.87312317,           0.
   1024,   97.0058899,    9.8758812,           0.
   1025,   161.688477,   4.70270443,           0.
   1026,   125.535927,   9.87281036,           0.
   1027,   136.942764,    9.9074049,           0.
   1028,   148.339157,   10.4334612,           0.
   1029,   166.225403,   37.4117889,           0.
   1030,   161.254135,   28.7115364,           0.
   1031,   166.234146,   43.1341057,           0.
   1032,   161.213928,   23.0043545,           0.
   1033,   161.088287,    17.189497,           0.
   1034,   62.0866776,   10.3232718,           0.
   1035,   160.327011,    10.665699,           0.
   1036,   68.3047562,   35.5468025,           0.
   1037,   73.7770004,   41.8262024,           0.
   1038,   160.955643,    46.680687,           0.
   1039,   65.9199524,   19.3020916,           0.
   1040,   65.7815247,   24.7920284,           0.
   1041,   145.972412,    42.786808,           0.
   1042,   140.215225,   42.8221588,           0.
   1043,   111.984688,   42.8353119,           0.
   1044,   134.543579,   42.8333321,           0.
   1045,   117.622498,   42.8355255,           0.
   1046,   128.899826,   42.8350449,           0.
   1047,    123.26075,   42.8349113,           0.
   1048,    106.34774,   42.8330383,           0.
   1049,   100.711784,   42.8290977,           0.
   1050,   89.6680908,   42.5658951,           0.
   1051,   95.1377411,   42.7547302,           0.
   1052,   151.784943,   42.7232857,           0.
   1053,   84.4139175,   42.2244148,           0.
   1054,   76.2087555,   47.0544968,           0.
   1055,   134.092285,   14.8125515,           0.
   1056,   111.271118,   14.8053503,           0.
   1057,   116.976944,   14.8043337,           0.
   1058,   128.388168,   14.8056393,           0.
   1059,   122.682762,   14.8038721,           0.
   1060,   105.565659,   14.8061237,           0.
   1061,   94.1541367,   14.8118134,           0.
   1062,   99.8602524,   14.8078756,           0.
   1063,   88.4457169,   14.8146687,           0.
   1064,   139.757523,   15.0074253,           0.
   1065,    82.701416,   14.8435059,           0.
   1066,   145.347031,   15.3559151,           0.
   1067,   70.8947678,   15.7515745,           0.
   1068,   77.0123596,   14.9625149,           0.
   1069,   154.110138,   10.5068703,           0.
   1070,   161.131683,   34.5022202,           0.
   1071,     156.3302,   20.0939026,           0.
   1072,   156.332611,   25.7593689,           0.
   1073,   161.159897,   40.3732109,           0.
   1074,   156.634262,   14.9735031,           0.
   1075,   60.8031082,   4.59810305,           0.
   1076,   71.9784317,   37.3903542,           0.
   1077,   76.5884171,   37.0443878,           0.
   1078,   73.3669968,   31.7332573,           0.
   1079,   151.384064,   16.3348618,           0.
   1080,   70.5507202,   21.8040409,           0.
   1081,   87.3826065,   37.2259293,           0.
   1082,    149.05603,   37.7481079,           0.
   1083,   103.547432,   37.9833679,           0.
   1084,   97.9996262,   38.0248833,           0.
   1085,   131.718948,   37.9370728,           0.
   1086,   120.441711,   37.9374695,           0.
   1087,   126.080086,   37.9364357,           0.
   1088,   137.390808,   37.9023857,           0.
   1089,   143.210831,   37.6980782,           0.
   1090,   114.804588,   37.9376831,           0.
   1091,   109.172974,   37.9514427,           0.
   1092,   92.7001877,   37.8949165,           0.
   1093,   65.6953278,   14.4214058,           0.
   1094,    156.78212,   42.9682503,           0.
   1095,   65.9361877,   30.7977238,           0.
   1096,   137.008286,   19.7016373,           0.
   1097,   142.611572,    19.960825,           0.
   1098,   74.7701645,   19.3963261,           0.
   1099,   91.4219589,   19.7082462,           0.
   1100,   108.509834,    19.558609,           0.
   1101,   102.852997,   19.5727234,           0.
   1102,   119.918694,   19.5232201,           0.
   1103,    125.62883,    19.489769,           0.
   1104,   114.245049,   19.4776688,           0.
   1105,   131.332199,   19.5055122,           0.
   1106,   97.2049255,   19.6380424,           0.
   1107,   85.5463867,   19.6860199,           0.
   1108,   79.6512985,   19.6736908,           0.
   1109,   156.212616,   31.4119358,           0.
   1110,   151.487793,   22.6612263,           0.
   1111,   155.405396,   37.5982246,           0.
   1112,   79.1037292,   42.0244904,           0.
   1113,   75.7036285,   24.6733036,           0.
   1114,   81.9537506,   36.9839973,           0.
   1115,   90.5488892,    33.753952,           0.
   1116,   146.244492,   31.9958344,           0.
   1117,   100.769951,   33.3925667,           0.
   1118,   95.3249969,   33.5753441,           0.
   1119,   106.326828,   33.2854347,           0.
   1120,   117.572861,   33.1506958,           0.
   1121,   111.920418,   33.2278175,           0.
   1122,   134.503677,   33.1260567,           0.
   1123,   140.086761,   32.9619789,           0.
   1124,   128.847595,   33.1740646,           0.
   1125,   123.195648,   33.1958427,           0.
   1126,    70.267807,   26.7600708,           0.
   1127,   147.375549,   19.8962955,           0.
   1128,   139.853882,   24.3360443,           0.
   1129,   134.254211,   24.1071682,           0.
   1130,    105.95694,   24.1525459,           0.
   1131,   94.6058502,   24.4382362,           0.
   1132,   100.316002,    24.262907,           0.
   1133,   111.599449,   24.0518456,           0.
   1134,   128.615036,   24.0156574,           0.
   1135,   117.276237,   23.9976959,           0.
   1136,   122.945068,   24.0004539,           0.
   1137,   88.5054932,   24.7386608,           0.
   1138,   151.339203,   28.4095955,           0.
   1139,   82.2649689,   24.7268353,           0.
   1140,   145.847549,   25.1127319,           0.
   1141,   79.2184296,   33.0701942,           0.
   1142,   141.836639,   28.5853596,           0.
   1143,   103.361679,   28.7716827,           0.
   1144,    108.96785,   28.6631851,           0.
   1145,   114.606071,   28.5918999,           0.
   1146,   120.254654,     28.57547,           0.
   1147,   137.020874,   28.6013966,           0.
   1148,     131.5289,   28.5900955,           0.
   1149,    125.89782,   28.5919304,           0.
   1150,    151.65155,   33.4327393,           0.
   1151,   85.1371384,   31.0920238,           0.
   1152,   91.9865494,      29.4305,           0.
   1153,   79.1382294,   29.0591221,           0.
   1154,    60.396965,   32.1870117,           0.
   1155,   97.7275085,   28.9785385,           0.
   1156,   46.2770538,   13.7376833,           0.
   1157,   46.2328491,   7.62307215,           0.
   1158,   40.6574745,   37.8908539,           0.
   1159,   29.6154537,   47.1088448,           0.
   1160,   29.8590965,   53.2951088,           0.
   1161,   46.4350548,   19.5427952,           0.
   1162,   46.4535332,     25.05933,           0.
   1163,   46.3228645,   30.4478035,           0.
   1164,   46.0986366,   35.6706314,           0.
   1165,   34.7656517,    41.095768,           0.
   1166,   7.57522202,   52.3705254,           0.
   1167,   13.6682358,   52.3865776,           0.
   1168,    19.474369,   52.5043182,           0.
   1169,   25.1610279,   52.5730667,           0.
   1170,   5.12044144,   14.3682365,           0.
   1171,   5.05583048,   20.0973568,           0.
   1172,    4.9965992,   25.8683777,           0.
   1173,   4.97435856,   31.6274776,           0.
   1174,   5.04378176,   37.4417114,           0.
   1175,   5.07560873,   43.1783257,           0.
   1176,   25.6995792,   4.96340609,           0.
   1177,     19.95961,    4.9878149,           0.
   1178,   14.0256357,   5.15394068,           0.
   1179,   7.77224922,   5.18868589,           0.
   1180,   16.7539806,   47.2483978,           0.
   1181,   22.7005138,   47.2886772,           0.
   1182,    41.342514,   22.0645027,           0.
   1183,   41.2639694,   16.4716263,           0.
   1184,   31.4376068,   4.99598932,           0.
   1185,   37.1184082,   5.02094078,           0.
   1186,   22.8178482,   9.92639065,           0.
   1187,   41.9236336,   4.61099863,           0.
   1188,   16.9539547,   10.0660267,           0.
   1189,   10.2287436,   17.1029911,           0.
   1190,   9.95382023,   28.7505646,           0.
   1191,   9.97419357,    34.635704,           0.
   1192,   10.1972494,   22.9072514,           0.
   1193,   9.98971653,   40.4510727,           0.
   1194,   4.70328522,   9.53016376,           0.
   1195,   10.3189468,   46.6468315,           0.
   1196,    40.567421,   10.2289534,           0.
   1197,   10.4787226,   10.8569736,           0.
   1198,   29.3123474,   41.0716858,           0.
   1199,    35.712574,   35.1457634,           0.
   1200,   36.2092361,   18.7334137,           0.
   1201,   36.8071976,    13.983942,           0.
   1202,   41.2814598,   27.4669132,           0.
   1203,   28.6079025,   9.86004257,           0.
   1204,   19.8060417,   14.7895708,           0.
   1205,    34.366787,   9.77704144,           0.
   1206,   14.6986618,   14.5120602,           0.
   1207,    15.141592,   25.8826542,           0.
   1208,   16.0976887,   19.7875042,           0.
   1209,   14.9715824,   31.7261791,           0.
   1210,   14.8734932,   37.6353912,           0.
   1211,   4.59395552,   47.9909363,           0.
   1212,   31.1507702,   37.2810555,           0.
   1213,   19.9705486,   41.3867073,           0.
   1214,   31.9522228,   14.6264801,           0.
   1215,   25.7518826,   37.2344666,           0.
   1216,   30.0569782,   31.9596386,           0.
   1217,   41.0486298,   32.7515526,           0.
   1218,   36.1228485,   24.2297153,           0.
   1219,   26.0006752,   14.9068184,           0.
   1220,   14.3813372,   42.6736794,           0.
   1221,   19.9636517,   34.6572571,           0.
   1222,   19.9664078,   28.9199619,           0.
   1223,   25.4701481,   42.8180771,           0.
   1224,   30.0555801,   20.6974506,           0.
   1225,   35.9804039,   29.6940002,           0.
   1226,   22.9043312,   20.0048618,           0.
   1227,   19.9518661,   24.1495075,           0.
   1228,    24.277647,   31.7847767,           0.
   1229,   25.5532475,   26.3038025,           0.
   1230,    31.553812,   26.5769215,           0.
*Element, type=S3
   1, 520, 488, 491
   2, 359,  96, 197
   3, 256, 208, 251
   4, 197,  13,  14
   5, 199, 198,  36
   6, 199,   3,  37
   7, 314,  17, 257
   8, 257,  17,  18
   9, 258,  19, 200
  10, 200,  19,  20
  11, 294,  85,  86
  12, 201, 200,  20
  13, 202, 201,  21
  14, 203, 202,  22
  15, 204, 203,  23
  16, 205, 204,  24
  17, 206, 205,  25
  18, 208,  27,  28
  19, 207, 206,  26
  20, 208, 207,  27
  21, 210, 209,  29
  22, 260, 210, 212
  23, 211,  33,  34
  24, 214, 213,  32
  25, 391, 214, 211
  26, 214,   2,  33
  27, 215,  35, 198
  28,  53,   4,  54
  29, 243,  54,  55
  30, 268, 242, 241
  31, 342, 269, 341
  32, 270, 239, 238
  33, 270, 269, 239
  34, 271, 270, 238
  35, 272, 271, 237
  36, 339, 271, 336
  37, 293,  46,  47
  38, 287,  44,  45
  39, 283,  43,  44
  40, 217,  42, 216
  41, 217,  41,  42
  42, 219,  40, 218
  43, 220,  39, 219
  44, 221,  38, 220
  45,  77,  76,   5
  46, 222,  76,  77
  47, 319, 252, 318
  48, 224,  74, 223
  49, 225,  73, 224
  50, 226,  72, 225
  51, 227,  71, 226
  52, 228,  70, 227
  53, 229,  69, 228
  54, 230,  68, 229
  55, 231,  67, 230
  56, 232,  66, 231
  57, 233,  65, 232
  58, 234,  64, 233
  59, 235,  63, 234
  60, 236,  62, 235
  61, 237,  61, 236
  62, 238,  60, 237
  63, 239,  59, 238
  64, 240,  58, 239
  65, 241,  57, 240
  66, 242,  56, 241
  67, 243,  55, 242
  68,  96,   1,  13
  69, 197,  96,  13
  70, 359, 298,  95
  71, 410, 314, 389
  72, 360,  94, 298
  73, 358, 299,  92
  74, 258, 257,  18
  75, 325, 200, 263
  76, 300,  91, 299
  77, 300,  90,  91
  78, 301,  89,  90
  79, 302,  88,  89
  80, 304,  86,  87
  81, 245,  84, 244
  82, 245,  83,  84
  83, 246,  82,  83
  84, 369, 306, 366
  85, 248,  81, 247
  86, 250,  79, 249
  87, 372,  77,  78
  88, 308,  14,  15
  89, 375, 359, 197
  90, 198,  35,  36
  91, 274, 233, 232
  92, 199,  36,   3
  93, 221,  37,  38
  94, 201,  20,  21
  95, 368, 367, 305
  96, 202,  21,  22
  97, 279, 264, 224
  98, 203,  22,  23
  99, 306, 247, 296
 100, 204,  23,  24
 101, 280, 225, 264
 102, 205,  24,  25
 103, 317, 261, 316
 104, 206,  25,  26
 105, 402, 330, 331
 106, 207,  26,  27
 107, 329, 328, 282
 108, 209,  28,  29
 109, 320, 315, 254
 110, 209, 208,  28
 111, 278, 274, 232
 112, 210,  29,  30
 113, 259, 209, 210
 114, 212,  30,  31
 115, 259, 251, 209
 116, 215,  34,  35
 117, 215, 211,  34
 118, 212, 210,  30
 119, 213, 212,  31
 120, 213,  31,  32
 121, 326, 260, 212
 122, 214,  32,   2
 123, 214,  33, 211
 124, 356, 216, 283
 125, 324, 323, 259
 126, 216,  42,  43
 127, 619, 576, 612
 128, 285, 218, 217
 129, 218,  41, 217
 130, 289, 218, 285
 131, 218,  40,  41
 132, 289, 219, 218
 133, 219,  39,  40
 134, 290, 220, 286
 135, 220,  38,  39
 136, 221, 198, 199
 137, 221, 199,  37
 138, 249,  80, 248
 139, 222,  75,  76
 140, 223,  74,  75
 141, 223,  75, 222
 142, 371, 294, 304
 143, 224,  73,  74
 144, 253, 252, 202
 145, 225,  72,  73
 146, 316, 262, 315
 147, 226,  71,  72
 148, 262, 205, 254
 149, 227,  70,  71
 150, 281, 227, 265
 151, 228,  69,  70
 152, 282, 229, 266
 153, 229,  68,  69
 154, 340, 278, 327
 155, 230,  67,  68
 156, 278, 231, 267
 157, 231,  66,  67
 158, 255, 254, 206
 159, 232,  65,  66
 160, 275, 234, 233
 161, 233,  64,  65
 162, 273, 272, 236
 163, 234,  63,  64
 164, 336, 271, 272
 165, 235,  62,  63
 166, 473, 471, 415
 167, 236,  61,  62
 168, 344, 277, 342
 169, 237,  60,  61
 170, 348,  51, 291
 171, 238,  59,  60
 172, 344, 268, 277
 173, 239,  58,  59
 174, 277, 241, 240
 175, 240,  57,  58
 176, 292, 291,  52
 177, 241,  56,  57
 178, 310, 242, 268
 179, 242,  55,  56
 180, 292,  53, 243
 181, 243,  53,  54
 182, 244,  84,  85
 183, 263, 201, 252
 184, 332, 331, 265
 185, 246,  83, 245
 186, 400, 332, 333
 187, 247,  82, 246
 188, 334, 333, 264
 189, 247,  81,  82
 190, 372, 309, 222
 191, 248,  80,  81
 192, 295, 249, 248
 193, 249,  79,  80
 194, 372, 250, 309
 195, 250,  78,  79
 196, 251, 208, 209
 197, 323, 321, 251
 198, 252, 201, 202
 199, 253, 202, 203
 200, 261, 203, 204
 201, 318, 253, 317
 202, 254, 205, 206
 203, 255, 206, 207
 204, 256, 207, 208
 205, 256, 255, 207
 206, 382, 380, 320
 207, 388, 321, 379
 208, 358,  92,  93
 209, 258,  18,  19
 210, 263, 200, 201
 211, 313, 257, 258
 212, 260, 259, 210
 213, 529, 436, 290
 214, 326, 212, 213
 215, 312, 211, 215
 216, 261, 253, 203
 217, 262, 261, 204
 218, 262, 204, 205
 219, 387, 315, 380
 220, 383, 319, 318
 221, 423, 299, 358
 222, 264, 225, 224
 223, 279, 224, 223
 224, 265, 227, 226
 225, 280, 265, 226
 226, 266, 229, 228
 227, 281, 266, 228
 228, 267, 231, 230
 229, 282, 267, 230
 230, 269, 240, 239
 231, 604, 560, 563
 232, 271, 238, 237
 233, 350,  49,  50
 234, 272, 237, 236
 235, 293, 284,  46
 236, 273, 236, 235
 237, 337, 273, 335
 238, 276, 235, 234
 239, 457, 455, 397
 240, 275, 233, 274
 241, 338, 335, 276
 242, 353, 286, 289
 243, 384, 323, 324
 244, 340, 274, 278
 245, 276, 234, 275
 246, 288, 285, 217
 247, 276, 273, 235
 248, 277, 268, 241
 249, 277, 240, 269
 250, 278, 232, 231
 251, 343, 274, 340
 252, 309, 279, 223
 253, 307, 250, 249
 254, 280, 226, 225
 255, 333, 332, 280
 256, 281, 228, 227
 257, 331, 330, 281
 258, 282, 230, 229
 259, 386, 385, 317
 260, 283, 216,  43
 261, 352, 351, 284
 262, 284,  45,  46
 263, 397, 396, 339
 264, 289, 286, 219
 265, 288, 217, 216
 266, 290, 221, 220
 267, 286, 220, 219
 268, 287, 283,  44
 269, 287,  45, 284
 270, 346, 283, 287
 271, 335, 273, 276
 272, 354, 353, 289
 273, 378, 377, 374
 274, 311, 198, 290
 275, 290, 198, 221
 276, 291,  51,  52
 277, 310, 291, 292
 278, 292,  52,  53
 279, 310, 292, 243
 280, 347,  47,  48
 281, 341, 270, 339
 282, 294, 244,  85
 283, 303,  88, 302
 284, 306, 248, 247
 285, 296, 247, 246
 286, 305, 246, 245
 287, 297, 245, 244
 288, 367, 366, 296
 289, 357, 244, 294
 290, 298,  94,  95
 291, 308, 197,  14
 292, 299,  91,  92
 293, 588, 581, 532
 294, 562, 557, 507
 295, 301,  90, 300
 296, 362, 300, 361
 297, 302,  89, 301
 298, 362, 301, 300
 299, 303,  87,  88
 300, 363, 302, 301
 301, 304,  87, 303
 302, 364, 303, 302
 303, 304, 294,  86
 304, 305, 296, 246
 305, 305, 245, 297
 306, 399, 334, 370
 307, 306, 295, 248
 308, 376, 309, 307
 309, 307, 249, 295
 310, 373,  16, 314
 311, 485, 477, 423
 312, 309, 223, 222
 313, 309, 250, 307
 314, 310, 243, 242
 315, 345, 268, 344
 316, 436, 378, 311
 317, 311, 215, 198
 318, 450, 391, 312
 319, 374, 215, 311
 320, 325, 313, 258
 321, 390, 381, 325
 322, 314,  16,  17
 323, 389, 257, 313
 324, 315, 262, 254
 325, 320, 254, 255
 326, 328, 327, 267
 327, 316, 261, 262
 328, 385, 383, 318
 329, 317, 253, 261
 330, 330, 329, 266
 331, 318, 252, 253
 332, 477, 361, 423
 333, 319, 263, 252
 334, 322, 255, 256
 335, 409, 343, 394
 336, 321, 256, 251
 337, 323, 251, 259
 338, 322, 320, 255
 339, 322, 256, 321
 340, 324, 259, 260
 341, 384, 379, 323
 342, 392, 260, 326
 343, 377, 312, 374
 344, 325, 258, 200
 345, 390, 263, 319
 346, 391, 213, 214
 347, 391, 326, 213
 348, 327, 278, 267
 349, 328, 267, 282
 350, 329, 282, 266
 351, 452, 451, 406
 352, 330, 266, 281
 353, 405, 329, 403
 354, 331, 281, 265
 355, 401, 331, 332
 356, 332, 265, 280
 357, 431, 366, 425
 358, 333, 280, 264
 359, 366, 306, 296
 360, 334, 264, 279
 361, 482, 431, 425
 362, 376, 334, 279
 363, 370, 307, 295
 364, 414, 411, 346
 365, 338, 276, 275
 366, 351, 346, 287
 367, 337, 336, 272
 368, 337, 272, 273
 369, 574, 469, 525
 370, 343, 275, 274
 371, 465, 409, 394
 372, 454, 453, 404
 373, 339, 270, 271
 374, 445, 443, 385
 375, 505, 451, 503
 376, 395, 344, 342
 377, 341, 269, 270
 378, 350,  50, 348
 379, 342, 277, 269
 380, 394, 340, 393
 381, 343, 338, 275
 382, 420, 350, 348
 383, 345, 310, 268
 384, 350, 349,  49
 385, 345, 291, 310
 386, 356, 283, 346
 387, 351, 287, 284
 388, 347, 293,  47
 389, 349,  48,  49
 390, 348,  50,  51
 391, 413, 291, 345
 392, 420, 415, 350
 393, 349, 347,  48
 394, 420, 348, 413
 395, 521, 344, 395
 396, 352, 284, 293
 397, 618, 604, 617
 398, 412, 293, 347
 399, 396, 341, 339
 400, 354, 289, 285
 401, 355, 285, 288
 402, 355, 354, 285
 403, 417, 354, 355
 404, 421, 288, 356
 405, 495, 493, 438
 406, 356, 288, 216
 407, 411, 356, 346
 408, 357, 297, 244
 409, 428, 362, 427
 410, 360, 358,  93
 411, 437, 410, 389
 412, 359,  95,  96
 413, 375, 197, 308
 414, 360,  93,  94
 415, 424, 298, 375
 416, 361, 300, 299
 417, 522, 488, 424
 418, 480, 479, 428
 419, 363, 301, 362
 420, 430, 365, 364
 421, 364, 302, 363
 422, 428, 363, 362
 423, 365, 303, 364
 424, 429, 364, 363
 425, 365, 304, 303
 426, 367, 296, 305
 427, 368, 305, 297
 428, 422, 297, 357
 429, 556, 517, 399
 430, 434, 357, 371
 431, 481, 425, 426
 432, 556, 370, 369
 433, 369, 295, 306
 434, 376, 370, 334
 435, 370, 295, 369
 436, 371, 357, 294
 437, 371, 304, 365
 438, 372, 222,  77
 439, 372,  78, 250
 440, 373, 308,  15
 441, 373,  15,  16
 442, 374, 312, 215
 443, 436, 311, 290
 444, 375, 298, 359
 445, 435, 373, 410
 446, 376, 279, 309
 447, 376, 307, 370
 448, 470, 419, 417
 449, 541, 449, 392
 450, 378, 374, 311
 451, 419, 354, 417
 452, 408, 398, 335
 453, 379, 321, 323
 454, 380, 315, 320
 455, 382, 320, 322
 456, 381, 313, 325
 457, 447, 440, 390
 458, 388, 382, 322
 459, 510, 509, 457
 460, 385, 318, 317
 461, 507, 504, 462
 462, 449, 324, 392
 463, 502, 439, 384
 464, 386, 317, 316
 465, 558, 504, 557
 466, 387, 386, 316
 467, 446, 387, 442
 468, 387, 316, 315
 469, 442, 380, 438
 470, 388, 322, 321
 471, 441, 379, 439
 472, 389, 314, 257
 473, 448, 437, 389
 474, 390, 325, 263
 475, 447, 319, 383
 476, 391, 211, 312
 477, 450, 312, 377
 478, 392, 324, 260
 479, 450, 392, 326
 480, 393, 340, 327
 481, 406, 327, 328
 482, 409, 408, 338
 483, 394, 343, 340
 484, 518, 471, 473
 485, 404, 342, 341
 486, 397, 339, 336
 487, 407, 336, 337
 488, 398, 337, 335
 489, 416, 414, 351
 490, 408, 335, 338
 491, 576, 526, 573
 492, 400, 333, 399
 493, 399, 333, 334
 494, 425, 366, 367
 495, 401, 332, 400
 496, 517, 459, 400
 497, 402, 331, 401
 498, 426, 425, 367
 499, 403, 330, 402
 500, 461, 402, 460
 501, 403, 329, 330
 502, 404, 395, 342
 503, 404, 341, 396
 504, 625, 586, 624
 505, 405, 328, 329
 506, 406, 393, 327
 507, 406, 328, 405
 508, 407, 397, 336
 509, 407, 337, 398
 510, 409, 338, 343
 511, 463, 458, 398
 512, 456, 393, 451
 513, 465, 394, 456
 514, 435, 308, 373
 515, 410, 373, 314
 516, 466, 421, 411
 517, 414, 346, 351
 518, 412, 352, 293
 519, 418, 347, 349
 520, 413, 348, 291
 521, 521, 395, 518
 522, 416, 351, 352
 523, 469, 467, 414
 524, 415, 349, 350
 525, 453, 395, 404
 526, 468, 352, 412
 527, 618, 560, 604
 528, 502, 384, 449
 529, 474, 355, 421
 530, 418, 412, 347
 531, 418, 349, 415
 532, 529, 475, 489
 533, 419, 353, 354
 534, 521, 413, 345
 535, 521, 420, 413
 536, 421, 355, 288
 537, 421, 356, 411
 538, 422, 368, 297
 539, 479, 478, 429
 540, 423, 361, 299
 541, 433, 358, 360
 542, 424, 360, 298
 543, 522, 375, 435
 544, 426, 367, 368
 545, 476, 368, 422
 546, 486, 422, 434
 547, 537, 482, 481
 548, 427, 362, 361
 549, 542, 539, 520
 550, 620, 534, 581
 551, 429, 363, 428
 552, 483, 432, 430
 553, 430, 364, 429
 554, 479, 429, 428
 555, 432, 365, 430
 556, 556, 431, 517
 557, 431, 369, 366
 558, 562, 507, 512
 559, 432, 371, 365
 560, 433, 423, 358
 561, 433, 360, 424
 562, 434, 422, 357
 563, 434, 371, 432
 564, 435, 375, 308
 565, 487, 410, 437
 566, 529, 290, 286
 567, 475, 353, 419
 568, 448, 389, 313
 569, 542, 491, 490
 570, 438, 380, 382
 571, 444, 382, 388
 572, 458, 457, 407
 573, 439, 379, 384
 574, 440, 381, 390
 575, 500, 494, 447
 576, 496, 441, 492
 577, 441, 388, 379
 578, 548, 493, 547
 579, 442, 387, 380
 580, 443, 383, 385
 581, 445, 385, 386
 582, 444, 438, 382
 583, 444, 388, 441
 584, 446, 445, 386
 585, 498, 442, 493
 586, 446, 386, 387
 587, 551, 498, 548
 588, 447, 390, 319
 589, 500, 383, 443
 590, 448, 313, 381
 591, 501, 490, 448
 592, 543, 449, 541
 593, 449, 384, 324
 594, 541, 450, 377
 595, 450, 326, 391
 596, 451, 393, 406
 597, 452, 406, 405
 598, 462, 405, 403
 599, 504, 503, 452
 600, 571, 518, 453
 601, 454, 404, 396
 602, 455, 396, 397
 603, 455, 454, 396
 604, 467, 466, 411
 605, 457, 397, 407
 606, 464, 463, 408
 607, 456, 394, 393
 608, 458, 407, 398
 609, 680, 655, 617
 610, 463, 398, 408
 611, 609, 607, 565
 612, 460, 401, 459
 613, 459, 401, 400
 614, 460, 402, 401
 615, 540, 476, 486
 616, 656, 582, 620
 617, 461, 403, 402
 618, 462, 452, 405
 619, 462, 403, 461
 620, 464, 408, 409
 621, 513, 510, 458
 622, 465, 464, 409
 623, 516, 464, 465
 624, 514, 456, 505
 625, 516, 465, 514
 626, 519, 474, 466
 627, 467, 411, 414
 628, 469, 414, 416
 629, 563, 560, 508
 630, 468, 416, 352
 631, 472, 412, 418
 632, 525, 416, 468
 633, 508, 506, 454
 634, 530, 475, 419
 635, 526, 417, 474
 636, 471, 418, 415
 637, 506, 453, 454
 638, 472, 468, 412
 639, 472, 418, 471
 640, 473, 415, 420
 641, 521, 518, 473
 642, 474, 417, 355
 643, 474, 421, 466
 644, 530, 419, 470
 645, 529, 489, 436
 646, 476, 426, 368
 647, 534, 479, 480
 648, 477, 427, 361
 649, 485, 423, 433
 650, 483, 430, 478
 651, 478, 430, 429
 652, 480, 428, 427
 653, 534, 533, 479
 654, 532, 427, 477
 655, 637, 589, 627
 656, 570, 511, 459
 657, 531, 426, 476
 658, 570, 517, 482
 659, 482, 425, 481
 660, 623, 584, 583
 661, 484, 432, 483
 662, 535, 483, 478
 663, 484, 434, 432
 664, 491, 437, 490
 665, 490, 437, 448
 666, 486, 476, 422
 667, 486, 434, 484
 668, 522, 487, 488
 669, 487, 435, 410
 670, 488, 485, 433
 671, 488, 433, 424
 672, 661, 543, 553
 673, 489, 378, 436
 674, 501, 448, 381
 675, 589, 544, 554
 676, 491, 488, 487
 677, 491, 487, 437
 678, 492, 441, 439
 679, 555, 439, 502
 680, 493, 442, 438
 681, 495, 438, 444
 682, 494, 440, 447
 683, 552, 546, 500
 684, 496, 495, 444
 685, 549, 496, 545
 686, 496, 444, 441
 687, 565, 564, 510
 688, 497, 443, 445
 689, 499, 445, 446
 690, 498, 446, 442
 691, 594, 548, 591
 692, 499, 497, 445
 693, 499, 446, 498
 694, 500, 447, 383
 695, 552, 443, 497
 696, 501, 381, 440
 697, 554, 440, 494
 698, 543, 502, 449
 699, 553, 543, 377
 700, 503, 451, 452
 701, 504, 452, 462
 702, 507, 462, 461
 703, 640, 639, 600
 704, 699, 672, 696
 705, 505, 456, 451
 706, 577, 506, 560
 707, 508, 454, 455
 708, 512, 461, 460
 709, 586, 538, 585
 710, 509, 455, 457
 711, 509, 508, 455
 712, 524, 467, 523
 713, 510, 457, 458
 714, 513, 458, 463
 715, 572, 519, 524
 716, 511, 460, 459
 717, 569, 562, 512
 718, 512, 507, 461
 719, 512, 460, 511
 720, 515, 463, 464
 721, 566, 565, 513
 722, 516, 515, 464
 723, 514, 465, 456
 724, 568, 516, 567
 725, 515, 513, 463
 726, 561, 505, 559
 727, 567, 514, 561
 728, 517, 400, 399
 729, 517, 431, 482
 730, 518, 395, 453
 731, 571, 527, 471
 732, 573, 519, 572
 733, 524, 466, 467
 734, 539, 485, 520
 735, 520, 485, 488
 736, 521, 473, 420
 737, 521, 345, 344
 738, 522, 424, 375
 739, 522, 435, 487
 740, 523, 467, 469
 741, 608, 564, 607
 742, 684, 683, 652
 743, 524, 519, 466
 744, 525, 469, 416
 745, 528, 468, 472
 746, 526, 470, 417
 747, 526, 474, 519
 748, 527, 472, 471
 749, 571, 471, 518
 750, 528, 525, 468
 751, 528, 472, 527
 752, 529, 286, 353
 753, 529, 353, 475
 754, 613, 475, 530
 755, 579, 470, 576
 756, 531, 481, 426
 757, 538, 484, 536
 758, 532, 480, 427
 759, 539, 532, 477
 760, 535, 478, 533
 761, 533, 478, 479
 762, 581, 480, 532
 763, 628, 627, 589
 764, 583, 533, 582
 765, 536, 483, 535
 766, 585, 536, 584
 767, 536, 484, 483
 768, 570, 537, 511
 769, 580, 481, 531
 770, 623, 583, 621
 771, 538, 486, 484
 772, 539, 477, 485
 773, 542, 520, 491
 774, 540, 531, 476
 775, 540, 486, 538
 776, 541, 392, 450
 777, 543, 541, 377
 778, 544, 490, 501
 779, 544, 542, 490
 780, 553, 377, 378
 781, 553, 378, 489
 782, 554, 544, 501
 783, 637, 627, 588
 784, 545, 496, 492
 785, 597, 492, 555
 786, 546, 494, 500
 787, 596, 590, 552
 788, 547, 493, 495
 789, 549, 547, 495
 790, 559, 503, 558
 791, 548, 498, 493
 792, 549, 495, 496
 793, 593, 592, 549
 794, 550, 497, 499
 795, 551, 550, 499
 796, 551, 499, 498
 797, 603, 559, 601
 798, 552, 500, 443
 799, 596, 497, 550
 800, 613, 489, 475
 801, 599, 555, 502
 802, 554, 501, 440
 803, 598, 494, 546
 804, 555, 492, 439
 805, 599, 502, 543
 806, 556, 399, 370
 807, 556, 369, 431
 808, 557, 504, 507
 809, 623, 622, 584
 810, 673, 672, 639
 811, 558, 503, 504
 812, 595, 551, 594
 813, 559, 505, 503
 814, 560, 506, 508
 815, 563, 508, 509
 816, 611, 567, 605
 817, 561, 514, 505
 818, 569, 512, 511
 819, 649, 537, 580
 820, 564, 509, 510
 821, 564, 563, 509
 822, 575, 572, 524
 823, 565, 510, 513
 824, 566, 513, 515
 825, 652, 612, 614
 826, 568, 515, 516
 827, 592, 591, 547
 828, 567, 516, 514
 829, 605, 561, 603
 830, 610, 609, 566
 831, 568, 566, 515
 832, 569, 511, 537
 833, 580, 537, 481
 834, 570, 459, 517
 835, 570, 482, 537
 836, 571, 453, 506
 837, 577, 571, 506
 838, 614, 612, 573
 839, 575, 524, 523
 840, 612, 576, 573
 841, 573, 526, 519
 842, 574, 523, 469
 843, 578, 525, 528
 844, 615, 523, 574
 845, 607, 564, 565
 846, 698, 683, 670
 847, 576, 470, 526
 848, 577, 528, 527
 849, 577, 527, 571
 850, 578, 574, 525
 851, 578, 528, 577
 852, 662, 599, 661
 853, 579, 530, 470
 854, 587, 531, 540
 855, 643, 606, 626
 856, 581, 534, 480
 857, 588, 532, 539
 858, 582, 533, 534
 859, 665, 628, 636
 860, 584, 535, 583
 861, 583, 535, 533
 862, 602, 600, 557
 863, 584, 536, 535
 864, 624, 585, 622
 865, 585, 538, 536
 866, 587, 540, 586
 867, 586, 540, 538
 868, 606, 602, 562
 869, 587, 580, 531
 870, 588, 539, 542
 871, 637, 542, 544
 872, 598, 589, 554
 873, 687, 627, 628
 874, 590, 546, 552
 875, 634, 629, 596
 876, 591, 548, 547
 877, 592, 547, 549
 878, 593, 549, 545
 879, 708, 697, 683
 880, 635, 545, 597
 881, 653, 619, 612
 882, 723, 718, 715
 883, 594, 551, 548
 884, 601, 558, 600
 885, 595, 550, 551
 886, 596, 552, 497
 887, 634, 550, 595
 888, 597, 545, 492
 889, 638, 597, 555
 890, 598, 554, 494
 891, 636, 546, 590
 892, 662, 661, 613
 893, 662, 579, 650
 894, 600, 558, 557
 895, 602, 557, 562
 896, 633, 594, 631
 897, 601, 559, 558
 898, 606, 562, 569
 899, 700, 675, 690
 900, 631, 591, 630
 901, 603, 561, 559
 902, 618, 617, 578
 903, 608, 563, 564
 904, 648, 611, 645
 905, 605, 567, 561
 906, 649, 626, 606
 907, 626, 580, 587
 908, 729, 721, 728
 909, 609, 565, 566
 910, 646, 607, 644
 911, 608, 604, 563
 912, 610, 566, 568
 913, 632, 630, 592
 914, 611, 610, 568
 915, 645, 605, 642
 916, 611, 568, 567
 917, 724, 719, 718
 918, 614, 573, 572
 919, 616, 572, 575
 920, 613, 553, 489
 921, 662, 530, 579
 922, 616, 614, 572
 923, 683, 653, 652
 924, 615, 575, 523
 925, 617, 615, 574
 926, 651, 575, 615
 927, 678, 644, 677
 928, 617, 574, 578
 929, 686, 680, 646
 930, 618, 578, 577
 931, 618, 577, 560
 932, 671, 638, 650
 933, 619, 579, 576
 934, 620, 582, 534
 935, 627, 620, 581
 936, 621, 583, 582
 937, 732, 656, 665
 938, 622, 585, 584
 939, 700, 696, 673
 940, 658, 657, 623
 941, 689, 688, 657
 942, 659, 622, 657
 943, 624, 586, 585
 944, 731, 626, 625
 945, 625, 587, 586
 946, 649, 606, 569
 947, 626, 587, 625
 948, 627, 581, 588
 949, 628, 589, 598
 950, 636, 628, 598
 951, 687, 665, 656
 952, 629, 590, 596
 953, 732, 707, 685
 954, 630, 591, 592
 955, 632, 592, 593
 956, 642, 603, 641
 957, 631, 594, 591
 958, 670, 593, 635
 959, 704, 703, 677
 960, 641, 601, 639
 961, 633, 595, 594
 962, 634, 596, 550
 963, 668, 595, 633
 964, 635, 593, 545
 965, 671, 597, 638
 966, 636, 598, 546
 967, 669, 590, 629
 968, 637, 588, 542
 969, 637, 544, 589
 970, 638, 555, 599
 971, 662, 638, 599
 972, 639, 601, 600
 973, 640, 600, 602
 974, 643, 640, 602
 975, 688, 659, 657
 976, 667, 631, 664
 977, 641, 603, 601
 978, 676, 642, 674
 979, 642, 605, 603
 980, 643, 602, 606
 981, 660, 624, 659
 982, 644, 607, 609
 983, 647, 609, 610
 984, 666, 664, 630
 985, 645, 611, 605
 986, 686, 646, 678
 987, 646, 608, 607
 988, 647, 644, 609
 989, 648, 647, 610
 990, 648, 610, 611
 991, 679, 645, 676
 992, 649, 569, 537
 993, 649, 580, 626
 994, 650, 579, 619
 995, 671, 650, 619
 996, 651, 616, 575
 997, 655, 651, 615
 998, 654, 614, 616
 999, 654, 652, 614
1000, 698, 671, 653
1001, 653, 612, 652
1002, 682, 616, 651
1003, 703, 678, 677
1004, 655, 615, 617
1005, 680, 617, 604
1006, 656, 621, 582
1007, 687, 656, 620
1008, 657, 622, 623
1009, 658, 623, 621
1010, 685, 621, 656
1011, 663, 629, 634
1012, 731, 675, 643
1013, 659, 624, 622
1014, 731, 660, 675
1015, 660, 625, 624
1016, 661, 599, 543
1017, 661, 553, 613
1018, 662, 613, 530
1019, 662, 650, 638
1020, 668, 663, 634
1021, 727, 725, 709
1022, 664, 631, 630
1023, 666, 630, 632
1024, 669, 665, 636
1025, 695, 669, 629
1026, 697, 632, 670
1027, 705, 679, 702
1028, 674, 641, 672
1029, 667, 633, 631
1030, 668, 634, 595
1031, 694, 633, 667
1032, 669, 636, 590
1033, 732, 695, 707
1034, 670, 632, 593
1035, 698, 670, 635
1036, 671, 619, 653
1037, 671, 635, 597
1038, 672, 641, 639
1039, 673, 639, 640
1040, 675, 673, 640
1041, 710, 688, 709
1042, 693, 664, 692
1043, 674, 642, 641
1044, 675, 640, 643
1045, 690, 660, 659
1046, 728, 720, 714
1047, 676, 645, 642
1048, 677, 644, 647
1049, 681, 647, 648
1050, 711, 678, 703
1051, 678, 646, 644
1052, 702, 676, 701
1053, 679, 648, 645
1054, 680, 604, 608
1055, 680, 608, 646
1056, 681, 677, 647
1057, 681, 648, 679
1058, 682, 654, 616
1059, 686, 682, 651
1060, 684, 652, 654
1061, 708, 683, 684
1062, 706, 654, 682
1063, 726, 722, 706
1064, 685, 658, 621
1065, 732, 685, 656
1066, 686, 651, 655
1067, 686, 655, 680
1068, 687, 620, 627
1069, 687, 628, 665
1070, 689, 657, 658
1071, 727, 707, 717
1072, 717, 695, 663
1073, 691, 663, 668
1074, 690, 675, 660
1075, 690, 659, 688
1076, 694, 691, 668
1077, 730, 709, 725
1078, 692, 664, 666
1079, 712, 666, 697
1080, 701, 674, 699
1081, 693, 667, 664
1082, 694, 668, 633
1083, 716, 667, 693
1084, 695, 629, 663
1085, 717, 707, 695
1086, 696, 672, 673
1087, 730, 710, 709
1088, 697, 666, 632
1089, 697, 670, 683
1090, 698, 635, 671
1091, 698, 653, 683
1092, 718, 699, 715
1093, 699, 674, 672
1094, 700, 673, 675
1095, 710, 690, 688
1096, 724, 718, 723
1097, 701, 676, 674
1098, 719, 702, 701
1099, 702, 679, 676
1100, 711, 703, 706
1101, 704, 677, 681
1102, 705, 704, 681
1103, 729, 726, 721
1104, 705, 681, 679
1105, 728, 714, 692
1106, 706, 684, 654
1107, 711, 706, 682
1108, 707, 689, 658
1109, 707, 658, 685
1110, 722, 684, 706
1111, 712, 697, 708
1112, 709, 688, 689
1113, 730, 725, 713
1114, 710, 696, 700
1115, 710, 700, 690
1116, 711, 682, 686
1117, 711, 686, 678
1118, 729, 708, 722
1119, 712, 692, 666
1120, 713, 691, 694
1121, 716, 713, 694
1122, 714, 693, 692
1123, 728, 721, 720
1124, 715, 699, 696
1125, 715, 696, 710
1126, 716, 694, 667
1127, 724, 714, 719
1128, 717, 663, 691
1129, 725, 717, 691
1130, 718, 701, 699
1131, 730, 723, 715
1132, 720, 719, 714
1133, 719, 701, 718
1134, 720, 705, 702
1135, 720, 702, 719
1136, 721, 704, 705
1137, 721, 705, 720
1138, 722, 708, 684
1139, 726, 706, 703
1140, 723, 713, 716
1141, 724, 723, 716
1142, 724, 716, 693
1143, 724, 693, 714
1144, 727, 709, 689
1145, 725, 691, 713
1146, 726, 703, 704
1147, 726, 704, 721
1148, 727, 689, 707
1149, 727, 717, 725
1150, 728, 692, 712
1151, 729, 728, 712
1152, 729, 712, 708
1153, 729, 722, 726
1154, 730, 713, 723
1155, 730, 715, 710
1156, 731, 643, 626
1157, 731, 625, 660
1158, 732, 665, 669
1159, 732, 669, 695
1160, 755,   2,  32
1161, 763, 120, 762
1162, 783, 136, 755
1163, 785, 756, 127
1164, 786, 733, 734
1165, 816, 758, 757
1166,  13,   1,  97
1167, 737,  13,  97
1168, 781,  99, 780
1169, 746,  15,  14
1170, 788,  16,  15
1171, 773, 110, 772
1172, 748,  17, 747
1173, 749,  18, 748
1174, 749,  19,  18
1175, 769, 114, 768
1176, 751,  21, 738
1177, 767, 116, 766
1178, 752,  23, 739
1179, 852, 851, 809
1180, 753,  25, 741
1181, 742,  27, 740
1182, 743,  28, 742
1183, 754,  29, 743
1184, 744,  31,  30
1185, 745,  31, 744
1186, 105, 104,   6
1187, 777, 105, 106
1188, 803, 776, 775
1189, 844, 842, 795
1190, 779, 101, 778
1191, 868, 829, 867
1192, 824, 780, 779
1193, 871,  97,  98
1194, 127,   7, 128
1195, 785, 128, 129
1196, 757, 126, 756
1197, 758, 125, 757
1198, 759, 124, 758
1199, 760, 123, 759
1200, 754, 744,  30
1201, 899, 858, 898
1202, 811, 762, 810
1203, 764, 119, 763
1204, 765, 118, 764
1205, 766, 117, 765
1206, 794, 739, 791
1207, 768, 115, 767
1208, 886, 839, 885
1209, 770, 113, 769
1210, 771, 112, 770
1211, 936, 916, 935
1212, 857, 805, 855
1213, 774, 109, 773
1214, 775, 108, 774
1215, 776, 107, 775
1216, 777, 106, 776
1217, 733, 129, 130
1218, 812, 785, 733
1219, 734, 733, 130
1220, 735, 734, 131
1221, 736,   8, 133
1222, 875, 872, 835
1223, 734, 130, 131
1224, 787, 786, 734
1225, 735, 131, 132
1226, 782, 735, 736
1227, 736, 735, 132
1228, 782, 736, 133
1229, 736, 132,   8
1230, 782, 133, 134
1231, 746,  14, 737
1232, 737,  14,  13
1233, 738,  21,  20
1234, 750,  20,  19
1235, 739,  23,  22
1236, 751, 739,  22
1237, 740,  27,  26
1238, 753,  26,  25
1239, 741,  25,  24
1240, 752, 741,  24
1241, 762, 121, 761
1242, 742,  28,  27
1243, 761, 122, 760
1244, 743,  29,  28
1245, 835, 744, 797
1246, 754,  30,  29
1247, 783, 755, 745
1248, 745,  32,  31
1249, 780, 100, 779
1250, 788,  15, 746
1251, 747,  17,  16
1252, 823, 102, 103
1253, 772, 111, 771
1254, 748,  18,  17
1255, 904, 902, 853
1256, 855, 820, 853
1257, 750, 738,  20
1258, 750,  19, 749
1259, 751,  22,  21
1260, 917, 883, 916
1261, 752,  24,  23
1262, 888, 840, 887
1263, 814, 809, 765
1264, 753, 740,  26
1265, 846, 796, 845
1266, 796, 743, 790
1267, 755, 136,   2
1268, 755,  32, 745
1269, 756, 126, 127
1270, 785, 127, 128
1271, 816, 757, 812
1272, 757, 125, 126
1273, 784, 135, 783
1274, 758, 124, 125
1275, 817, 759, 808
1276, 759, 123, 124
1277, 797, 754, 796
1278, 760, 122, 123
1279, 845, 790, 836
1280, 761, 121, 122
1281, 837, 792, 834
1282, 762, 120, 121
1283, 818, 763, 811
1284, 763, 119, 120
1285, 901, 856, 899
1286, 764, 118, 119
1287, 793, 792, 753
1288, 765, 117, 118
1289, 794, 752, 739
1290, 766, 116, 117
1291, 850, 849, 807
1292, 767, 115, 116
1293, 791, 751, 789
1294, 768, 114, 115
1295, 841, 833, 789
1296, 769, 113, 114
1297, 801, 800, 750
1298, 770, 112, 113
1299, 801, 749, 795
1300, 771, 111, 112
1301, 802, 795, 748
1302, 772, 110, 111
1303, 934, 926, 894
1304, 773, 109, 110
1305, 822, 774, 804
1306, 774, 108, 109
1307, 823, 778, 102
1308, 775, 107, 108
1309, 829, 823, 825
1310, 776, 106, 107
1311, 825, 104, 777
1312, 777, 104, 105
1313, 832, 746, 828
1314, 778, 101, 102
1315, 828, 781, 827
1316, 779, 100, 101
1317, 827, 780, 824
1318, 780,  99, 100
1319, 871, 781, 828
1320, 781,  98,  99
1321, 787, 735, 782
1322, 784, 134, 135
1323, 783, 135, 136
1324, 875, 797, 846
1325, 930, 876, 929
1326, 784, 782, 134
1327, 785, 129, 733
1328, 812, 733, 786
1329, 865, 812, 786
1330, 787, 734, 735
1331, 831, 782, 784
1332, 865, 859, 816
1333, 788, 747,  16
1334, 870, 824, 869
1335, 789, 751, 738
1336, 800, 738, 750
1337, 790, 743, 742
1338, 798, 742, 740
1339, 839, 791, 833
1340, 791, 739, 751
1341, 792, 740, 753
1342, 793, 753, 741
1343, 799, 741, 752
1344, 887, 838, 886
1345, 849, 848, 821
1346, 851, 850, 813
1347, 795, 749, 748
1348, 802, 748, 747
1349, 815, 810, 761
1350, 796, 754, 743
1351, 942, 928, 940
1352, 797, 744, 754
1353, 798, 790, 742
1354, 798, 740, 792
1355, 799, 793, 741
1356, 799, 752, 794
1357, 800, 789, 738
1358, 801, 750, 749
1359, 927, 896, 926
1360, 900, 894, 857
1361, 847, 747, 788
1362, 866, 804, 862
1363, 826, 824, 779
1364, 822, 775, 774
1365, 804, 774, 773
1366, 819, 773, 772
1367, 805, 772, 771
1368, 820, 771, 770
1369, 806, 770, 769
1370, 821, 769, 768
1371, 807, 768, 767
1372, 813, 767, 766
1373, 861, 860, 815
1374, 808, 759, 758
1375, 809, 766, 765
1376, 814, 765, 764
1377, 810, 762, 761
1378, 815, 761, 760
1379, 858, 856, 811
1380, 811, 763, 762
1381, 812, 757, 756
1382, 812, 756, 785
1383, 813, 807, 767
1384, 813, 766, 809
1385, 818, 814, 764
1386, 854, 852, 814
1387, 817, 815, 760
1388, 863, 808, 859
1389, 874, 865, 786
1390, 816, 808, 758
1391, 817, 760, 759
1392, 863, 861, 817
1393, 818, 764, 763
1394, 856, 854, 818
1395, 819, 804, 773
1396, 819, 772, 805
1397, 820, 805, 771
1398, 820, 770, 806
1399, 821, 806, 769
1400, 821, 768, 807
1401, 869, 824, 826
1402, 822, 803, 775
1403, 825, 823, 103
1404, 829, 777, 776
1405, 893, 828, 827
1406, 826, 779, 778
1407, 825, 103, 104
1408, 829, 825, 777
1409, 878, 868, 867
1410, 864, 803, 822
1411, 893, 879, 832
1412, 827, 781, 780
1413, 828, 746, 737
1414, 871, 828, 737
1415, 829, 776, 803
1416, 867, 829, 803
1417, 830, 784, 783
1418, 875, 835, 797
1419, 831, 787, 782
1420, 873, 784, 830
1421, 931, 927, 926
1422, 832, 788, 746
1423, 833, 791, 789
1424, 841, 789, 800
1425, 834, 792, 793
1426, 840, 793, 799
1427, 872, 745, 835
1428, 835, 745, 744
1429, 836, 790, 798
1430, 837, 836, 798
1431, 837, 798, 792
1432, 889, 834, 888
1433, 838, 799, 794
1434, 839, 838, 794
1435, 839, 794, 791
1436, 885, 833, 883
1437, 840, 834, 793
1438, 840, 799, 838
1439, 843, 800, 801
1440, 853, 806, 848
1441, 842, 801, 795
1442, 844, 795, 802
1443, 843, 841, 800
1444, 843, 801, 842
1445, 892, 802, 847
1446, 862, 819, 857
1447, 881, 845, 880
1448, 845, 796, 790
1449, 860, 858, 810
1450, 846, 797, 796
1451, 847, 802, 747
1452, 847, 788, 832
1453, 848, 806, 821
1454, 849, 821, 807
1455, 850, 807, 813
1456, 937, 922, 917
1457, 851, 813, 809
1458, 941, 923, 939
1459, 852, 809, 814
1460, 943, 921, 941
1461, 854, 814, 818
1462, 946, 945, 903
1463, 884, 883, 841
1464, 853, 820, 806
1465, 856, 818, 811
1466, 946, 944, 914
1467, 891, 842, 882
1468, 855, 805, 820
1469, 858, 811, 810
1470, 944, 942, 913
1471, 918, 891, 915
1472, 857, 819, 805
1473, 860, 810, 815
1474, 928, 898, 897
1475, 859, 808, 816
1476, 874, 859, 865
1477, 861, 815, 817
1478, 930, 929, 895
1479, 863, 817, 808
1480, 940, 932, 938
1481, 927, 924, 912
1482, 862, 804, 819
1483, 911, 910, 874
1484, 877, 873, 876
1485, 878, 869, 826
1486, 866, 864, 822
1487, 865, 816, 812
1488, 874, 786, 787
1489, 866, 822, 804
1490, 896, 862, 894
1491, 868, 826, 778
1492, 867, 803, 864
1493, 868, 778, 823
1494, 868, 823, 829
1495, 912, 892, 879
1496, 878, 826, 868
1497, 893, 870, 879
1498, 870, 827, 824
1499, 871, 737,  97
1500, 871,  98, 781
1501, 872, 830, 783
1502, 872, 783, 745
1503, 873, 831, 784
1504, 876, 830, 875
1505, 911, 787, 831
1506, 911, 877, 910
1507, 940, 938, 881
1508, 875, 830, 872
1509, 932, 929, 876
1510, 876, 873, 830
1511, 930, 910, 877
1512, 877, 831, 873
1513, 878, 867, 864
1514, 909, 866, 896
1515, 912, 879, 870
1516, 879, 847, 832
1517, 880, 845, 836
1518, 890, 836, 837
1519, 898, 860, 897
1520, 881, 846, 845
1521, 882, 842, 844
1522, 924, 844, 892
1523, 883, 833, 841
1524, 884, 841, 843
1525, 891, 884, 843
1526, 902, 900, 855
1527, 941, 939, 907
1528, 885, 839, 833
1529, 907, 850, 906
1530, 886, 838, 839
1531, 906, 851, 905
1532, 887, 840, 838
1533, 905, 852, 903
1534, 888, 834, 840
1535, 903, 854, 901
1536, 889, 837, 834
1537, 890, 880, 836
1538, 890, 837, 889
1539, 891, 843, 842
1540, 934, 915, 926
1541, 892, 844, 802
1542, 892, 847, 879
1543, 893, 832, 828
1544, 893, 827, 870
1545, 894, 862, 857
1546, 900, 857, 855
1547, 895, 861, 863
1548, 910, 895, 863
1549, 925, 878, 909
1550, 896, 866, 862
1551, 897, 860, 861
1552, 897, 861, 895
1553, 944, 913, 914
1554, 898, 858, 860
1555, 946, 914, 920
1556, 899, 856, 858
1557, 902, 855, 853
1558, 935, 918, 934
1559, 920, 889, 919
1560, 901, 854, 856
1561, 904, 853, 848
1562, 935, 916, 918
1563, 945, 943, 905
1564, 903, 852, 854
1565, 908, 848, 849
1566, 936, 917, 916
1567, 943, 941, 906
1568, 905, 851, 852
1569, 923, 886, 922
1570, 906, 850, 851
1571, 922, 885, 917
1572, 907, 849, 850
1573, 908, 904, 848
1574, 908, 849, 907
1575, 909, 878, 864
1576, 909, 864, 866
1577, 910, 863, 859
1578, 910, 859, 874
1579, 911, 874, 787
1580, 911, 831, 877
1581, 933, 870, 869
1582, 933, 925, 927
1583, 913, 881, 880
1584, 914, 913, 880
1585, 914, 880, 890
1586, 945, 920, 919
1587, 915, 891, 882
1588, 931, 915, 882
1589, 916, 883, 884
1590, 918, 916, 884
1591, 937, 917, 936
1592, 917, 885, 883
1593, 918, 884, 891
1594, 934, 918, 915
1595, 919, 889, 888
1596, 921, 919, 888
1597, 920, 914, 890
1598, 920, 890, 889
1599, 921, 888, 887
1600, 939, 923, 922
1601, 939, 908, 907
1602, 922, 886, 885
1603, 923, 921, 887
1604, 923, 887, 886
1605, 924, 882, 844
1606, 924, 892, 912
1607, 925, 869, 878
1608, 927, 909, 896
1609, 931, 926, 915
1610, 926, 896, 894
1611, 933, 927, 912
1612, 927, 925, 909
1613, 929, 928, 897
1614, 940, 928, 932
1615, 929, 897, 895
1616, 932, 876, 875
1617, 930, 895, 910
1618, 930, 877, 876
1619, 931, 882, 924
1620, 931, 924, 927
1621, 938, 932, 875
1622, 932, 928, 929
1623, 933, 912, 870
1624, 933, 869, 925
1625, 934, 894, 900
1626, 935, 934, 900
1627, 935, 900, 902
1628, 936, 935, 902
1629, 936, 902, 904
1630, 937, 936, 904
1631, 937, 904, 908
1632, 939, 937, 908
1633, 938, 875, 846
1634, 938, 846, 881
1635, 939, 922, 937
1636, 941, 907, 906
1637, 940, 881, 913
1638, 942, 940, 913
1639, 943, 906, 905
1640, 941, 921, 923
1641, 942, 899, 898
1642, 942, 898, 928
1643, 945, 905, 903
1644, 943, 919, 921
1645, 944, 901, 899
1646, 944, 899, 942
1647, 945, 919, 943
1648, 946, 903, 901
1649, 946, 920, 945
1650, 946, 901, 944
1651,  993,    9,  137
1652, 1034,  994,  948
1653, 1065, 1019, 1063
1654, 1066, 1064, 1013
1655, 1088, 1044, 1085
1656, 1126, 1080, 1113
1657,  142,   10,  143
1658,  947,  142,  143
1659,  977,  145,  976
1660,  948,  140,  141
1661,  950,  139,  949
1662,  951,  138,  950
1663,  162,   11,  163
1664,  992,  163,  164
1665, 1079, 1074, 1071
1666, 1012,  160,  161
1667, 1070,  988, 1029
1668, 1029,  988,  168
1669, 1003,  953,  998
1670,  997,   53,   52
1671,  958,   50,   49
1672, 1027,  968, 1013
1673,  967,   47,   46
1674,  979,  155,  978
1675,  959,  955,   45
1676,  960,   42,  956
1677, 1053, 1050, 1000
1678,  974,  148,  973
1679,  975,  147,  974
1680, 1016,  975, 1015
1681, 1068, 1067, 1016
1682, 1075,  143,  144
1683,   53,  171,    4
1684,  997,  987,  171
1685,  961,   51,  953
1686, 1031,  170,  987
1687, 1029,  168,  169
1688, 1028, 1013,  970
1689,  990,  166,  989
1690,  991,  165,  990
1691,  992,  164,  991
1692,  962,   48,  954
1693,  971,  157,  968
1694, 1009, 1008,  967
1695,  967,   46,  955
1696,  959,   45,   44
1697, 1026,  979,  978
1698, 1057, 1056, 1017
1699,  960,   43,   42
1700, 1018,  980, 1017
1701,  982,  151,  981
1702,  964,   41,   40
1703,  965,   40,   39
1704,  965,   39,  957
1705,  966,  957,   38
1706,  966,   37,  952
1707,  952,   37,    3
1708,  952,    3,  172
1709, 1019, 1015,  974
1710,  948,  141,  947
1711,  947,  141,  142
1712,  976,  146,  975
1713,  949,  140,  948
1714,  993,  985,  175
1715,  949,  139,  140
1716, 1153, 1078, 1113
1717,  950,  138,  139
1718, 1154,  993,  951
1719,  951,  137,  138
1720,  966,   38,   37
1721,  986,  172,  173
1722, 1140, 1110, 1138
1723,  953,   51,   50
1724,  978,  156,  971
1725,  954,   48,   47
1726, 1005,  959, 1004
1727,  955,   46,   45
1728,  982,  150,  151
1729,  956,   42,   41
1730,  965,  964,   40
1731,  957,   39,   38
1732,  958,  953,   50
1733,  962,  958,   49
1734,  963,   44,   43
1735,  980,  153,  972
1736, 1091, 1048, 1083
1737,  981,  152,  980
1738, 1038,  997,  961
1739,  961,   52,   51
1740,  962,   49,   48
1741, 1042, 1041, 1002
1742,  963,  959,   44
1743,  963,   43,  960
1744, 1006, 1001,  964
1745,  964,  956,   41
1746, 1021, 1019,  973
1747, 1006,  965, 1000
1748,  986,  173,  984
1749, 1007, 1000,  957
1750, 1044, 1042,  999
1751,  967,  954,   47
1752,  968,  157,  158
1753,  970,  158,  159
1754,  969,  159,  160
1755,  989,  167,  988
1756,  970,  968,  158
1757,  970,  159,  969
1758, 1009,  967,  955
1759,  971,  156,  157
1760,  972,  153,  154
1761,  979,  154,  155
1762,  973,  148,  149
1763,  983,  149,  150
1764, 1154, 1095,  985
1765,  974,  147,  148
1766, 1075, 1034,  947
1767,  975,  146,  147
1768, 1022,  977,  976
1769,  976,  145,  146
1770, 1075,  977, 1034
1771,  977,  144,  145
1772, 1009,  955, 1005
1773,  978,  155,  156
1774, 1045, 1004, 1043
1775,  979,  972,  154
1776, 1010, 1004,  963
1777,  980,  152,  153
1778, 1011,  956, 1001
1779,  981,  151,  152
1780, 1020,  981, 1018
1781, 1024,  982, 1020
1782,  983,  973,  149
1783,  983,  150,  982
1784,  984,  173,  174
1785,  985,  984,  174
1786,  985,  174,  175
1787,  996,  950,  995
1788, 1054,  952,  986
1789,  986,  952,  172
1790,  987,  170,  171
1791,  997,  171,   53
1792,  988,  167,  168
1793, 1052,  998, 1041
1794, 1142, 1140, 1116
1795,  989,  166,  167
1796, 1074, 1035, 1033
1797,  990,  165,  166
1798, 1035,  992,  991
1799,  991,  164,  165
1800, 1025,  162,  992
1801,  992,  162,  163
1802,  993,  175,    9
1803,  993,  137,  951
1804,  995,  949,  994
1805,  994,  949,  948
1806, 1093, 1039,  994
1807,  995,  950,  949
1808, 1154,  996, 1095
1809,  996,  951,  950
1810,  997,   52,  961
1811, 1038,  961, 1003
1812,  998,  953,  958
1813, 1002,  958,  962
1814,  999,  962,  954
1815, 1008,  954,  967
1816, 1000,  965,  957
1817, 1007,  957,  966
1818, 1001,  956,  964
1819, 1006,  964,  965
1820, 1002,  998,  958
1821, 1002,  962,  999
1822, 1111, 1073, 1094
1823, 1003,  961,  953
1824, 1004,  959,  963
1825, 1010,  963,  960
1826, 1026,  978, 1014
1827, 1005,  955,  959
1828, 1063, 1021, 1061
1829, 1155, 1152, 1131
1830, 1054,  966,  952
1831, 1037,  986,  984
1832, 1047, 1009, 1005
1833, 1008,  999,  954
1834, 1023, 1017,  972
1835, 1047, 1005, 1045
1836, 1011, 1010,  960
1837, 1049, 1048, 1011
1838, 1011,  960,  956
1839, 1121, 1091, 1119
1840, 1012,  969,  160
1841, 1025, 1012,  161
1842, 1013,  968,  970
1843, 1028,  970,  969
1844, 1014,  978,  971
1845, 1027, 1014,  971
1846, 1015,  975,  974
1847, 1019,  974,  973
1848, 1067, 1022, 1016
1849, 1016,  976,  975
1850, 1017,  980,  972
1851, 1023,  972,  979
1852, 1048, 1043, 1010
1853, 1018,  981,  980
1854, 1021,  973,  983
1855, 1077, 1037, 1076
1856, 1084, 1083, 1049
1857, 1020,  982,  981
1858, 1024, 1021,  983
1859, 1092, 1050, 1081
1860, 1093, 1034, 1022
1861, 1022,  976, 1016
1862, 1026, 1023,  979
1863, 1090, 1086, 1045
1864, 1024,  983,  982
1865, 1118, 1092, 1115
1866, 1025,  161,  162
1867, 1035, 1025,  992
1868, 1105, 1055, 1096
1869, 1047, 1046, 1009
1870, 1027,  971,  968
1871, 1147, 1129, 1128
1872, 1069,  969, 1012
1873, 1032,  989, 1030
1874, 1031, 1029,  169
1875, 1073, 1070, 1029
1876, 1030,  989,  988
1877, 1082, 1052, 1041
1878, 1031,  169,  170
1879, 1038, 1031,  987
1880, 1079, 1028, 1069
1881, 1032,  990,  989
1882, 1033,  991,  990
1883, 1033,  990, 1032
1884, 1034,  948,  947
1885, 1034,  977, 1022
1886, 1035, 1012, 1025
1887, 1035,  991, 1033
1888, 1036,  984,  985
1889, 1040,  995, 1039
1890, 1112, 1054, 1037
1891, 1076,  984, 1036
1892, 1038,  987,  997
1893, 1094, 1073, 1038
1894, 1039,  995,  994
1895, 1068, 1015, 1065
1896, 1126, 1095, 1040
1897, 1040,  996,  995
1898, 1041,  998, 1002
1899, 1042, 1002,  999
1900, 1044,  999, 1008
1901, 1064, 1055, 1027
1902, 1043, 1004, 1010
1903, 1048, 1010, 1011
1904, 1046, 1008, 1009
1905, 1147, 1123, 1122
1906, 1059, 1026, 1058
1907, 1045, 1005, 1004
1908, 1058, 1014, 1055
1909, 1046, 1044, 1008
1910, 1146, 1125, 1120
1911, 1124, 1122, 1085
1912, 1049, 1011, 1001
1913, 1060, 1018, 1056
1914, 1051, 1001, 1006
1915, 1062, 1020, 1060
1916, 1050, 1006, 1000
1917, 1053, 1000, 1007
1918, 1051, 1049, 1001
1919, 1051, 1006, 1050
1920, 1150, 1111, 1082
1921, 1052, 1003,  998
1922, 1112, 1007, 1054
1923, 1078, 1077, 1076
1924, 1054, 1007,  966
1925, 1054,  986, 1037
1926, 1055, 1014, 1027
1927, 1064, 1027, 1013
1928, 1056, 1018, 1017
1929, 1057, 1017, 1023
1930, 1059, 1023, 1026
1931, 1146, 1145, 1135
1932, 1087, 1047, 1086
1933, 1058, 1026, 1014
1934, 1125, 1086, 1120
1935, 1059, 1057, 1023
1936, 1119, 1083, 1117
1937, 1060, 1020, 1018
1938, 1061, 1021, 1024
1939, 1062, 1061, 1024
1940, 1062, 1024, 1020
1941, 1101, 1060, 1100
1942, 1155, 1131, 1132
1943, 1063, 1019, 1021
1944, 1066, 1013, 1028
1945, 1148, 1134, 1129
1946, 1080, 1039, 1067
1947, 1065, 1015, 1019
1948, 1079, 1069, 1074
1949, 1072, 1071, 1032
1950, 1093, 1067, 1039
1951, 1068, 1016, 1015
1952, 1153, 1151, 1141
1953, 1098, 1067, 1068
1954, 1069, 1028,  969
1955, 1069, 1012, 1035
1956, 1070, 1030,  988
1957, 1073, 1029, 1031
1958, 1071, 1033, 1032
1959, 1072, 1032, 1030
1960, 1109, 1030, 1070
1961, 1150, 1116, 1138
1962, 1073, 1031, 1038
1963, 1094, 1038, 1003
1964, 1074, 1069, 1035
1965, 1074, 1033, 1071
1966, 1075,  947,  143
1967, 1075,  144,  977
1968, 1076, 1037,  984
1969, 1078, 1076, 1036
1970, 1107, 1063, 1099
1971, 1114, 1112, 1077
1972, 1095, 1078, 1036
1973, 1113, 1080, 1098
1974, 1110, 1071, 1072
1975, 1079, 1066, 1028
1976, 1080, 1040, 1039
1977, 1098, 1080, 1067
1978, 1081, 1050, 1053
1979, 1114, 1053, 1112
1980, 1089, 1041, 1042
1981, 1140, 1138, 1116
1982, 1083, 1048, 1049
1983, 1084, 1049, 1051
1984, 1092, 1084, 1051
1985, 1132, 1101, 1130
1986, 1085, 1044, 1046
1987, 1087, 1046, 1047
1988, 1086, 1047, 1045
1989, 1090, 1045, 1043
1990, 1103, 1102, 1059
1991, 1087, 1085, 1046
1992, 1097, 1096, 1064
1993, 1088, 1042, 1044
1994, 1089, 1082, 1041
1995, 1089, 1042, 1088
1996, 1091, 1090, 1043
1997, 1145, 1120, 1121
1998, 1091, 1043, 1048
1999, 1155, 1132, 1143
2000, 1092, 1051, 1050
2001, 1137, 1099, 1131
2002, 1093,  994, 1034
2003, 1093, 1022, 1067
2004, 1094, 1003, 1052
2005, 1111, 1109, 1070
2006, 1095, 1036,  985
2007, 1095,  996, 1040
2008, 1096, 1055, 1064
2009, 1097, 1064, 1066
2010, 1127, 1066, 1079
2011, 1147, 1142, 1123
2012, 1108, 1068, 1065
2013, 1108, 1065, 1107
2014, 1099, 1063, 1061
2015, 1106, 1061, 1062
2016, 1100, 1060, 1056
2017, 1104, 1056, 1057
2018, 1143, 1119, 1117
2019, 1101, 1062, 1060
2020, 1102, 1057, 1059
2021, 1103, 1059, 1058
2022, 1105, 1103, 1058
2023, 1149, 1136, 1134
2024, 1104, 1100, 1056
2025, 1104, 1057, 1102
2026, 1105, 1058, 1055
2027, 1148, 1122, 1124
2028, 1106, 1099, 1061
2029, 1106, 1062, 1101
2030, 1152, 1151, 1137
2031, 1107, 1065, 1063
2032, 1139, 1107, 1137
2033, 1108, 1098, 1068
2034, 1109, 1072, 1030
2035, 1111, 1070, 1073
2036, 1110, 1079, 1071
2037, 1138, 1072, 1109
2038, 1111, 1094, 1052
2039, 1111, 1052, 1082
2040, 1112, 1053, 1007
2041, 1112, 1037, 1077
2042, 1126, 1113, 1078
2043, 1113, 1098, 1108
2044, 1114, 1081, 1053
2045, 1153, 1141, 1078
2046, 1115, 1092, 1081
2047, 1151, 1081, 1114
2048, 1116, 1082, 1089
2049, 1123, 1089, 1088
2050, 1117, 1083, 1084
2051, 1118, 1117, 1084
2052, 1118, 1084, 1092
2053, 1152, 1137, 1131
2054, 1144, 1121, 1119
2055, 1119, 1091, 1083
2056, 1120, 1086, 1090
2057, 1121, 1120, 1090
2058, 1121, 1090, 1091
2059, 1145, 1144, 1133
2060, 1122, 1088, 1085
2061, 1124, 1085, 1087
2062, 1123, 1116, 1089
2063, 1123, 1088, 1122
2064, 1125, 1124, 1087
2065, 1149, 1124, 1125
2066, 1125, 1087, 1086
2067, 1149, 1146, 1136
2068, 1126, 1078, 1095
2069, 1126, 1040, 1080
2070, 1127, 1097, 1066
2071, 1127, 1079, 1110
2072, 1128, 1096, 1097
2073, 1140, 1097, 1127
2074, 1129, 1105, 1096
2075, 1129, 1096, 1128
2076, 1130, 1101, 1100
2077, 1133, 1130, 1100
2078, 1131, 1099, 1106
2079, 1132, 1131, 1106
2080, 1132, 1106, 1101
2081, 1143, 1132, 1130
2082, 1133, 1100, 1104
2083, 1135, 1133, 1104
2084, 1134, 1103, 1105
2085, 1134, 1105, 1129
2086, 1135, 1104, 1102
2087, 1136, 1135, 1102
2088, 1136, 1102, 1103
2089, 1136, 1103, 1134
2090, 1151, 1114, 1141
2091, 1137, 1107, 1099
2092, 1138, 1110, 1072
2093, 1150, 1138, 1109
2094, 1139, 1113, 1108
2095, 1139, 1108, 1107
2096, 1140, 1128, 1097
2097, 1140, 1127, 1110
2098, 1141, 1114, 1077
2099, 1141, 1077, 1078
2100, 1142, 1116, 1123
2101, 1142, 1128, 1140
2102, 1144, 1143, 1130
2103, 1155, 1143, 1117
2104, 1144, 1119, 1143
2105, 1144, 1130, 1133
2106, 1145, 1121, 1144
2107, 1145, 1133, 1135
2108, 1146, 1120, 1145
2109, 1146, 1135, 1136
2110, 1147, 1128, 1142
2111, 1148, 1147, 1122
2112, 1148, 1129, 1147
2113, 1149, 1148, 1124
2114, 1149, 1134, 1148
2115, 1149, 1125, 1146
2116, 1150, 1109, 1111
2117, 1150, 1082, 1116
2118, 1151, 1139, 1137
2119, 1151, 1115, 1081
2120, 1152, 1118, 1115
2121, 1152, 1115, 1151
2122, 1153, 1113, 1139
2123, 1153, 1139, 1151
2124, 1154,  985,  993
2125, 1154,  951,  996
2126, 1155, 1117, 1118
2127, 1155, 1118, 1152
2128, 1156,  141,  140
2129, 1157,  141, 1156
2130, 1192, 1190, 1172
2131, 1160, 1159,  179
2132, 1160,    8,  132
2133, 1174,  183, 1173
2134, 1184,  193,  194
2135, 1162, 1161,  139
2136, 1158,  176,  177
2137, 1164, 1163,  137
2138, 1217, 1164, 1158
2139, 1164,    9,  176
2140, 1165,  178, 1159
2141,  128,    7,  180
2142, 1166,  128,  180
2143, 1175,  182, 1174
2144, 1168,  130, 1167
2145, 1169,  131, 1168
2146,  189,  188,   12
2147, 1179,  188,  189
2148, 1200, 1183, 1182
2149, 1171,  186, 1170
2150, 1204, 1188, 1186
2151, 1190, 1173, 1172
2152, 1173,  184, 1172
2153, 1195, 1180, 1167
2154, 1211,  180,  181
2155,  196,   10,  142
2156, 1157,  142,  141
2157, 1196, 1156, 1183
2158, 1185, 1184,  194
2159, 1205, 1196, 1201
2160, 1177,  192, 1176
2161, 1178,  191, 1177
2162, 1197, 1194, 1179
2163, 1161,  140,  139
2164, 1186, 1177, 1176
2165, 1187,  196, 1157
2166, 1157,  196,  142
2167, 1165,  177,  178
2168, 1225, 1217, 1199
2169, 1159,  178,  179
2170, 1191, 1173, 1190
2171, 1160,  179,    8
2172, 1169,  132,  131
2173, 1161, 1156,  140
2174, 1162,  139,  138
2175, 1163, 1162,  138
2176, 1202, 1162, 1163
2177, 1163,  138,  137
2178, 1202, 1182, 1162
2179, 1164,  137,    9
2180, 1164,  176, 1158
2181, 1172,  185, 1171
2182, 1165, 1158,  177
2183, 1167,  129, 1166
2184, 1166,  129,  128
2185, 1211, 1195, 1166
2186, 1167,  130,  129
2187, 1181, 1168, 1180
2188, 1168,  131,  130
2189, 1169, 1159, 1160
2190, 1169, 1160,  132
2191, 1170,  186,  187
2192, 1194,  188, 1179
2193, 1192, 1171, 1189
2194, 1171,  185,  186
2195, 1228, 1221, 1222
2196, 1172,  184,  185
2197, 1221, 1215, 1213
2198, 1173,  183,  184
2199, 1193, 1175, 1174
2200, 1174,  182,  183
2201, 1211, 1175, 1195
2202, 1175,  181,  182
2203, 1176,  192,  193
2204, 1183, 1161, 1182
2205, 1188, 1177, 1186
2206, 1177,  191,  192
2207, 1197, 1179, 1178
2208, 1178,  190,  191
2209, 1179,  189,  190
2210, 1179,  190, 1178
2211, 1181, 1169, 1168
2212, 1180, 1168, 1167
2213, 1223, 1159, 1181
2214, 1181, 1159, 1169
2215, 1182, 1161, 1162
2216, 1229, 1226, 1224
2217, 1219, 1203, 1214
2218, 1183, 1156, 1161
2219, 1184, 1176,  193
2220, 1185,  194,  195
2221, 1187, 1185,  195
2222, 1196, 1187, 1157
2223, 1197, 1189, 1170
2224, 1203, 1176, 1184
2225, 1187,  195,  196
2226, 1196, 1157, 1156
2227, 1206, 1197, 1188
2228, 1188, 1178, 1177
2229, 1224, 1200, 1218
2230, 1189, 1171, 1170
2231, 1192, 1172, 1171
2232, 1209, 1190, 1207
2233, 1210, 1191, 1209
2234, 1191, 1174, 1173
2235, 1208, 1189, 1206
2236, 1216, 1212, 1215
2237, 1220, 1195, 1193
2238, 1193, 1174, 1191
2239, 1194, 1170,  187
2240, 1194,  187,  188
2241, 1195, 1167, 1166
2242, 1195, 1175, 1193
2243, 1201, 1183, 1200
2244, 1196, 1185, 1187
2245, 1197, 1170, 1194
2246, 1197, 1178, 1188
2247, 1198, 1165, 1159
2248, 1221, 1213, 1210
2249, 1199, 1158, 1165
2250, 1212, 1165, 1198
2251, 1214, 1201, 1200
2252, 1218, 1182, 1202
2253, 1214, 1205, 1201
2254, 1201, 1196, 1183
2255, 1217, 1163, 1164
2256, 1217, 1202, 1163
2257, 1203, 1186, 1176
2258, 1205, 1203, 1184
2259, 1226, 1208, 1204
2260, 1219, 1186, 1203
2261, 1205, 1184, 1185
2262, 1205, 1185, 1196
2263, 1206, 1189, 1197
2264, 1206, 1188, 1204
2265, 1207, 1190, 1192
2266, 1208, 1207, 1192
2267, 1208, 1192, 1189
2268, 1208, 1206, 1204
2269, 1223, 1213, 1215
2270, 1209, 1191, 1190
2271, 1220, 1210, 1213
2272, 1210, 1193, 1191
2273, 1211, 1166,  180
2274, 1211,  181, 1175
2275, 1212, 1199, 1165
2276, 1215, 1212, 1198
2277, 1213, 1181, 1180
2278, 1220, 1213, 1180
2279, 1214, 1203, 1205
2280, 1230, 1229, 1224
2281, 1223, 1215, 1198
2282, 1222, 1221, 1209
2283, 1229, 1227, 1226
2284, 1216, 1199, 1212
2285, 1217, 1158, 1199
2286, 1225, 1199, 1216
2287, 1218, 1200, 1182
2288, 1225, 1218, 1202
2289, 1219, 1204, 1186
2290, 1224, 1219, 1214
2291, 1220, 1180, 1195
2292, 1220, 1193, 1210
2293, 1221, 1210, 1209
2294, 1222, 1209, 1207
2295, 1227, 1208, 1226
2296, 1229, 1228, 1222
2297, 1223, 1198, 1159
2298, 1223, 1181, 1213
2299, 1224, 1214, 1200
2300, 1229, 1216, 1228
2301, 1230, 1225, 1216
2302, 1225, 1202, 1217
2303, 1226, 1204, 1219
2304, 1226, 1219, 1224
2305, 1227, 1222, 1207
2306, 1227, 1207, 1208
2307, 1228, 1216, 1215
2308, 1228, 1215, 1221
2309, 1229, 1222, 1227
2310, 1230, 1224, 1218
2311, 1230, 1218, 1225
2312, 1230, 1216, 1229
*Orientation, name=Ori-1
1., 0., 0., 0., 1., 0.
3, 0.
** Region: (CompositeLayup-1-1: Generated From Layup)
*Elset, elset=CompositeLayup-1-1, generate
    1,  2312,     1
** Section: CompositeLayup-1-1
*Shell Section, elset=CompositeLayup-1-1, composite, orientation=Ori-1, layup=CompositeLayup-1, symmetric
0.25, 3, CFRP, 0., Ply-1
0.25, 3, CFRP, 45., Ply-2
0.25, 3, CFRP, 90., Ply-3
0.25, 3, CFRP, -45., Ply-4
*End Part
**  
**
** ASSEMBLY
**
*Assembly, name=Assembly
**  
*Instance, name=Plate-1, part=PLATE
*End Instance
**  
*Nset, nset=Set-1, instance=Plate-1
   6,   7,  12, 105, 106, 107, 108, 109, 110, 111, 112, 113, 114, 115, 116, 117
 118, 119, 120, 121, 122, 123, 124, 125, 126, 127, 180, 181, 182, 183, 184, 185
 186, 187, 188
*Elset, elset=Set-1, instance=Plate-1
 1186, 1187, 1194, 1269, 1272, 1274, 1276, 1278, 1280, 1282, 1284, 1286, 1288, 1290, 1292, 1294
 1296, 1298, 1300, 1302, 1304, 1306, 1308, 1310, 2141, 2146, 2154, 2191, 2194, 2196, 2198, 2200
 2202, 2240
*Nset, nset=Set-2, instance=Plate-1
   4,   5,  11,  54,  55,  56,  57,  58,  59,  60,  61,  62,  63,  64,  65,  66
  67,  68,  69,  70,  71,  72,  73,  74,  75,  76, 163, 164, 165, 166, 167, 168
 169, 170, 171
*Elset, elset=Set-2, instance=Plate-1
   28,   29,   45,  139,  140,  143,  145,  147,  149,  151,  153,  155,  157,  159,  161,  163
  165,  167,  169,  171,  173,  175,  177,  179, 1663, 1664, 1683, 1687, 1790, 1792, 1795, 1797
 1799, 1878
*End Assembly
** 
** MATERIALS
** 
*Material, name=CFRP
*Elastic, type=ENGINEERING CONSTANTS
150000.,9000.,9000., 0.34, 0.34,  0.4,5000.,5000.
5000.,
** ----------------------------------------------------------------
** 
** STEP: Step-1
** 
*Step, name=Step-1, nlgeom=NO
*Static
1., 1., 1e-05, 1.
** 
** BOUNDARY CONDITIONS
** 
** Name: BC-1 Type: Symmetry/Antisymmetry/Encastre
*Boundary
Set-1, ENCASTRE
** Name: DISPLACEMENT Type: Displacement/Rotation
*Boundary
Set-2, 1, 1, 1.94737
** 
** OUTPUT REQUESTS
** 
*Restart, write, frequency=0
** 
** FIELD OUTPUT: F-Output-1
** 
*Output, field
*Element Output, position=NODES, directions=YES
E, 
** 
** HISTORY OUTPUT: H-Output-1
** 
*Output, history, variable=PRESELECT
*End Step
