*Heading
** Job name: Plate_165 Model name: Model-1
** Generated by: Abaqus/CAE 2024.HF3
*Preprint, echo=NO, model=NO, history=NO, contact=NO
**
** PARTS
**
*Part, name=PLATE
*Node
      1,   51.5414085,   164.437103,           0.
      2,   51.5414085,    81.813652,           0.
      3,   62.0989761,   71.2560806,           0.
      4,   118.941711,   71.2560806,           0.
      5,   118.941711,   164.437103,           0.
      6,           0.,   164.437103,           0.
      7,           0.,   71.2560806,           0.
      8,   40.9838409,   71.2560806,           0.
      9,   51.5414085,    60.698513,           0.
     10,   51.5414085,           0.,           0.
     11,   118.941711,           0.,           0.
     12,           0.,           0.,           0.
     13,   51.5414085,   160.088501,           0.
     14,   51.5414085,   155.739899,           0.
     15,   51.5414085,   151.391296,           0.
     16,   51.5414085,   147.042694,           0.
     17,   51.5414085,   142.694092,           0.
     18,   51.5414085,    138.34549,           0.
     19,   51.5414085,   133.996887,           0.
     20,   51.5414085,   129.648285,           0.
     21,   51.5414085,   125.299683,           0.
     22,   51.5414085,    120.95108,           0.
     23,   51.5414085,    116.60247,           0.
     24,   51.5414085,   112.253868,           0.
     25,   51.5414085,   107.905266,           0.
     26,   51.5414085,   103.556664,           0.
     27,   51.5414085,   99.2080612,           0.
     28,   51.5414085,   94.8594589,           0.
     29,   51.5414085,   90.5108566,           0.
     30,   51.5414085,   86.1622543,           0.
     31,   55.5816154,   81.0100021,           0.
     32,   59.0067368,    78.721405,           0.
     33,     61.29533,   75.2962875,           0.
     34,   66.4714966,   71.2560806,           0.
     35,   70.8440094,   71.2560806,           0.
     36,   75.2165298,   71.2560806,           0.
     37,   79.5890503,   71.2560806,           0.
     38,   83.9615631,   71.2560806,           0.
     39,   88.3340836,   71.2560806,           0.
     40,    92.706604,   71.2560806,           0.
     41,   97.0791168,   71.2560806,           0.
     42,   101.451637,   71.2560806,           0.
     43,   105.824158,   71.2560806,           0.
     44,   110.196671,   71.2560806,           0.
     45,   114.569191,   71.2560806,           0.
     46,   118.941711,   75.6932755,           0.
     47,   118.941711,   80.1304626,           0.
     48,   118.941711,   84.5676575,           0.
     49,   118.941711,   89.0048447,           0.
     50,   118.941711,   93.4420395,           0.
     51,   118.941711,   97.8792343,           0.
     52,   118.941711,   102.316422,           0.
     53,   118.941711,   106.753616,           0.
     54,   118.941711,   111.190804,           0.
     55,   118.941711,   115.627998,           0.
     56,   118.941711,   120.065193,           0.
     57,   118.941711,    124.50238,           0.
     58,   118.941711,   128.939575,           0.
     59,   118.941711,    133.37677,           0.
     60,   118.941711,   137.813965,           0.
     61,   118.941711,   142.251144,           0.
     62,   118.941711,   146.688339,           0.
     63,   118.941711,   151.125534,           0.
     64,   118.941711,   155.562729,           0.
     65,   118.941711,   159.999924,           0.
     66,   114.448357,   164.437103,           0.
     67,   109.955002,   164.437103,           0.
     68,   105.461647,   164.437103,           0.
     69,     100.9683,   164.437103,           0.
     70,   96.4749451,   164.437103,           0.
     71,   91.9815903,   164.437103,           0.
     72,   87.4882355,   164.437103,           0.
     73,   82.9948807,   164.437103,           0.
     74,   78.5015259,   164.437103,           0.
     75,   74.0081787,   164.437103,           0.
     76,   69.5148239,   164.437103,           0.
     77,   65.0214691,   164.437103,           0.
     78,   60.5281143,   164.437103,           0.
     79,   56.0347595,   164.437103,           0.
     80,   47.2462921,   164.437103,           0.
     81,   42.9511719,   164.437103,           0.
     82,   38.6560555,   164.437103,           0.
     83,    34.360939,   164.437103,           0.
     84,   30.0658207,   164.437103,           0.
     85,   25.7707043,   164.437103,           0.
     86,   21.4755859,   164.437103,           0.
     87,   17.1804695,   164.437103,           0.
     88,   12.8853521,   164.437103,           0.
     89,   8.59023476,   164.437103,           0.
     90,   4.29511738,   164.437103,           0.
     91,           0.,   159.999924,           0.
     92,           0.,   155.562729,           0.
     93,           0.,   151.125534,           0.
     94,           0.,   146.688339,           0.
     95,           0.,   142.251144,           0.
     96,           0.,   137.813965,           0.
     97,           0.,    133.37677,           0.
     98,           0.,   128.939575,           0.
     99,           0.,    124.50238,           0.
    100,           0.,   120.065193,           0.
    101,           0.,   115.627998,           0.
    102,           0.,   111.190804,           0.
    103,           0.,   106.753616,           0.
    104,           0.,   102.316422,           0.
    105,           0.,   97.8792343,           0.
    106,           0.,   93.4420395,           0.
    107,           0.,   89.0048447,           0.
    108,           0.,   84.5676575,           0.
    109,           0.,   80.1304626,           0.
    110,           0.,   75.6932755,           0.
    111,   4.55376005,   71.2560806,           0.
    112,    9.1075201,   71.2560806,           0.
    113,   13.6612797,   71.2560806,           0.
    114,   18.2150402,   71.2560806,           0.
    115,   22.7688007,   71.2560806,           0.
    116,   27.3225594,   71.2560806,           0.
    117,   31.8763199,   71.2560806,           0.
    118,   36.4300804,   71.2560806,           0.
    119,    41.787487,   75.2962875,           0.
    120,   44.0760803,    78.721405,           0.
    121,   47.5012016,   81.0100021,           0.
    122,   51.5414085,   56.3629036,           0.
    123,   51.5414085,    52.027298,           0.
    124,   51.5414085,   47.6916885,           0.
    125,   51.5414085,   43.3560791,           0.
    126,   51.5414085,   39.0204735,           0.
    127,   51.5414085,    34.684864,           0.
    128,   51.5414085,   30.3492565,           0.
    129,   51.5414085,    26.013649,           0.
    130,   51.5414085,   21.6780396,           0.
    131,   51.5414085,    17.342432,           0.
    132,   51.5414085,   13.0068245,           0.
    133,   51.5414085,   8.67121601,           0.
    134,   51.5414085,   4.33560801,           0.
    135,   56.0347595,           0.,           0.
    136,   60.5281143,           0.,           0.
    137,   65.0214691,           0.,           0.
    138,   69.5148239,           0.,           0.
    139,   74.0081787,           0.,           0.
    140,   78.5015259,           0.,           0.
    141,   82.9948807,           0.,           0.
    142,   87.4882355,           0.,           0.
    143,   91.9815903,           0.,           0.
    144,   96.4749451,           0.,           0.
    145,     100.9683,           0.,           0.
    146,   105.461647,           0.,           0.
    147,   109.955002,           0.,           0.
    148,   114.448357,           0.,           0.
    149,   118.941711,   4.45350504,           0.
    150,   118.941711,   8.90701008,           0.
    151,   118.941711,   13.3605146,           0.
    152,   118.941711,   17.8140202,           0.
    153,   118.941711,   22.2675247,           0.
    154,   118.941711,   26.7210293,           0.
    155,   118.941711,   31.1745358,           0.
    156,   118.941711,   35.6280403,           0.
    157,   118.941711,   40.0815468,           0.
    158,   118.941711,   44.5350494,           0.
    159,   118.941711,   48.9885559,           0.
    160,   118.941711,   53.4420586,           0.
    161,   118.941711,    57.895565,           0.
    162,   118.941711,   62.3490715,           0.
    163,   118.941711,   66.8025742,           0.
    164,     61.29533,   67.2158737,           0.
    165,   59.0067368,   63.7907524,           0.
    166,   55.5816154,   61.5021591,           0.
    167,   47.5012016,   61.5021591,           0.
    168,   44.0760803,   63.7907524,           0.
    169,    41.787487,   67.2158737,           0.
    170,           0.,   66.8025742,           0.
    171,           0.,   62.3490715,           0.
    172,           0.,    57.895565,           0.
    173,           0.,   53.4420586,           0.
    174,           0.,   48.9885559,           0.
    175,           0.,   44.5350494,           0.
    176,           0.,   40.0815468,           0.
    177,           0.,   35.6280403,           0.
    178,           0.,   31.1745358,           0.
    179,           0.,   26.7210293,           0.
    180,           0.,   22.2675247,           0.
    181,           0.,   17.8140202,           0.
    182,           0.,   13.3605146,           0.
    183,           0.,   8.90701008,           0.
    184,           0.,   4.45350504,           0.
    185,   4.29511738,           0.,           0.
    186,   8.59023476,           0.,           0.
    187,   12.8853521,           0.,           0.
    188,   17.1804695,           0.,           0.
    189,   21.4755859,           0.,           0.
    190,   25.7707043,           0.,           0.
    191,   30.0658207,           0.,           0.
    192,    34.360939,           0.,           0.
    193,   38.6560555,           0.,           0.
    194,   42.9511719,           0.,           0.
    195,   47.2462921,           0.,           0.
    196,   55.5874138,   158.578629,           0.
    197,   55.3123283,   136.170883,           0.
    198,   55.3102417,   123.125381,           0.
    199,   55.3101616,   144.864517,           0.
    200,   55.3142471,   140.519409,           0.
    201,   55.3114929,   131.822388,           0.
    202,   55.3110008,    127.47393,           0.
    203,   55.3103638,   118.776779,           0.
    204,   55.3102951,   114.428162,           0.
    205,   55.3101501,   110.079445,           0.
    206,   55.3087349,   105.730286,           0.
    207,   55.3042488,    101.38076,           0.
    208,   55.2958603,   97.0314178,           0.
    209,   59.1295357,   82.2518616,           0.
    210,   55.2265091,   92.7086334,           0.
    211,   55.2166138,      88.4431,           0.
    212,   55.3256035,   84.3414001,           0.
    213,   62.3892593,   79.0924072,           0.
    214,   90.5204926,   75.0450287,           0.
    215,   86.1474228,   75.0428391,           0.
    216,   81.7741928,   75.0389252,           0.
    217,   77.4011993,   75.0325928,           0.
    218,   73.1010895,   75.1102753,           0.
    219,   68.7921982,   75.2136841,           0.
    220,   115.110268,    153.31279,           0.
    221,    115.10778,   148.913132,           0.
    222,   115.103043,   144.470383,           0.
    223,    115.10218,   140.032593,           0.
    224,   115.102066,   135.595352,           0.
    225,   115.102043,   131.158173,           0.
    226,   115.102043,   126.720978,           0.
    227,    115.10199,   122.283783,           0.
    228,   115.102112,   117.846596,           0.
    229,   115.102142,   113.409401,           0.
    230,   115.102081,   108.972191,           0.
    231,    115.10228,   104.534966,           0.
    232,   115.102921,   100.097679,           0.
    233,   115.103752,   95.6603775,           0.
    234,   115.101395,   91.2150726,           0.
    235,   115.048698,   86.6661072,           0.
    236,   114.929276,   81.9817505,           0.
    237,   114.937592,   77.1529465,           0.
    238,     62.76651,   160.587723,           0.
    239,   85.2439957,   160.554642,           0.
    240,   89.7363739,   160.554977,           0.
    241,   94.2287521,   160.555099,           0.
    242,    98.728569,   160.554199,           0.
    243,   103.325874,   160.514923,           0.
    244,   108.064178,   160.405548,           0.
    245,   112.964317,   160.395508,           0.
    246,   64.6149368,   75.2262115,           0.
    247,   59.0826187,   125.299484,           0.
    248,   55.3468323,   149.248337,           0.
    249,   59.0908394,   138.344864,           0.
    250,   59.0559464,   99.1965103,           0.
    251,   59.0867729,   133.995514,           0.
    252,   59.0844955,   129.647568,           0.
    253,   59.0816689,   116.602432,           0.
    254,    59.081562,   112.253601,           0.
    255,   59.0719109,   103.550491,           0.
    256,   58.9871292,   94.8434372,           0.
    257,   58.9806023,   90.5566177,           0.
    258,   59.0882912,   142.693375,           0.
    259,   59.0826225,   120.950989,           0.
    260,   59.0794296,   107.903015,           0.
    261,   94.8930283,   75.0469818,           0.
    262,   103.608429,   75.0362473,           0.
    263,   99.2543716,   75.0402451,           0.
    264,   79.5818481,   78.8254929,           0.
    265,   88.3318481,   78.8330841,           0.
    266,   83.9565735,   78.8269119,           0.
    267,   75.2514114,   78.9453354,           0.
    268,   70.8762741,   79.1509018,           0.
    269,   111.645111,    74.777359,           0.
    270,   111.264755,    124.50238,           0.
    271,   110.968353,   84.2296066,           0.
    272,   111.266098,   93.4298248,           0.
    273,   111.265373,    106.75338,           0.
    274,   111.261467,   142.259933,           0.
    275,   111.264763,   133.376724,           0.
    276,   111.265396,    128.93956,           0.
    277,   111.265396,   111.190712,           0.
    278,     111.2668,   102.315842,           0.
    279,   115.369194,     157.0616,           0.
    280,   111.263824,   137.816605,           0.
    281,   111.265099,   120.065186,           0.
    282,   111.265602,   115.627975,           0.
    283,    111.26828,    97.876297,           0.
    284,   111.060242,   88.8555984,           0.
    285,   111.255722,   146.759293,           0.
    286,   111.246742,   151.206955,           0.
    287,    80.750267,   160.556366,           0.
    288,   96.4937973,    156.65712,           0.
    289,   87.4929352,    156.67984,           0.
    290,   105.763344,   156.447998,           0.
    291,   58.9627724,   160.889679,           0.
    292,   67.2364044,   160.563156,           0.
    293,   76.2556992,   160.557999,           0.
    294,    71.751915,   160.560211,           0.
    295,   91.9874878,   156.676926,           0.
    296,   101.105423,   156.482407,           0.
    297,   59.1741524,   86.2712784,           0.
    298,   63.5687904,    83.614357,           0.
    299,    110.52179,   79.1725311,           0.
    300,   59.9285545,   156.432632,           0.
    301,    110.89624,    155.97876,           0.
    302,    62.866333,   88.3875504,           0.
    303,   66.4496994,   79.2793427,           0.
    304,   62.8633041,      131.819,           0.
    305,   62.8603897,   127.472305,           0.
    306,    62.856411,   114.427681,           0.
    307,   62.8574371,   118.776489,           0.
    308,    62.858963,    123.12471,           0.
    309,   55.5133514,   153.795883,           0.
    310,   62.8550262,   110.076805,           0.
    311,   62.8465347,   105.720512,           0.
    312,   62.8704376,   136.167465,           0.
    313,   62.8826103,   140.530457,           0.
    314,   62.8230247,   101.355377,           0.
    315,   62.7359505,   92.6810074,           0.
    316,   62.7640381,   96.9881821,           0.
    317,   59.1172981,   147.074615,           0.
    318,   97.0633621,   78.8272095,           0.
    319,   107.922363,    75.051384,           0.
    320,   101.421318,   78.8088455,           0.
    321,   86.1363831,   82.6210861,           0.
    322,   81.7572021,   82.6374893,           0.
    323,   72.9263992,   83.1292038,           0.
    324,   77.3733826,   82.8257751,           0.
    325,   92.7024536,   78.8360901,           0.
    326,    107.43129,   122.283775,           0.
    327,   107.496017,    149.08165,           0.
    328,   107.428429,    135.59668,           0.
    329,   107.431541,   126.720955,           0.
    330,   107.430954,   131.158264,           0.
    331,   107.431854,   117.846573,           0.
    332,   107.464684,   144.563324,           0.
    333,    107.43203,   140.057053,           0.
    334,   107.432167,   113.409241,           0.
    335,     107.4328,   108.971634,           0.
    336,   107.434158,   104.533745,           0.
    337,   107.437431,   100.098541,           0.
    338,    107.44413,   95.6777039,           0.
    339,    107.28653,   91.2727661,           0.
    340,   106.549835,    86.470192,           0.
    341,   82.9990616,   156.683075,           0.
    342,   64.8356171,   156.589371,           0.
    343,   74.0118103,   156.683212,           0.
    344,    89.745224,   152.810303,           0.
    345,   94.2647552,   152.773193,           0.
    346,    103.59053,   151.959732,           0.
    347,   98.7477188,   152.634872,           0.
    348,   78.5040359,   156.686005,           0.
    349,   69.4265518,   156.557495,           0.
    350,   66.3359528,   86.7366028,           0.
    351,   68.4292831,    83.270195,           0.
    352,   66.4621429,   94.7913361,           0.
    353,    66.650795,   133.989853,           0.
    354,   66.6654205,   138.327591,           0.
    355,   66.6359558,    116.60154,           0.
    356,   66.6375351,   120.950043,           0.
    357,   66.6399536,   125.297218,           0.
    358,   66.6448059,   129.643005,           0.
    359,   66.6263733,   107.891998,           0.
    360,   66.6339493,   112.249626,           0.
    361,   59.2554016,   151.503036,           0.
    362,   66.5319977,   99.1346512,           0.
    363,   62.9073524,   144.938248,           0.
    364,   66.5953293,   103.516815,           0.
    365,   75.1450882,   86.8275375,           0.
    366,   94.8927536,   82.6518936,           0.
    367,   99.3033371,   82.6440659,           0.
    368,   90.5126419,   82.6320343,           0.
    369,   79.5248184,    86.565033,           0.
    370,   83.9178162,   86.4565506,           0.
    371,   105.765755,   78.8040619,           0.
    372,   107.489639,   82.2436676,           0.
    373,   103.600128,   128.938965,           0.
    374,   103.601608,   124.502106,           0.
    375,   103.602142,   120.065094,           0.
    376,   103.602646,   115.627747,           0.
    377,   103.598709,   133.374115,           0.
    378,   103.605103,   137.813858,           0.
    379,   103.555565,   142.368423,           0.
    380,   103.635826,   146.980301,           0.
    381,   103.603745,   111.189857,           0.
    382,   103.609291,   102.316902,           0.
    383,   103.606293,   106.752029,           0.
    384,   103.728844,   89.7092972,           0.
    385,   103.558678,   93.4940186,           0.
    386,   103.598228,   97.8808899,           0.
    387,   107.798576,   152.935013,           0.
    388,   85.2485886,   152.816956,           0.
    389,   66.9169998,   152.124634,           0.
    390,   100.358238,   149.060638,           0.
    391,   96.4983063,   148.864029,           0.
    392,   92.0321655,   148.868408,           0.
    393,    76.255394,   152.826859,           0.
    394,   71.7603378,   152.736923,           0.
    395,   80.7513428,   152.823547,           0.
    396,   66.4953003,   90.4674988,           0.
    397,   62.7754936,   153.200424,           0.
    398,   70.4065323,   87.6151886,           0.
    399,   62.9473152,    149.34758,           0.
    400,   66.7665939,   147.242462,           0.
    401,    70.447464,    136.13356,           0.
    402,   70.4352112,   131.808502,           0.
    403,   70.4228668,   123.122063,           0.
    404,    70.428566,   127.466461,           0.
    405,   70.4208374,   118.774689,           0.
    406,   70.4184647,   114.424355,           0.
    407,   70.4120407,   110.065186,           0.
    408,    70.388443,   105.687431,           0.
    409,   70.3546295,   96.8522415,           0.
    410,   66.7976837,   142.752716,           0.
    411,   92.6320648,   86.5418701,           0.
    412,   97.0950241,   86.5992126,           0.
    413,   88.2687759,   86.4916077,           0.
    414,   103.695412,   82.5688553,           0.
    415,   70.3526688,   101.288048,           0.
    416,   77.2765656,   90.3871155,           0.
    417,   81.6701508,   90.2722855,           0.
    418,   99.7616348,     139.9758,           0.
    419,   99.2180252,   144.814011,           0.
    420,   99.7754211,   131.149933,           0.
    421,   99.7895355,   135.564331,           0.
    422,   99.7767105,   117.846161,           0.
    423,   99.7762375,   122.283066,           0.
    424,   99.7758408,   126.717743,           0.
    425,   99.7783813,   113.408051,           0.
    426,    99.780899,   108.969139,           0.
    427,   99.7850189,   104.530617,           0.
    428,   99.7683792,   100.075157,           0.
    429,    99.521637,   90.9114609,           0.
    430,   99.7740326,   95.6988678,           0.
    431,   87.5167999,   148.902847,           0.
    432,   78.4582825,   148.989456,           0.
    433,   94.3402863,   144.905212,           0.
    434,   73.9414368,   149.009048,           0.
    435,   82.9962158,   148.955322,           0.
    436,   70.2720795,   92.4060364,           0.
    437,   73.5306625,    90.313652,           0.
    438,   74.2287445,   133.972244,           0.
    439,   74.2212372,   129.634277,           0.
    440,   74.2150803,   125.291252,           0.
    441,   74.2107773,   120.946259,           0.
    442,   74.2075348,   116.597527,           0.
    443,   74.2017899,   112.239624,           0.
    444,   74.1858902,   107.862999,           0.
    445,   70.5622025,   140.444504,           0.
    446,   90.1576462,    90.374588,           0.
    447,   94.5813522,   90.5546265,           0.
    448,   85.9127426,    90.193428,           0.
    449,   101.649017,   86.4838486,           0.
    450,   74.1311264,   103.439156,           0.
    451,   74.6255951,   94.3179932,           0.
    452,   74.1262665,   99.0345612,           0.
    453,   79.4107285,   94.0931396,           0.
    454,   96.0315018,   137.746857,           0.
    455,   95.9818344,   133.354034,           0.
    456,   95.9597244,   128.929703,           0.
    457,   95.9549026,   120.063606,           0.
    458,    95.955719,   124.498032,           0.
    459,   95.9569244,   115.625931,           0.
    460,    95.959816,   111.186577,           0.
    461,   95.9643555,   106.746117,           0.
    462,   95.8767014,   102.283211,           0.
    463,   95.8658066,    97.828804,           0.
    464,   96.3050766,   93.9748611,           0.
    465,   89.7717285,   144.890442,           0.
    466,   70.1011658,   149.241119,           0.
    467,   80.6725769,   145.059174,           0.
    468,   76.0810699,   145.177673,           0.
    469,   85.2287827,   145.032959,           0.
    470,   96.2948761,   141.584625,           0.
    471,   71.1892166,   145.131653,           0.
    472,   92.1242065,   140.499817,           0.
    473,   78.0992203,   131.764816,           0.
    474,   77.9961853,   127.394524,           0.
    475,   77.9736328,   123.008179,           0.
    476,   77.9577332,   118.621964,           0.
    477,   77.9319839,    114.27272,           0.
    478,   77.9345932,   109.923256,           0.
    479,   74.2534637,   138.268341,           0.
    480,   74.0610504,   141.976791,           0.
    481,   83.8718643,   94.0360489,           0.
    482,   87.7576294,   93.4428864,           0.
    483,   77.8903275,   105.504364,           0.
    484,   77.7901535,   101.115929,           0.
    485,   92.1317749,   135.674622,           0.
    486,   92.0587082,   131.223953,           0.
    487,   92.2065964,   126.764069,           0.
    488,   92.2590408,    122.29953,           0.
    489,    92.264473,   117.837952,           0.
    490,   92.2494507,   113.418869,           0.
    491,   92.2671814,   109.013229,           0.
    492,   92.1378174,    104.58828,           0.
    493,   91.8392258,   99.9765701,           0.
    494,   91.9385834,   94.8403091,           0.
    495,   78.2064819,   140.837219,           0.
    496,   82.9660416,   141.259979,           0.
    497,   87.3248978,   141.154495,           0.
    498,   77.5026779,   97.3837357,           0.
    499,   81.7158737,   98.4091415,           0.
    500,   81.7401886,   129.266968,           0.
    501,   81.6362457,   124.924103,           0.
    502,   81.5948029,   120.549431,           0.
    503,   81.5452118,   116.198601,           0.
    504,   81.5505753,   111.858109,           0.
    505,   78.0897369,   136.117706,           0.
    506,   81.5148621,   107.497742,           0.
    507,   87.1792908,   97.8040009,           0.
    508,   87.7214432,   133.668259,           0.
    509,   88.4735413,   128.951126,           0.
    510,   81.4720078,   103.176414,           0.
    511,   88.6668549,   124.558876,           0.
    512,   88.6923981,   120.141533,           0.
    513,   88.6606369,   115.751709,           0.
    514,   88.6757431,   111.378662,           0.
    515,   88.5923157,   107.016441,           0.
    516,   88.2782516,   102.652763,           0.
    517,   85.1047592,   137.603561,           0.
    518,   88.8814163,   137.720154,           0.
    519,    85.143364,   126.790733,           0.
    520,   82.4536667,   133.850937,           0.
    521,   81.3641357,   137.933884,           0.
    522,   85.1064453,     130.5056,           0.
    523,   84.7487106,   101.439857,           0.
    524,   85.1386414,   122.506828,           0.
    525,   84.9453354,   105.199333,           0.
    526,   85.1212463,   118.150017,           0.
    527,   85.0624313,   109.450378,           0.
    528,   85.1026382,   113.797913,           0.
    529,   47.7717667,   118.776794,           0.
    530,   40.2867775,   79.4869537,           0.
    531,   47.7646637,   140.522263,           0.
    532,   47.7720757,   136.171936,           0.
    533,   47.7723885,   131.822845,           0.
    534,   47.7719841,   127.474075,           0.
    535,   47.7714767,   123.125427,           0.
    536,   47.7716713,   114.428177,           0.
    537,   47.7717743,   110.079506,           0.
    538,   47.7729378,   105.730476,           0.
    539,   47.7768478,   101.381119,           0.
    540,   47.7860909,   97.0313034,           0.
    541,   47.7106514,   92.7544937,           0.
    542,   47.6603622,   88.4746552,           0.
    543,    5.8702774,   160.465393,           0.
    544,    10.545022,   160.513718,           0.
    545,   14.9977512,   160.656967,           0.
    546,   19.3220634,   160.693375,           0.
    547,   23.6226635,   160.704208,           0.
    548,   27.9185371,   160.707977,           0.
    549,   32.2131538,   160.707169,           0.
    550,   36.5292053,    160.67038,           0.
    551,   40.9977646,   160.546555,           0.
    552,   45.6985168,   160.519577,           0.
    553,   4.07692862,   77.3163147,           0.
    554,   4.02968597,   82.1476212,           0.
    555,   3.88129711,   86.7503281,           0.
    556,   3.84901094,   91.2171402,           0.
    557,   3.84112978,   95.6596375,           0.
    558,   3.83927035,   100.097687,           0.
    559,   3.83882022,   104.535011,           0.
    560,   3.83871531,   108.972214,           0.
    561,   3.83860421,   113.409409,           0.
    562,   3.83859324,   117.846596,           0.
    563,   3.83875489,   122.283791,           0.
    564,   3.83874893,   126.720985,           0.
    565,   3.83823681,   131.158264,           0.
    566,   3.83652115,   135.595779,           0.
    567,   3.83386779,   140.033264,           0.
    568,   3.83042741,   144.470612,           0.
    569,   3.87342739,   148.947861,           0.
    570,    3.8743856,   153.370712,           0.
    571,   20.5060062,   75.1565628,           0.
    572,    25.055994,   75.1403885,           0.
    573,   29.5740585,   75.0654068,           0.
    574,   33.9947624,   75.0534363,           0.
    575,   38.2443466,   75.2009888,           0.
    576,    43.952282,   82.3490143,           0.
    577,   47.6781807,   84.3576355,           0.
    578,   21.4771385,   156.959015,           0.
    579,   30.0665989,   156.971863,           0.
    580,   12.7741852,   156.786469,           0.
    581,   17.1162586,    156.90123,           0.
    582,   38.6707039,   156.857941,           0.
    583,    34.354248,    156.94014,           0.
    584,    25.773016,    156.96701,           0.
    585,   47.6898727,   144.891296,           0.
    586,   47.5871887,   149.277908,           0.
    587,   43.9991493,   125.299927,           0.
    588,    47.979248,   157.262497,           0.
    589,   44.0248337,   99.1978149,           0.
    590,   44.0085945,   103.551361,           0.
    591,   43.9991455,   112.253601,           0.
    592,   43.9985008,   116.602478,           0.
    593,   44.0001488,   129.648956,           0.
    594,   44.0022774,   133.998642,           0.
    595,   43.9830399,   138.345795,           0.
    596,   43.9781456,   94.9164886,           0.
    597,   43.9745522,   90.6259384,           0.
    598,   47.6301193,   153.579636,           0.
    599,   44.0010338,    107.90329,           0.
    600,   43.9980049,   120.951233,           0.
    601,   7.68170452,   93.4419022,           0.
    602,   7.67418528,   124.502419,           0.
    603,   7.87618971,   84.4149857,           0.
    604,   7.67608738,    97.879425,           0.
    605,    7.6741662,   102.316505,           0.
    606,   7.67376995,   106.753647,           0.
    607,   7.67371416,   111.190819,           0.
    608,   7.67370987,   120.065216,           0.
    609,   7.67291069,   128.940018,           0.
    610,   7.66949224,   133.378448,           0.
    611,    7.6564393,   142.255173,           0.
    612,   7.77596712,   146.788681,           0.
    613,   7.66274166,   137.817413,           0.
    614,   7.74087238,   88.9290466,           0.
    615,   7.67330742,   115.628014,           0.
    616,   7.79495716,   151.313293,           0.
    617,   15.9213772,   75.2030716,           0.
    618,   11.3833809,    75.221962,           0.
    619,    22.821867,   79.0090485,           0.
    620,   27.3234921,   78.9439011,           0.
    621,    31.741827,   78.8689117,           0.
    622,   35.9788208,   78.8586349,           0.
    623,   7.94139576,   156.133011,           0.
    624,   43.5275078,   156.257339,           0.
    625,   37.5158997,   82.1492386,           0.
    626,   44.0235977,   86.4013672,           0.
    627,   32.2041779,   153.213821,           0.
    628,   36.4933548,   153.220551,           0.
    629,   27.9227066,   153.221924,           0.
    630,   23.6237259,   153.181564,           0.
    631,   19.2427521,   153.124893,           0.
    632,   14.8919601,   153.129898,           0.
    633,   40.2946701,   153.444443,           0.
    634,   40.2214851,   114.427826,           0.
    635,   40.2318497,   105.721672,           0.
    636,   40.2236404,   110.076416,           0.
    637,   43.6461601,    151.50383,           0.
    638,   40.2205658,   118.776932,           0.
    639,   40.2232132,   127.475464,           0.
    640,   40.2207794,   123.126038,           0.
    641,   40.2264862,   131.826614,           0.
    642,   40.2308006,   136.144974,           0.
    643,   40.2532196,    101.35923,           0.
    644,   40.2565231,   97.0550003,           0.
    645,   40.2595444,   92.6891174,           0.
    646,   43.6692009,   147.070297,           0.
    647,   43.8699074,   142.669693,           0.
    648,   11.5044909,   113.409401,           0.
    649,   11.5040417,   117.846626,           0.
    650,   11.5039158,    108.97216,           0.
    651,   11.5040512,   122.283875,           0.
    652,    11.502943,   126.721962,           0.
    653,   11.5038576,   104.534904,           0.
    654,   11.4981174,   131.161377,           0.
    655,   11.5054827,   100.097153,           0.
    656,   11.5123587,   95.6525116,           0.
    657,   11.5586014,   91.0999756,           0.
    658,   11.4879932,   135.598938,           0.
    659,   11.4682579,   140.018875,           0.
    660,   11.5397072,    144.41098,           0.
    661,   12.1568155,   149.187088,           0.
    662,   11.6336918,   86.5415649,           0.
    663,   8.56306744,   79.3869324,           0.
    664,   18.2029495,   79.1545105,           0.
    665,   29.6237411,   82.8371658,           0.
    666,   25.0902081,   82.8102798,           0.
    667,   3.53721166,   157.106354,           0.
    668,   13.5452414,   79.1848526,           0.
    669,   39.2734222,   149.400238,           0.
    670,   40.4951172,   84.0961685,           0.
    671,   40.3331261,   88.2917328,           0.
    672,   34.5099716,   149.595917,           0.
    673,   30.1538887,   149.514832,           0.
    674,   25.8223915,   149.408279,           0.
    675,   21.4394093,   149.251038,           0.
    676,   16.9777222,    149.26358,           0.
    677,   11.1118631,   153.309952,           0.
    678,   39.8436165,   144.750687,           0.
    679,   36.4403191,   125.302086,           0.
    680,    36.440815,   112.250359,           0.
    681,   36.4488869,   107.891747,           0.
    682,   36.4382019,    120.95192,           0.
    683,   36.4380722,   116.601692,           0.
    684,   36.4444199,   129.655151,           0.
    685,   36.4552498,   133.938278,           0.
    686,   40.0059814,   140.426437,           0.
    687,   36.4948082,    99.188736,           0.
    688,   36.4679832,   103.530724,           0.
    689,   36.4816666,    94.753212,           0.
    690,   33.9936752,   82.6196823,           0.
    691,   15.5294418,    88.639328,           0.
    692,    15.534049,   93.2523727,           0.
    693,    15.391799,   97.8283005,           0.
    694,   15.3427477,   102.305222,           0.
    695,   15.3307686,   106.751503,           0.
    696,   15.3291636,   111.190285,           0.
    697,    15.329011,   115.627899,           0.
    698,   15.3291149,     120.0653,           0.
    699,   15.3279791,   124.503891,           0.
    700,   15.3225451,   128.944885,           0.
    701,   15.0117073,   145.985016,           0.
    702,   15.2527781,   142.196671,           0.
    703,   11.4654818,   82.6282196,           0.
    704,   15.2819099,   137.809158,           0.
    705,   15.3068399,   133.383667,           0.
    706,    20.601223,   82.9530029,           0.
    707,   27.3512497,   86.6800079,           0.
    708,   7.53693151,   74.8874741,           0.
    709,   15.7035046,    83.658577,           0.
    710,   36.8435402,    85.770668,           0.
    711,   36.4830666,   90.1957855,           0.
    712,   32.5396156,   146.000305,           0.
    713,   28.1320267,   145.776947,           0.
    714,   19.0693779,   109.116463,           0.
    715,   20.1265507,   90.7456589,           0.
    716,   19.4536953,   95.7465591,           0.
    717,   32.2985153,   87.2349777,           0.
    718,   18.9594612,     86.52388,           0.
    719,   36.3468819,   146.440323,           0.
    720,    19.101984,   144.922058,           0.
    721,   19.0895691,   122.401978,           0.
    722,   19.0767307,   117.984528,           0.
    723,   19.0522099,   113.586517,           0.
    724,   19.0727196,   126.872368,           0.
    725,   36.2522964,   138.030136,           0.
    726,   35.4474831,   142.454636,           0.
    727,   19.0669918,   104.703354,           0.
    728,   19.1578484,   100.278053,           0.
    729,   32.6403503,   96.8025589,           0.
    730,   32.8134193,   101.271629,           0.
    731,   32.8452568,   105.672997,           0.
    732,   32.8407478,   110.051193,           0.
    733,   32.8369026,   114.420372,           0.
    734,   32.8256035,   118.782478,           0.
    735,   32.8280144,   123.143608,           0.
    736,   32.8481064,   127.509239,           0.
    737,   32.9122925,   131.704941,           0.
    738,   23.7737389,   145.575928,           0.
    739,   18.9785233,   140.205383,           0.
    740,   19.1002369,   131.383896,           0.
    741,   19.1032925,   135.907745,           0.
    742,   22.8820992,    86.686264,           0.
    743,   32.5375595,   92.2174606,           0.
    744,   28.3381767,   94.3035049,           0.
    745,   30.4372101,   142.119293,           0.
    746,   25.8957062,   141.914062,           0.
    747,   29.4172497,   120.908424,           0.
    748,   29.4460659,   125.282257,           0.
    749,   29.4290771,   116.514359,           0.
    750,   29.4314308,   112.129204,           0.
    751,   29.5844421,   129.533829,           0.
    752,   29.4368439,   107.741402,           0.
    753,   32.6489105,   135.607788,           0.
    754,   29.1378803,   90.1681442,           0.
    755,   29.4197826,   103.350708,           0.
    756,   29.2269821,   99.0286255,           0.
    757,   23.6809654,   94.4862213,           0.
    758,   22.8700542,   98.6153412,           0.
    759,     22.66255,   102.878677,           0.
    760,   22.6487007,   120.471291,           0.
    761,   22.6155415,   116.062508,           0.
    762,    22.599638,   111.657394,           0.
    763,   22.6340446,   124.909439,           0.
    764,   22.5914803,   107.252258,           0.
    765,   22.7303925,   129.437469,           0.
    766,   22.8461361,   138.614883,           0.
    767,   23.0281067,   134.093719,           0.
    768,   22.1192169,    142.24646,           0.
    769,   27.9627819,   137.111969,           0.
    770,    25.252821,   90.5116348,           0.
    771,    32.549736,   139.064758,           0.
    772,    29.917799,   133.170807,           0.
    773,   26.0354156,   97.5014572,           0.
    774,   26.0543976,   101.125099,           0.
    775,   26.0339622,   105.354996,           0.
    776,   26.0345726,    109.71772,           0.
    777,   26.0274391,   114.109238,           0.
    778,   26.0447826,   118.506653,           0.
    779,   26.0459156,   122.914093,           0.
    780,   26.1535721,   127.328766,           0.
    781,    26.562849,   131.779434,           0.
    782,   62.9342728,   62.9925728,           0.
    783,   59.4997292,   59.4076843,           0.
    784,   55.2749367,   45.5217438,           0.
    785,   55.5696373,   5.93533373,           0.
    786,   55.5220032,   10.6626377,           0.
    787,   55.3649445,   15.1513166,           0.
    788,    55.321312,   19.5081596,           0.
    789,   55.1007729,   53.9688301,           0.
    790,   55.3100243,   23.8491058,           0.
    791,   55.2973633,   32.5212479,           0.
    792,   55.2848473,   41.1914864,           0.
    793,   55.2073059,   49.8058319,           0.
    794,   55.2484665,   57.9277534,           0.
    795,   64.7706528,   67.3280411,           0.
    796,   86.1457062,   67.4704437,           0.
    797,   81.7721786,   67.4795303,           0.
    798,   77.3997345,   67.4915619,           0.
    799,   73.0901489,   67.5021667,           0.
    800,   68.8873062,   67.4457321,           0.
    801,   115.092293,   55.6676445,           0.
    802,   115.091202,   51.2143784,           0.
    803,   115.091087,   46.7614861,           0.
    804,   115.090675,   42.3083687,           0.
    805,   115.089508,   37.8551483,           0.
    806,   115.087624,   33.4017563,           0.
    807,   115.085533,   28.9481964,           0.
    808,   115.083183,   24.4946804,           0.
    809,   115.079002,   20.0414066,           0.
    810,   115.040115,    15.565114,           0.
    811,   114.913376,   10.9294195,           0.
    812,   114.892235,   6.06102085,           0.
    813,   89.7345428,   3.88547468,           0.
    814,   85.2412491,    3.8834064,           0.
    815,   98.7335129,   3.90693951,           0.
    816,   94.2295303,   3.88910294,           0.
    817,   80.7494431,     3.881459,           0.
    818,   76.2576675,   3.87950635,           0.
    819,   58.1487617,   55.6500854,           0.
    820,   67.1112213,    63.648941,           0.
    821,   55.3037872,   28.1858387,           0.
    822,   55.2915611,   36.8571167,           0.
    823,   58.9320564,   47.7055626,           0.
    824,   59.0084381,   43.3675156,           0.
    825,   59.1382561,   17.3176994,           0.
    826,   59.3124466,   12.8989506,           0.
    827,   59.0959511,   21.6837559,           0.
    828,   58.6772156,   52.0342407,           0.
    829,   94.8955154,   67.4522552,           0.
    830,   90.5201187,   67.4636154,           0.
    831,   79.5824127,   63.7152023,           0.
    832,   75.3099823,   63.7053032,           0.
    833,   71.1483459,   63.7048912,           0.
    834,   83.9499588,   63.6947327,           0.
    835,    115.07164,   60.0801468,           0.
    836,   115.383217,   63.8418732,           0.
    837,   111.068756,    13.207098,           0.
    838,    111.22728,   26.7231464,           0.
    839,   111.233345,   31.1770439,           0.
    840,    111.23867,    35.630291,           0.
    841,   111.247688,   53.4402618,           0.
    842,   111.245697,   48.9870224,           0.
    843,   111.244736,    44.535202,           0.
    844,   111.242958,   40.0829582,           0.
    845,   111.166916,   17.7430325,           0.
    846,   111.213181,   22.2575455,           0.
    847,   103.245483,   3.94072533,           0.
    848,   87.4864426,   7.76203251,           0.
    849,   78.5051727,   7.75334024,           0.
    850,   67.2425308,   3.90778446,           0.
    851,    71.757843,   3.87839794,           0.
    852,    96.461731,   7.79789925,           0.
    853,   107.714355,   3.97592354,           0.
    854,   62.7747078,   3.91379189,           0.
    855,   91.9772568,   7.77047682,           0.
    856,   82.9954834,    7.7564168,           0.
    857,   111.499763,   3.66001296,           0.
    858,   59.9905701,   7.99397898,           0.
    859,   110.447525,   8.14420509,           0.
    860,   65.8026352,   60.5558701,           0.
    861,   62.1688805,   55.1279831,           0.
    862,   59.0339317,   39.0324287,           0.
    863,   62.8304138,   11.1834679,           0.
    864,   59.0776138,   26.0255203,           0.
    865,   62.8864174,   19.4711189,           0.
    866,   62.9426994,   15.0712414,           0.
    867,   62.6995583,   45.6211014,           0.
    868,   62.5722961,   50.1739502,           0.
    869,   59.0637436,   30.3615246,           0.
    870,   59.0500832,   34.6973305,           0.
    871,   92.7011032,   63.6441383,           0.
    872,   108.262886,   67.1632309,           0.
    873,   103.698296,   67.2548447,           0.
    874,   99.2764587,   67.3603745,           0.
    875,   113.039299,   67.1961212,           0.
    876,    73.160553,   59.8550835,           0.
    877,   77.4388657,   59.9310646,           0.
    878,   81.7518463,   59.9262009,           0.
    879,   88.3251343,   63.6750221,           0.
    880,   111.248962,   57.8857384,           0.
    881,    107.40451,   46.7600403,           0.
    882,   107.434097,   51.2145348,           0.
    883,   107.402534,   42.3105545,           0.
    884,   107.340401,   19.9384384,           0.
    885,   107.337822,   15.3712425,           0.
    886,    107.36544,   24.4723988,           0.
    887,   107.397163,   37.8598213,           0.
    888,    107.37854,   28.9489136,           0.
    889,   107.389183,   33.4071503,           0.
    890,   110.960449,   62.6901093,           0.
    891,   107.549347,   11.3995876,           0.
    892,   100.991081,   7.94395733,           0.
    893,    74.000679,   7.76284266,           0.
    894,   64.8757553,   7.83647346,           0.
    895,   94.1905975,    11.669158,           0.
    896,   89.7226334,   11.6399345,           0.
    897,   80.7499847,   11.6195421,           0.
    898,   85.2381439,   11.6269579,           0.
    899,   105.554115,   7.97352791,           0.
    900,   69.4161301,   7.89944649,           0.
    901,   103.416603,    12.494525,           0.
    902,   66.9088745,   12.3168373,           0.
    903,   63.3584404,   59.0570259,           0.
    904,   69.0283737,   60.0833321,           0.
    905,   62.7654114,   41.2377014,           0.
    906,    62.841526,   28.2077122,           0.
    907,    66.733696,   17.2014923,           0.
    908,   66.4517059,   48.0329819,           0.
    909,   62.7967644,   36.8838043,           0.
    910,   62.8208656,   32.5441513,           0.
    911,   62.8624802,   23.8584538,           0.
    912,   79.5039749,   56.1357384,           0.
    913,   101.473625,   63.2196884,           0.
    914,   75.1875229,   56.0549088,           0.
    915,   90.4964066,   59.8512611,           0.
    916,   86.1194839,    59.896431,           0.
    917,   97.0570602,   63.4801636,           0.
    918,   107.529617,   55.7002907,           0.
    919,   103.569199,   44.5355415,           0.
    920,   103.563477,   40.0893745,           0.
    921,   103.552879,     35.64048,           0.
    922,   103.500359,   17.5127373,           0.
    923,   103.538979,   49.0690536,           0.
    924,   103.394073,   22.1083965,           0.
    925,   103.485428,   26.6840611,           0.
    926,   103.530319,   31.1774883,           0.
    927,   107.878998,   59.5898972,           0.
    928,   98.6302872,   11.8208075,           0.
    929,    76.211586,   11.6426344,           0.
    930,   82.9916153,   15.4802895,           0.
    931,   87.4721985,   15.4857969,           0.
    932,   91.9377441,   15.4864578,           0.
    933,   71.7227859,   11.7318316,           0.
    934,    58.979557,   3.56862092,           0.
    935,   66.3799515,   52.7523727,           0.
    936,   66.2165146,   57.1851273,           0.
    937,   100.202461,   15.3905163,           0.
    938,   66.5039902,   43.5287704,           0.
    939,   66.6197586,   26.0778294,           0.
    940,   66.6009521,   30.4019527,           0.
    941,   66.5739136,   34.7354012,           0.
    942,   70.5008926,   55.5619049,           0.
    943,   66.5477676,   39.1087112,           0.
    944,   66.7497406,   21.6749649,           0.
    945,    99.118309,   59.4370995,           0.
    946,   106.000504,   63.0880241,           0.
    947,   77.2217789,   52.3396912,           0.
    948,    83.876091,   56.1133842,           0.
    949,   94.8393555,    59.693943,           0.
    950,    88.252182,   56.0188904,           0.
    951,   103.695915,   53.6795464,           0.
    952,   99.7258224,   37.8741951,           0.
    953,   99.7436981,   46.7476501,           0.
    954,   99.7381897,   42.3150253,           0.
    955,   99.7039261,   33.4220352,           0.
    956,   99.0442047,    19.553051,           0.
    957,   99.5844345,   24.4099541,           0.
    958,   99.6649323,   28.9072819,           0.
    959,   78.4279556,   15.4709787,           0.
    960,   96.3612823,   15.5292358,           0.
    961,   103.754906,   58.6427269,           0.
    962,   85.2114334,    19.284359,           0.
    963,   89.6823654,    19.388298,           0.
    964,   73.9096603,   15.4539814,           0.
    965,   70.2343292,   50.5241432,           0.
    966,   70.5140991,   23.9806423,           0.
    967,   70.4295807,   28.2544994,           0.
    968,   70.3790741,   32.5827408,           0.
    969,   70.3452835,   36.9553413,           0.
    970,   70.2963333,   41.3701019,           0.
    971,   73.5165176,   52.5710754,           0.
    972,   96.8590622,   55.7546501,           0.
    973,   71.1468277,   19.3092861,           0.
    974,   81.6880493,   52.1839218,           0.
    975,   92.5579605,   55.8590508,           0.
    976,   86.0988235,   52.0709877,           0.
    977,    70.324234,   45.9020729,           0.
    978,    99.335907,   51.6100311,           0.
    979,    95.912117,   40.0987968,           0.
    980,   95.8876572,   35.6633492,           0.
    981,   96.0232162,   44.5344543,           0.
    982,   95.8797302,   31.1312141,           0.
    983,   70.0843658,   15.2026854,           0.
    984,   96.1242142,    22.702589,           0.
    985,   95.9003601,   26.6178398,           0.
    986,   80.6745224,   19.3349171,           0.
    987,   94.1920013,   19.4033508,           0.
    988,   87.3878632,   23.2050953,           0.
    989,   76.0787354,   19.2409039,           0.
    990,   92.0583954,    23.842001,           0.
    991,   74.5454712,   48.3938789,           0.
    992,   74.3036041,   26.1532078,           0.
    993,    74.062767,   22.4361286,           0.
    994,   74.3128967,   30.4857082,           0.
    995,   74.2353516,   34.8253441,           0.
    996,    74.100563,   39.2062721,           0.
    997,   74.0418701,   43.6003227,           0.
    998,    79.282402,   48.3080254,           0.
    999,   94.6150894,   51.8168488,           0.
   1000,   90.3386765,   51.9621201,           0.
   1001,   96.3995895,   48.4257507,           0.
   1002,   84.1037979,   47.5664215,           0.
   1003,   92.0407181,   37.7883148,           0.
   1004,   91.9653397,   42.3541298,           0.
   1005,   92.1264267,    33.363369,           0.
   1006,   92.1446991,   28.8269653,           0.
   1007,   83.0750732,   23.1422157,           0.
   1008,   78.2944336,   23.6105518,           0.
   1009,   100.552818,     55.82481,           0.
   1010,   88.9807739,   26.8143196,           0.
   1011,   78.0837021,   32.7864456,           0.
   1012,   78.1748962,   28.4137573,           0.
   1013,   77.8969421,   37.1208229,           0.
   1014,   88.1919327,   48.7345772,           0.
   1015,    92.238884,   47.4973526,           0.
   1016,   87.5217438,   39.7169228,           0.
   1017,   88.9219131,   35.4765167,           0.
   1018,   87.8693085,   31.0894794,           0.
   1019,   85.2279587,    26.949625,           0.
   1020,   77.6927795,   41.4277916,           0.
   1021,   80.8270187,   44.1489525,           0.
   1022,   77.2779083,   45.1757927,           0.
   1023,   82.4257202,   30.8851395,           0.
   1024,   82.0814285,   39.4095726,           0.
   1025,   88.0916901,   44.8210144,           0.
   1026,   81.4396133,   26.6002579,           0.
   1027,   81.0960999,   35.0979767,           0.
   1028,   84.9860382,   35.2792664,           0.
   1029,   84.5251389,    43.132576,           0.
   1030,   47.6105461,   5.76763964,           0.
   1031,   47.7819405,   32.5168953,           0.
   1032,    47.781929,   36.8526802,           0.
   1033,   47.7421455,   15.0813437,           0.
   1034,   47.7775803,   19.4942265,           0.
   1035,   47.7821846,   23.8429356,           0.
   1036,   47.7820015,   28.1808434,           0.
   1037,   47.7851181,   41.1895256,           0.
   1038,     47.79179,   45.5261803,           0.
   1039,   43.2959518,   59.9621048,           0.
   1040,   47.8346977,   49.8013573,           0.
   1041,   47.7962418,   53.9725304,           0.
   1042,   47.6085587,   58.0374947,           0.
   1043,   40.3863602,   63.6421089,           0.
   1044,   20.4988842,   67.3316727,           0.
   1045,   25.0516663,   67.3419342,           0.
   1046,   29.5306873,   67.3391342,           0.
   1047,   34.0144386,   67.3659515,           0.
   1048,   3.80324888,   15.6013775,           0.
   1049,   3.84248853,    20.043911,           0.
   1050,   3.84973288,   24.4948063,           0.
   1051,    3.8509419,   28.9478626,           0.
   1052,   3.85137916,   33.4012909,           0.
   1053,   3.85200739,   37.8546219,           0.
   1054,   3.85351825,   42.3078232,           0.
   1055,   3.85641837,   46.7610779,           0.
   1056,    3.8601408,   51.2145462,           0.
   1057,   3.95952868,   55.7740898,           0.
   1058,   4.14646244,   60.4728699,           0.
   1059,   4.17932701,   65.3229752,           0.
   1060,   27.9220314,    3.7304194,           0.
   1061,   23.6257534,   3.73341012,           0.
   1062,   19.3291569,   3.73626685,           0.
   1063,   14.9362936,    3.8373754,           0.
   1064,   10.4118042,   4.03222656,           0.
   1065,   5.73507118,   4.07796669,           0.
   1066,   38.3164482,   67.3828888,           0.
   1067,    32.213932,   3.72638345,           0.
   1068,   40.7449951,   3.71172619,           0.
   1069,   36.4995346,   3.72283292,           0.
   1070,   44.3819962,   3.45353103,           0.
   1071,   25.7757378,   7.47388935,           0.
   1072,   21.4724388,   7.48697519,           0.
   1073,   17.0679417,   7.57836008,           0.
   1074,   12.6449203,    7.7569356,           0.
   1075,   44.0070534,   17.2345524,           0.
   1076,   47.6203232,   10.5203753,           0.
   1077,   44.0190506,   30.3483143,           0.
   1078,   44.0174675,   47.6084175,           0.
   1079,   44.0206718,   26.0118675,           0.
   1080,   44.0186539,   34.6849785,           0.
   1081,   44.0227623,   39.0243835,           0.
   1082,   44.0219307,    43.342926,           0.
   1083,   44.0192223,   21.6551914,           0.
   1084,   43.9872932,   51.7362404,           0.
   1085,   3.74239755,   11.1960249,           0.
   1086,   7.70829487,   44.5317879,           0.
   1087,    7.6994276,   35.6274643,           0.
   1088,   7.80635643,   53.5554276,           0.
   1089,   7.69380808,   22.2699051,           0.
   1090,   7.75329208,   17.7546959,           0.
   1091,   7.69586897,   26.7213116,           0.
   1092,   3.44422698,   7.42117882,           0.
   1093,   7.69711924,   31.1744003,           0.
   1094,   7.70191765,   40.0795555,           0.
   1095,   7.98819733,   58.1869087,           0.
   1096,   7.73021555,   49.0034218,           0.
   1097,   15.9609842,   67.3673019,           0.
   1098,   11.4599924,    67.407753,           0.
   1099,   22.8192997,   63.4345932,           0.
   1100,    27.291872,   63.4521332,           0.
   1101,   7.59877443,   67.7002258,           0.
   1102,   31.8223686,   63.5095749,           0.
   1103,   43.9306297,   55.7336693,           0.
   1104,   36.2366295,   63.6060181,           0.
   1105,   7.78154135,   8.43508816,           0.
   1106,   40.5905495,   57.1348228,           0.
   1107,    43.355896,   7.79764223,           0.
   1108,   8.66151524,   63.2404137,           0.
   1109,   34.3527298,    7.5769949,           0.
   1110,   38.6793289,   7.60793209,           0.
   1111,   14.8542309,   11.3340435,           0.
   1112,   19.2653999,   11.2622566,           0.
   1113,   23.6204472,   11.2409687,           0.
   1114,    30.045723,   7.47746849,           0.
   1115,   43.9285202,   12.7261534,           0.
   1116,   40.2508087,   32.5167618,           0.
   1117,   40.2527695,   28.1784477,           0.
   1118,   40.2574043,   23.8373528,           0.
   1119,   40.2896805,   19.3747425,           0.
   1120,    40.253685,    36.858654,           0.
   1121,    40.250885,   41.1904068,           0.
   1122,   40.1981392,   49.7024155,           0.
   1123,   40.2201309,   45.4774208,           0.
   1124,   7.69053793,   13.2438822,           0.
   1125,   11.5395193,   33.3999176,           0.
   1126,   11.5358286,   28.9464798,           0.
   1127,   11.5372028,    24.461628,           0.
   1128,   11.5435963,   37.8509254,           0.
   1129,    11.590847,   20.0201321,           0.
   1130,   11.6338577,   51.3318901,           0.
   1131,   11.5522213,   42.3003502,           0.
   1132,   11.5763617,   46.7747688,           0.
   1133,   11.7354002,   55.9550667,           0.
   1134,   18.2460957,   63.3337326,           0.
   1135,   29.6912804,   59.4990692,           0.
   1136,   25.1423664,   59.5467644,           0.
   1137,   13.6268549,   63.3779755,           0.
   1138,    36.469101,   39.0353851,           0.
   1139,   27.3402462,   55.6342049,           0.
   1140,    36.496376,   26.0208931,           0.
   1141,   36.4803009,   30.3482513,           0.
   1142,   15.4059582,   44.5184364,           0.
   1143,   36.4756317,   34.6905708,           0.
   1144,   36.4824982,   21.5442181,           0.
   1145,   12.1379089,   15.2634268,           0.
   1146,   15.3769484,   35.6214371,           0.
   1147,   15.5900583,   49.1195412,           0.
   1148,   40.3285942,   53.7808456,           0.
   1149,   34.2665672,   59.6564293,           0.
   1150,   38.6120872,   60.0547485,           0.
   1151,   11.0218277,   11.2066755,           0.
   1152,   11.5682173,   59.9193306,           0.
   1153,   32.0880318,   11.3630533,           0.
   1154,    40.567997,   10.9865789,           0.
   1155,   21.4459534,   15.1077271,           0.
   1156,   27.8901463,   11.2641821,           0.
   1157,   40.3378601,   14.8819513,           0.
   1158,   15.3481855,   26.6583385,           0.
   1159,    36.614296,   12.0507164,           0.
   1160,    36.337738,   47.7076683,           0.
   1161,   15.3664083,   31.1601105,           0.
   1162,    15.297843,   22.1979904,           0.
   1163,   36.3968315,   43.3792458,           0.
   1164,   16.9933815,   15.1087761,           0.
   1165,   15.6562929,   53.7922325,           0.
   1166,   15.3872366,   40.0685349,           0.
   1167,   20.6738129,   59.4461174,           0.
   1168,   15.7917643,   58.8143578,           0.
   1169,   37.0821152,   56.2809525,           0.
   1170,   29.9514103,   15.0823088,           0.
   1171,   19.1145935,   19.4650173,           0.
   1172,   32.2855949,   55.0391922,           0.
   1173,   32.7725868,   32.6088562,           0.
   1174,   32.6605644,   28.2948761,           0.
   1175,   36.6248283,   16.9786797,           0.
   1176,   32.6448288,   23.8770809,           0.
   1177,   25.7598495,   15.0665865,           0.
   1178,    32.825222,    36.928093,           0.
   1179,   32.3264465,   45.6020813,           0.
   1180,    32.647747,   41.2212906,           0.
   1181,   15.0269146,   18.4110699,           0.
   1182,   19.3195534,    42.197361,           0.
   1183,   19.5607738,   46.7195129,           0.
   1184,   19.1426048,   37.7347984,           0.
   1185,   19.0532932,   33.3413315,           0.
   1186,   19.1065731,   28.8491268,           0.
   1187,    20.135931,   51.6635971,           0.
   1188,   19.0600605,   24.3091316,           0.
   1189,   22.8857403,   55.6883049,           0.
   1190,   27.8525238,   18.7832661,           0.
   1191,    33.537262,   14.9136219,           0.
   1192,   32.3641205,   19.0414143,           0.
   1193,   29.0990543,   30.7931423,           0.
   1194,   28.3800735,   26.2204018,           0.
   1195,   29.3122044,   34.9655266,           0.
   1196,   23.6983852,   18.8671207,           0.
   1197,   32.3291359,   50.0871315,           0.
   1198,   29.2428246,   39.0460815,           0.
   1199,   28.6577168,   43.1383743,           0.
   1200,   28.9346466,   52.1414757,           0.
   1201,   22.8517971,    39.588932,           0.
   1202,   23.9268093,   44.1155472,           0.
   1203,   22.5667973,   35.3697548,           0.
   1204,   23.2683544,   48.4891014,           0.
   1205,   19.0287075,   55.8809204,           0.
   1206,   22.5979691,   31.1166325,           0.
   1207,   23.2686539,    26.408802,           0.
   1208,   25.0494614,   51.9334106,           0.
   1209,   27.7846527,   47.9295883,           0.
   1210,   36.4268875,   52.0997009,           0.
   1211,   25.8115597,   22.4470234,           0.
   1212,   29.4106216,   22.0738373,           0.
   1213,   26.1259861,   40.6203346,           0.
   1214,   22.1906509,   22.2994194,           0.
   1215,   25.8418903,   29.5399742,           0.
   1216,    25.993885,   37.1252518,           0.
   1217,   25.9019661,   33.1517143,           0.
*Element, type=S3
  1, 291,  79, 196
  2, 196,  13,  14
  3, 387, 327, 286
  4, 223,  61, 222
  5, 246,   3,  34
  6, 317, 199, 258
  7, 199,  16,  17
  8, 379, 378, 333
  9, 200,  18, 197
 10, 312, 251, 304
 11, 202,  21, 198
 12, 203, 198,  22
 13, 204, 203,  23
 14, 205, 204,  24
 15, 206, 205,  25
 16, 336, 273, 335
 17, 207, 206,  26
 18, 217,  37, 216
 19, 208, 207,  27
 20, 209,  31,  32
 21, 212, 211,  30
 22, 297, 212, 209
 23, 212,   2,  31
 24, 246,  34, 219
 25,  45,   4,  46
 26, 237,  46,  47
 27, 320, 318, 263
 28, 386, 337, 382
 29, 319,  44, 269
 30, 371, 320, 262
 31, 261,  40,  41
 32, 311, 310, 260
 33, 215,  39, 214
 34, 216,  38, 215
 35, 213, 209,  32
 36, 219,  34,  35
 37,  66,  65,   5
 38, 245,  65,  66
 39, 240,  72, 239
 40, 221,  63, 220
 41, 222,  62, 221
 42, 455, 421, 454
 43, 224,  60, 223
 44, 225,  59, 224
 45, 226,  58, 225
 46, 227,  57, 226
 47, 228,  56, 227
 48, 229,  55, 228
 49, 230,  54, 229
 50, 231,  53, 230
 51, 232,  52, 231
 52, 233,  51, 232
 53, 234,  50, 233
 54, 235,  49, 234
 55, 236,  48, 235
 56, 237,  47, 236
 57,  79,   1,  13
 58, 196,  79,  13
 59, 291, 238,  78
 60, 497, 465, 469
 61, 292,  77, 238
 62, 200, 199,  17
 63, 294,  76, 292
 64, 294,  75,  76
 65, 287,  73,  74
 66, 241,  71, 240
 67, 242,  70, 241
 68, 243,  69, 242
 69, 244,  68, 243
 70, 301, 279, 245
 71, 309,  15, 248
 72, 248,  16, 199
 73, 197,  18,  19
 74, 201,  19,  20
 75, 198,  21,  22
 76, 203,  22,  23
 77, 294, 293,  75
 78, 200,  17,  18
 79, 249, 200, 197
 80, 258, 200, 249
 81, 201, 197,  19
 82, 202, 201,  20
 83, 202,  20,  21
 84, 402, 401, 353
 85, 204,  23,  24
 86, 330, 275, 328
 87, 205,  24,  25
 88, 375, 326, 374
 89, 206,  25,  26
 90, 277, 273, 230
 91, 207,  26,  27
 92, 256, 208, 210
 93, 208,  27,  28
 94, 278, 232, 231
 95, 210,  28,  29
 96, 256, 250, 208
 97, 213,  32,  33
 98, 267, 217, 264
 99, 210, 208,  28
100, 211, 210,  29
101, 211,  29,  30
102, 257, 256, 210
103, 212,  30,   2
104, 212,  31, 209
105, 218,  36, 217
106, 302, 257, 297
107, 214,  39,  40
108, 325, 214, 261
109, 315, 256, 257
110, 215,  38,  39
111, 298, 297, 209
112, 216,  37,  38
113, 264, 217, 216
114, 217,  36,  37
115, 268, 218, 267
116, 218,  35,  36
117, 303, 219, 268
118, 219,  35, 218
119, 220,  63,  64
120, 279,  65, 245
121, 347, 288, 345
122, 221,  62,  63
123, 251, 249, 197
124, 222,  61,  62
125, 280, 223, 274
126, 223,  60,  61
127, 252, 202, 247
128, 224,  59,  60
129, 307, 253, 306
130, 225,  58,  59
131, 423, 422, 375
132, 226,  57,  58
133, 281, 227, 270
134, 227,  56,  57
135, 281, 228, 227
136, 228,  55,  56
137, 254, 253, 204
138, 229,  54,  55
139, 260, 206, 255
140, 230,  53,  54
141, 255, 207, 250
142, 231,  52,  53
143, 412, 366, 367
144, 232,  51,  52
145, 320, 263, 262
146, 233,  50,  51
147, 272, 234, 233
148, 234,  49,  50
149, 319,  43,  44
150, 235,  48,  49
151, 299, 237, 236
152, 236,  47,  48
153, 269,  45, 237
154, 237,  45,  46
155, 238,  77,  78
156, 399, 397, 361
157, 239,  72,  73
158, 313, 249, 312
159, 285, 274, 222
160, 240,  71,  72
161, 286, 285, 221
162, 241,  70,  71
163, 288, 242, 241
164, 242,  69,  70
165, 296, 242, 288
166, 243,  68,  69
167, 301, 286, 220
168, 244,  67,  68
169, 245,  66,  67
170, 245,  67, 244
171, 246, 213,  33
172, 246,  33,   3
173, 247, 202, 198
174, 259, 198, 203
175, 361, 248, 317
176, 248,  15,  16
177, 251, 197, 201
178, 295, 240, 289
179, 250, 207, 208
180, 321, 266, 265
181, 252, 251, 201
182, 475, 474, 440
183, 252, 201, 202
184, 305, 304, 252
185, 253, 203, 204
186, 254, 204, 205
187, 260, 205, 206
188, 334, 282, 331
189, 314, 311, 255
190, 255, 206, 207
191, 257, 210, 211
192, 316, 256, 315
193, 297, 257, 211
194, 303, 298, 213
195, 397, 300, 361
196, 258, 199, 200
197, 259, 247, 198
198, 259, 203, 253
199, 310, 306, 254
200, 260, 254, 205
201, 261, 214,  40
202, 263,  41,  42
203, 262,  42,  43
204, 271, 236, 235
205, 263, 261,  41
206, 263,  42, 262
207, 266, 216, 215
208, 266, 215, 265
209, 265, 215, 214
210, 369, 365, 324
211, 416, 365, 369
212, 266, 264, 216
213, 351, 350, 298
214, 267, 218, 217
215, 303, 246, 219
216, 268, 219, 218
217, 269,  44,  45
218, 299, 236, 271
219, 270, 227, 226
220, 276, 226, 225
221, 284, 235, 234
222, 284, 234, 272
223, 283, 233, 232
224, 278, 231, 273
225, 273, 231, 230
226, 277, 230, 229
227, 274, 223, 222
228, 285, 222, 221
229, 275, 225, 224
230, 280, 275, 224
231, 276, 270, 226
232, 276, 225, 275
233, 282, 229, 228
234, 335, 277, 334
235, 337, 278, 336
236, 283, 232, 278
237, 279, 220,  64
238, 279,  64,  65
239, 280, 224, 223
240, 378, 377, 328
241, 357, 308, 356
242, 331, 281, 326
243, 282, 277, 229
244, 282, 228, 281
245, 430, 386, 428
246, 283, 272, 233
247, 339, 272, 338
248, 284, 271, 235
249, 286, 221, 220
250, 346, 290, 296
251, 301, 220, 279
252, 290, 244, 243
253, 287, 239,  73
254, 293,  74,  75
255, 295, 241, 240
256, 289, 240, 239
257, 341, 239, 287
258, 354, 312, 353
259, 387, 301, 290
260, 296, 290, 243
261, 291,  78,  79
262, 300, 291, 196
263, 292,  76,  77
264, 342, 238, 300
265, 349, 294, 292
266, 293, 287,  74
267, 399, 389, 397
268, 471, 468, 434
269, 345, 295, 344
270, 295, 288, 241
271, 296, 243, 242
272, 344, 295, 289
273, 297, 211, 212
274, 298, 209, 213
275, 323, 268, 267
276, 302, 297, 298
277, 371, 319, 299
278, 299, 269, 237
279, 300, 238, 291
280, 309, 300, 196
281, 301, 245, 244
282, 301, 244, 290
283, 322, 266, 321
284, 315, 257, 302
285, 303, 213, 246
286, 351, 268, 323
287, 304, 251, 252
288, 305, 252, 247
289, 308, 247, 259
290, 424, 373, 420
291, 306, 253, 254
292, 310, 254, 260
293, 356, 307, 355
294, 307, 259, 253
295, 308, 305, 247
296, 308, 259, 307
297, 309, 196,  14
298, 309,  14,  15
299, 311, 260, 255
300, 425, 376, 422
301, 314, 255, 250
302, 381, 334, 376
303, 505, 495, 479
304, 312, 249, 251
305, 349, 292, 342
306, 313, 258, 249
307, 316, 250, 256
308, 383, 335, 381
309, 351, 298, 303
310, 324, 323, 267
311, 324, 264, 322
312, 316, 314, 250
313, 317, 248, 199
314, 363, 258, 313
315, 366, 325, 318
316, 318, 261, 263
317, 319, 262,  43
318, 319, 269, 299
319, 371, 262, 319
320, 340, 284, 339
321, 368, 265, 325
322, 338, 283, 337
323, 396, 352, 315
324, 322, 264, 266
325, 365, 323, 324
326, 324, 267, 264
327, 398, 396, 350
328, 398, 351, 323
329, 325, 265, 214
330, 325, 261, 318
331, 326, 281, 270
332, 329, 270, 276
333, 332, 285, 327
334, 327, 285, 286
335, 328, 275, 280
336, 333, 280, 274
337, 329, 326, 270
338, 330, 329, 276
339, 330, 276, 275
340, 377, 373, 330
341, 376, 331, 375
342, 331, 282, 281
343, 332, 274, 285
344, 347, 346, 296
345, 333, 328, 280
346, 333, 274, 332
347, 360, 310, 359
348, 334, 277, 282
349, 362, 314, 316
350, 335, 273, 277
351, 364, 314, 362
352, 336, 278, 273
353, 412, 411, 366
354, 337, 283, 278
355, 367, 366, 318
356, 338, 272, 283
357, 449, 414, 340
358, 339, 284, 272
359, 414, 371, 372
360, 340, 271, 284
361, 341, 289, 239
362, 348, 287, 293
363, 349, 343, 294
364, 342, 292, 238
365, 343, 293, 294
366, 394, 343, 349
367, 388, 289, 341
368, 401, 354, 353
369, 380, 379, 332
370, 345, 288, 295
371, 387, 346, 327
372, 347, 296, 288
373, 419, 418, 379
374, 390, 380, 346
375, 348, 341, 287
376, 348, 293, 343
377, 400, 389, 399
378, 394, 393, 343
379, 396, 302, 350
380, 350, 302, 298
381, 351, 303, 268
382, 398, 323, 365
383, 362, 316, 352
384, 352, 316, 315
385, 353, 312, 304
386, 358, 304, 305
387, 394, 349, 389
388, 354, 313, 312
389, 355, 307, 306
390, 360, 306, 310
391, 374, 329, 373
392, 356, 308, 307
393, 440, 439, 404
394, 357, 305, 308
395, 358, 353, 304
396, 358, 305, 357
397, 359, 310, 311
398, 364, 311, 314
399, 442, 441, 405
400, 360, 355, 306
401, 361, 300, 309
402, 361, 309, 248
403, 436, 409, 352
404, 415, 362, 409
405, 363, 317, 258
406, 410, 313, 354
407, 383, 382, 336
408, 364, 359, 311
409, 369, 324, 322
410, 370, 322, 321
411, 385, 384, 339
412, 367, 318, 320
413, 414, 372, 340
414, 384, 340, 339
415, 368, 321, 265
416, 368, 325, 366
417, 370, 369, 322
418, 452, 409, 451
419, 413, 321, 368
420, 382, 337, 336
421, 372, 299, 271
422, 372, 371, 299
423, 372, 271, 340
424, 449, 340, 384
425, 373, 329, 330
426, 377, 330, 328
427, 405, 403, 356
428, 374, 326, 329
429, 406, 405, 355
430, 375, 331, 326
431, 407, 406, 360
432, 376, 334, 331
433, 378, 328, 333
434, 392, 391, 345
435, 379, 333, 332
436, 419, 379, 380
437, 380, 332, 327
438, 419, 380, 390
439, 380, 327, 346
440, 390, 346, 347
441, 408, 407, 359
442, 381, 335, 334
443, 383, 336, 335
444, 453, 451, 416
445, 426, 381, 425
446, 490, 459, 489
447, 385, 339, 338
448, 386, 338, 337
449, 386, 385, 338
450, 430, 429, 385
451, 525, 516, 515
452, 507, 499, 481
453, 387, 286, 301
454, 387, 290, 346
455, 388, 344, 289
456, 395, 341, 348
457, 389, 349, 342
458, 397, 389, 342
459, 391, 347, 345
460, 391, 390, 347
461, 392, 345, 344
462, 431, 344, 388
463, 495, 468, 480
464, 433, 419, 391
465, 393, 348, 343
466, 434, 393, 394
467, 466, 389, 400
468, 434, 432, 393
469, 395, 388, 341
470, 395, 348, 393
471, 396, 315, 302
472, 398, 350, 351
473, 397, 342, 300
474, 399, 361, 317
475, 437, 365, 416
476, 436, 396, 398
477, 399, 317, 363
478, 400, 399, 363
479, 410, 400, 363
480, 471, 466, 400
481, 402, 353, 358
482, 485, 454, 472
483, 404, 358, 357
484, 439, 438, 402
485, 403, 357, 356
486, 405, 356, 355
487, 404, 402, 358
488, 404, 357, 403
489, 406, 355, 360
490, 441, 440, 403
491, 407, 360, 359
492, 443, 442, 406
493, 408, 359, 364
494, 489, 457, 488
495, 415, 364, 362
496, 427, 383, 426
497, 409, 362, 352
498, 451, 436, 437
499, 410, 363, 313
500, 445, 354, 401
501, 413, 368, 411
502, 411, 368, 366
503, 449, 412, 367
504, 429, 384, 385
505, 428, 382, 427
506, 413, 370, 321
507, 414, 367, 320
508, 414, 320, 371
509, 417, 416, 369
510, 415, 408, 364
511, 417, 369, 370
512, 448, 370, 413
513, 447, 446, 411
514, 461, 426, 460
515, 421, 378, 418
516, 418, 378, 379
517, 419, 390, 391
518, 433, 391, 392
519, 420, 373, 377
520, 421, 420, 377
521, 421, 377, 378
522, 472, 470, 433
523, 422, 376, 375
524, 423, 375, 374
525, 424, 423, 374
526, 511, 487, 509
527, 424, 374, 373
528, 486, 455, 485
529, 444, 443, 407
530, 425, 381, 376
531, 450, 444, 408
532, 426, 383, 381
533, 463, 428, 462
534, 427, 382, 383
535, 447, 412, 429
536, 428, 386, 382
537, 449, 429, 412
538, 430, 385, 386
539, 492, 461, 491
540, 525, 523, 516
541, 431, 392, 344
542, 435, 388, 395
543, 432, 395, 393
544, 496, 467, 495
545, 470, 419, 433
546, 465, 392, 431
547, 466, 434, 394
548, 471, 410, 445
549, 435, 431, 388
550, 435, 395, 432
551, 436, 352, 396
552, 437, 436, 398
553, 437, 398, 365
554, 451, 437, 416
555, 438, 401, 402
556, 439, 402, 404
557, 440, 404, 403
558, 456, 420, 455
559, 441, 403, 405
560, 458, 424, 456
561, 442, 405, 406
562, 476, 475, 441
563, 443, 406, 407
564, 459, 422, 457
565, 444, 407, 408
566, 460, 425, 459
567, 450, 408, 415
568, 491, 460, 490
569, 445, 410, 354
570, 479, 401, 438
571, 448, 413, 446
572, 446, 413, 411
573, 447, 411, 412
574, 464, 429, 430
575, 462, 427, 461
576, 448, 417, 370
577, 449, 367, 414
578, 449, 384, 429
579, 452, 415, 409
580, 484, 483, 450
581, 451, 409, 436
582, 453, 416, 417
583, 498, 451, 453
584, 452, 450, 415
585, 481, 417, 448
586, 482, 481, 448
587, 454, 421, 418
588, 470, 454, 418
589, 517, 497, 496
590, 455, 420, 421
591, 474, 473, 439
592, 456, 424, 420
593, 457, 422, 423
594, 458, 457, 423
595, 458, 423, 424
596, 487, 456, 486
597, 477, 476, 442
598, 459, 425, 422
599, 478, 477, 443
600, 460, 426, 425
601, 483, 478, 444
602, 461, 427, 426
603, 494, 447, 464
604, 462, 428, 427
605, 494, 482, 446
606, 463, 430, 428
607, 464, 447, 429
608, 464, 430, 463
609, 465, 433, 392
610, 469, 431, 435
611, 466, 394, 389
612, 471, 400, 410
613, 467, 435, 432
614, 468, 467, 432
615, 468, 432, 434
616, 495, 480, 479
617, 469, 465, 431
618, 469, 435, 467
619, 470, 418, 419
620, 472, 433, 465
621, 480, 471, 445
622, 471, 434, 466
623, 521, 495, 505
624, 472, 454, 470
625, 473, 438, 439
626, 474, 439, 440
627, 475, 440, 441
628, 509, 486, 508
629, 476, 441, 442
630, 488, 458, 487
631, 477, 442, 443
632, 512, 488, 511
633, 478, 443, 444
634, 513, 489, 512
635, 483, 444, 450
636, 514, 490, 513
637, 479, 445, 401
638, 505, 438, 473
639, 480, 468, 471
640, 480, 445, 479
641, 481, 453, 417
642, 482, 448, 446
643, 494, 446, 447
644, 493, 463, 462
645, 484, 450, 452
646, 515, 491, 514
647, 498, 484, 452
648, 499, 498, 453
649, 485, 455, 454
650, 518, 472, 497
651, 522, 519, 509
652, 486, 456, 455
653, 501, 500, 474
654, 487, 458, 456
655, 502, 501, 475
656, 488, 457, 458
657, 503, 502, 476
658, 489, 459, 457
659, 504, 503, 477
660, 490, 460, 459
661, 506, 504, 478
662, 491, 461, 460
663, 510, 484, 499
664, 492, 462, 461
665, 507, 494, 493
666, 493, 462, 492
667, 494, 464, 463
668, 494, 463, 493
669, 520, 508, 517
670, 495, 467, 468
671, 518, 508, 485
672, 496, 469, 467
673, 497, 472, 465
674, 497, 469, 496
675, 498, 452, 451
676, 499, 453, 481
677, 499, 484, 498
678, 507, 481, 482
679, 500, 473, 474
680, 501, 474, 475
681, 502, 475, 476
682, 519, 511, 509
683, 503, 476, 477
684, 524, 512, 511
685, 504, 477, 478
686, 526, 513, 512
687, 506, 478, 483
688, 528, 514, 513
689, 505, 479, 438
690, 520, 473, 500
691, 510, 483, 484
692, 527, 515, 514
693, 507, 482, 494
694, 516, 493, 492
695, 508, 486, 485
696, 518, 517, 508
697, 522, 509, 508
698, 509, 487, 486
699, 510, 506, 483
700, 523, 499, 507
701, 524, 501, 502
702, 511, 488, 487
703, 526, 524, 502
704, 512, 489, 488
705, 528, 526, 503
706, 513, 490, 489
707, 527, 504, 506
708, 514, 491, 490
709, 525, 506, 510
710, 515, 492, 491
711, 516, 507, 493
712, 516, 492, 515
713, 521, 517, 496
714, 521, 520, 517
715, 518, 485, 472
716, 518, 497, 517
717, 519, 500, 501
718, 524, 519, 501
719, 520, 505, 473
720, 522, 520, 500
721, 521, 496, 495
722, 521, 505, 520
723, 522, 508, 520
724, 522, 500, 519
725, 523, 510, 499
726, 523, 507, 516
727, 524, 511, 519
728, 526, 502, 503
729, 527, 525, 515
730, 525, 510, 523
731, 526, 512, 524
732, 528, 503, 504
733, 528, 527, 514
734, 527, 506, 525
735, 528, 513, 526
736, 528, 504, 527
 737, 577,   2,  30
 738, 560, 103, 559
 739, 576, 120, 121
 740, 657, 656, 601
 741, 708, 111, 112
 742,  13,   1,  80
 743, 552,  80,  81
 744, 582, 551, 550
 745, 583, 549, 579
 746, 624, 598, 588
 747, 585,  17,  16
 748, 566,  97, 565
 749, 532,  18, 531
 750, 533,  19, 532
 751, 534,  20, 533
 752, 699, 651, 698
 753, 536,  23, 529
 754, 537,  24, 536
 755, 538,  25, 537
 756, 539,  26, 538
 757, 540,  27, 539
 758, 541,  28, 540
 759, 542,  29, 541
 760,  90,   6,  91
 761, 543,  90,  91
 762, 570,  93, 569
 763, 544,  88,  89
 764, 545,  87,  88
 765, 546,  86,  87
 766, 548,  85, 547
 767, 549,  84, 548
 768, 550,  83, 549
 769, 551,  82, 550
 770, 552,  81, 551
 771, 111, 110,   7
 772, 553, 110, 111
 773, 554, 109, 553
 774, 620, 619, 572
 775, 663, 554, 553
 776, 604, 557, 601
 777, 605, 558, 604
 778, 606, 559, 605
 779, 607, 560, 606
 780, 561, 102, 560
 781, 562, 101, 561
 782, 615, 562, 561
 783, 609, 564, 602
 784, 610, 565, 609
 785, 565,  98, 564
 786, 567,  96, 566
 787, 581, 546, 545
 788, 613, 611, 567
 789, 611, 568, 567
 790, 667,  91,  92
 791, 617, 114, 571
 792, 668, 663, 618
 793, 571, 114, 115
 794, 572, 571, 115
 795, 573, 572, 116
 796, 575, 574, 118
 797, 622, 575, 530
 798, 575,   8, 119
 799, 644, 589, 643
 800, 529,  23,  22
 801, 535,  22,  21
 802, 555, 108, 554
 803, 530, 119, 120
 804, 531,  18,  17
 805, 613, 566, 610
 806, 564,  99, 563
 807, 532,  19,  18
 808, 563, 100, 562
 809, 533,  20,  19
 810, 535,  21, 534
 811, 534,  21,  20
 812, 592, 591, 536
 813, 535, 529,  22
 814, 559, 104, 558
 815, 536,  24,  23
 816, 558, 105, 557
 817, 537,  25,  24
 818, 557, 106, 556
 819, 538,  26,  25
 820, 556, 107, 555
 821, 539,  27,  26
 822, 596, 540, 589
 823, 540,  28,  27
 824, 597, 541, 596
 825, 541,  29,  28
 826, 577,  30, 542
 827, 542,  30,  29
 828, 544,  89, 543
 829, 543,  89,  90
 830, 569,  94, 568
 831, 545,  88, 544
 832, 568,  95, 567
 833, 546,  87, 545
 834, 705, 654, 700
 835, 547,  86, 546
 836, 584, 547, 578
 837, 547,  85,  86
 838, 579, 549, 548
 839, 548,  84,  85
 840, 586, 585,  16
 841, 549,  83,  84
 842, 598,  15,  14
 843, 550,  82,  83
 844, 624, 551, 582
 845, 551,  81,  82
 846, 588,  13, 552
 847, 552,  13,  80
 848, 553, 109, 110
 849, 618, 113, 617
 850, 554, 108, 109
 851, 709, 668, 664
 852, 709, 664, 706
 853, 555, 107, 108
 854, 742, 718, 706
 855, 556, 106, 107
 856, 590, 589, 539
 857, 557, 105, 106
 858, 636, 635, 599
 859, 558, 104, 105
 860, 653, 650, 606
 861, 559, 103, 104
 862, 600, 529, 535
 863, 560, 102, 103
 864, 615, 561, 607
 865, 561, 101, 102
 866, 600, 535, 587
 867, 562, 100, 101
 868, 593, 587, 534
 869, 563,  99, 100
 870, 594, 593, 533
 871, 564,  98,  99
 872, 595, 594, 532
 873, 565,  97,  98
 874, 745, 712, 713
 875, 566,  96,  97
 876, 623, 580, 544
 877, 567,  95,  96
 878, 667, 623, 543
 879, 568,  94,  95
 880, 616, 570, 569
 881, 569,  93,  94
 882, 667, 570, 623
 883, 570,  92,  93
 884, 572, 115, 116
 885, 662, 657, 614
 886, 573, 116, 117
 887, 694, 655, 693
 888, 574, 573, 117
 889, 671, 626, 597
 890, 574, 117, 118
 891, 621, 620, 573
 892, 575, 118,   8
 893, 575, 119, 530
 894, 576, 530, 120
 895, 577, 576, 121
 896, 577, 121,   2
 897, 626, 542, 597
 898, 630, 629, 584
 899, 578, 547, 546
 900, 646, 586, 637
 901, 584, 579, 548
 902, 580, 545, 544
 903, 612, 568, 611
 904, 581, 578, 546
 905, 581, 545, 580
 906, 583, 582, 550
 907, 628, 583, 627
 908, 583, 550, 549
 909, 669, 637, 633
 910, 584, 548, 547
 911, 631, 630, 578
 912, 585, 531,  17
 913, 586,  16,  15
 914, 598,  14, 588
 915, 672, 669, 628
 916, 587, 535, 534
 917, 593, 534, 533
 918, 588,  14,  13
 919, 624, 552, 551
 920, 589, 540, 539
 921, 590, 539, 538
 922, 599, 538, 537
 923, 688, 687, 643
 924, 591, 537, 536
 925, 592, 536, 529
 926, 600, 592, 529
 927, 615, 608, 562
 928, 594, 533, 532
 929, 652, 602, 651
 930, 595, 532, 531
 931, 654, 609, 652
 932, 647, 531, 585
 933, 627, 583, 579
 934, 690, 621, 622
 935, 596, 541, 540
 936, 626, 577, 542
 937, 597, 542, 541
 938, 637, 624, 633
 939, 598, 586,  15
 940, 599, 590, 538
 941, 599, 537, 591
 942, 640, 587, 639
 943, 638, 634, 592
 944, 601, 557, 556
 945, 614, 556, 555
 946, 602, 564, 563
 947, 608, 563, 562
 948, 603, 555, 554
 949, 619, 571, 572
 950, 643, 590, 635
 951, 604, 558, 557
 952, 655, 653, 605
 953, 605, 559, 558
 954, 636, 591, 634
 955, 606, 560, 559
 956, 650, 648, 607
 957, 607, 561, 560
 958, 697, 648, 696
 959, 608, 602, 563
 960, 641, 639, 593
 961, 609, 565, 564
 962, 642, 641, 594
 963, 610, 566, 565
 964, 632, 631, 581
 965, 613, 567, 566
 966, 660, 611, 659
 967, 612, 569, 568
 968, 658, 610, 654
 969, 713, 712, 673
 970, 614, 601, 556
 971, 614, 555, 603
 972, 682, 638, 640
 973, 649, 615, 648
 974, 677, 623, 616
 975, 616, 569, 612
 976, 617, 113, 114
 977, 664, 571, 619
 978, 708, 618, 663
 979, 618, 112, 113
 980, 620, 572, 573
 981, 689, 644, 687
 982, 621, 573, 574
 983, 711, 710, 671
 984, 622, 621, 574
 985, 625, 622, 530
 986, 622, 574, 575
 987, 670, 530, 576
 988, 623, 544, 543
 989, 623, 570, 616
 990, 624, 588, 552
 991, 633, 582, 628
 992, 645, 596, 644
 993, 690, 622, 625
 994, 626, 576, 577
 995, 645, 597, 596
 996, 629, 579, 584
 997, 629, 627, 579
 998, 678, 646, 669
 999, 628, 582, 583
1000, 630, 584, 578
1001, 675, 674, 630
1002, 631, 578, 581
1003, 659, 613, 658
1004, 632, 581, 580
1005, 746, 745, 713
1006, 677, 632, 580
1007, 661, 616, 612
1008, 669, 633, 628
1009, 633, 624, 582
1010, 634, 591, 592
1011, 638, 592, 600
1012, 635, 590, 599
1013, 636, 599, 591
1014, 696, 650, 695
1015, 714, 696, 695
1016, 637, 586, 598
1017, 637, 598, 624
1018, 640, 600, 587
1019, 651, 608, 649
1020, 639, 587, 593
1021, 641, 593, 594
1022, 683, 638, 682
1023, 640, 638, 600
1024, 642, 594, 595
1025, 700, 652, 699
1026, 669, 646, 637
1027, 673, 672, 627
1028, 656, 655, 604
1029, 643, 589, 590
1030, 754, 717, 743
1031, 644, 596, 589
1032, 671, 670, 626
1033, 671, 597, 645
1034, 647, 585, 646
1035, 646, 585, 586
1036, 686, 595, 647
1037, 647, 595, 531
1038, 648, 615, 607
1039, 650, 607, 606
1040, 682, 640, 679
1041, 649, 608, 615
1042, 653, 606, 605
1043, 681, 636, 680
1044, 698, 649, 697
1045, 651, 602, 608
1046, 684, 679, 639
1047, 652, 609, 602
1048, 655, 605, 604
1049, 688, 635, 681
1050, 685, 684, 641
1051, 654, 610, 609
1052, 656, 604, 601
1053, 693, 656, 692
1054, 657, 601, 614
1055, 716, 692, 715
1056, 662, 614, 603
1057, 666, 620, 665
1058, 704, 702, 659
1059, 658, 613, 610
1060, 676, 675, 631
1061, 659, 611, 613
1062, 701, 676, 661
1063, 660, 612, 611
1064, 677, 661, 632
1065, 661, 612, 660
1066, 703, 663, 668
1067, 709, 691, 662
1068, 663, 603, 554
1069, 708, 663, 553
1070, 664, 617, 571
1071, 706, 619, 666
1072, 665, 620, 621
1073, 743, 689, 729
1074, 718, 709, 706
1075, 666, 619, 620
1076, 667, 543,  91
1077, 667,  92, 570
1078, 668, 618, 617
1079, 668, 617, 664
1080, 672, 628, 627
1081, 719, 669, 672
1082, 670, 625, 530
1083, 670, 576, 626
1084, 711, 645, 689
1085, 710, 670, 671
1086, 673, 627, 629
1087, 726, 678, 719
1088, 674, 629, 630
1089, 674, 673, 629
1090, 675, 630, 631
1091, 720, 701, 702
1092, 676, 631, 632
1093, 720, 676, 701
1094, 676, 632, 661
1095, 701, 661, 660
1096, 677, 580, 623
1097, 677, 616, 661
1098, 686, 647, 678
1099, 678, 647, 646
1100, 679, 640, 639
1101, 684, 639, 641
1102, 680, 636, 634
1103, 683, 634, 638
1104, 695, 653, 694
1105, 681, 635, 636
1106, 721, 699, 698
1107, 722, 721, 698
1108, 723, 696, 714
1109, 683, 680, 634
1110, 685, 641, 642
1111, 724, 699, 721
1112, 725, 642, 686
1113, 705, 704, 658
1114, 686, 642, 595
1115, 745, 726, 712
1116, 687, 644, 643
1117, 688, 643, 635
1118, 727, 714, 695
1119, 728, 693, 716
1120, 717, 690, 710
1121, 689, 645, 644
1122, 690, 665, 621
1123, 710, 690, 625
1124, 692, 657, 691
1125, 691, 657, 662
1126, 770, 744, 757
1127, 692, 656, 657
1128, 730, 729, 687
1129, 693, 655, 656
1130, 764, 762, 714
1131, 694, 653, 655
1132, 732, 731, 681
1133, 695, 650, 653
1134, 723, 722, 697
1135, 696, 648, 650
1136, 778, 760, 761
1137, 697, 649, 648
1138, 735, 734, 682
1139, 698, 651, 649
1140, 779, 760, 778
1141, 699, 652, 651
1142, 751, 748, 736
1143, 700, 654, 652
1144, 702, 660, 659
1145, 702, 701, 660
1146, 739, 720, 702
1147, 704, 659, 658
1148, 703, 662, 603
1149, 703, 603, 663
1150, 705, 658, 654
1151, 769, 745, 746
1152, 740, 700, 724
1153, 741, 705, 740
1154, 706, 664, 619
1155, 742, 666, 707
1156, 707, 666, 665
1157, 770, 757, 715
1158, 708, 553, 111
1159, 708, 112, 618
1160, 709, 662, 703
1161, 709, 703, 668
1162, 710, 625, 670
1163, 711, 671, 645
1164, 744, 743, 729
1165, 717, 710, 711
1166, 712, 672, 673
1167, 713, 673, 674
1168, 738, 674, 675
1169, 768, 720, 739
1170, 727, 695, 694
1171, 777, 761, 762
1172, 715, 692, 691
1173, 718, 715, 691
1174, 774, 758, 773
1175, 716, 693, 692
1176, 717, 707, 665
1177, 717, 665, 690
1178, 718, 691, 709
1179, 742, 706, 666
1180, 719, 678, 669
1181, 719, 672, 712
1182, 720, 675, 676
1183, 739, 702, 704
1184, 722, 698, 697
1185, 736, 735, 679
1186, 723, 697, 696
1187, 734, 733, 683
1188, 776, 762, 764
1189, 733, 732, 680
1190, 737, 736, 684
1191, 724, 700, 699
1192, 725, 685, 642
1193, 726, 725, 686
1194, 726, 686, 678
1195, 726, 719, 712
1196, 728, 727, 694
1197, 731, 730, 688
1198, 728, 694, 693
1199, 773, 757, 744
1200, 729, 689, 687
1201, 730, 687, 688
1202, 731, 688, 681
1203, 756, 730, 755
1204, 732, 681, 680
1205, 755, 731, 752
1206, 733, 680, 683
1207, 752, 732, 750
1208, 734, 683, 682
1209, 750, 733, 749
1210, 735, 682, 679
1211, 749, 734, 747
1212, 736, 679, 684
1213, 748, 735, 736
1214, 737, 684, 685
1215, 748, 747, 735
1216, 753, 685, 725
1217, 767, 740, 765
1218, 738, 713, 674
1219, 738, 675, 720
1220, 741, 704, 705
1221, 781, 772, 769
1222, 740, 705, 700
1223, 780, 763, 779
1224, 769, 766, 767
1225, 741, 739, 704
1226, 770, 707, 754
1227, 742, 715, 718
1228, 743, 717, 711
1229, 743, 711, 689
1230, 756, 729, 730
1231, 773, 758, 757
1232, 771, 726, 745
1233, 746, 713, 738
1234, 768, 746, 738
1235, 766, 739, 741
1236, 779, 763, 760
1237, 747, 734, 735
1238, 751, 736, 737
1239, 780, 765, 763
1240, 778, 761, 777
1241, 749, 733, 734
1242, 762, 761, 723
1243, 750, 732, 733
1244, 772, 753, 769
1245, 767, 766, 741
1246, 764, 727, 759
1247, 752, 731, 732
1248, 753, 737, 685
1249, 771, 753, 725
1250, 754, 707, 717
1251, 754, 743, 744
1252, 775, 764, 759
1253, 755, 730, 731
1254, 774, 759, 758
1255, 756, 744, 729
1256, 757, 716, 715
1257, 770, 715, 742
1258, 758, 728, 716
1259, 758, 716, 757
1260, 759, 727, 728
1261, 759, 728, 758
1262, 760, 721, 722
1263, 761, 760, 722
1264, 761, 722, 723
1265, 762, 723, 714
1266, 764, 714, 727
1267, 777, 762, 776
1268, 763, 724, 721
1269, 763, 721, 760
1270, 775, 759, 774
1271, 776, 764, 775
1272, 765, 740, 724
1273, 765, 724, 763
1274, 768, 766, 746
1275, 767, 741, 740
1276, 781, 765, 780
1277, 781, 769, 767
1278, 768, 738, 720
1279, 768, 739, 766
1280, 771, 769, 753
1281, 769, 746, 766
1282, 770, 742, 707
1283, 770, 754, 744
1284, 771, 725, 726
1285, 771, 745, 769
1286, 772, 751, 737
1287, 772, 737, 753
1288, 773, 744, 756
1289, 774, 773, 756
1290, 774, 756, 755
1291, 775, 774, 755
1292, 775, 755, 752
1293, 776, 775, 752
1294, 776, 752, 750
1295, 777, 776, 750
1296, 777, 750, 749
1297, 778, 777, 749
1298, 778, 749, 747
1299, 779, 778, 747
1300, 779, 747, 748
1301, 780, 779, 748
1302, 780, 748, 751
1303, 781, 780, 751
1304, 781, 767, 765
1305, 781, 751, 772
1306,  794,    9,  122
1307,  828,  793,  823
1308,  783,  165,  166
1309,  836,  835,  162
1310,  805,  157,  804
1311,  134,   10,  135
1312,  785,  134,  135
1313,  854,  137,  850
1314,  786,  132,  133
1315,  787,  131,  132
1316,  788,  130,  131
1317,  790,  129,  130
1318,  821,  128,  129
1319,  848,  814,  813
1320,  822,  127,  791
1321,  793,  789,  123
1322,  783,  782,  165
1323,  789,  122,  123
1324,  148,   11,  149
1325,  812,  149,  150
1326,  837,  811,  810
1327,  892,  815,  847
1328,  838,  808,  807
1329,  839,  838,  807
1330,  840,  839,  806
1331,  816,  143,  144
1332,  856,  814,  848
1333,  817,  141,  814
1334,  898,  848,  896
1335,  900,  851,  893
1336,  894,  858,  854
1337,  934,  135,  136
1338,   45,  163,    4
1339,  872,   44,   43
1340,  835,  801,  161
1341,  835,  161,  162
1342,  880,  801,  835
1343,  871,  829,  830
1344,  803,  159,  802
1345,  804,  158,  803
1346,  806,  156,  805
1347,  807,  155,  806
1348,  808,  154,  807
1349,  809,  153,  808
1350,  810,  152,  809
1351,  811,  151,  810
1352,  812,  150,  811
1353,  873,  872,   43
1354,  945,  913,  917
1355,  874,   41,  829
1356,  829,   41,   40
1357,  830,   39,  796
1358,  796,   39,   38
1359,  797,   38,   37
1360,  798,  797,   37
1361,  800,   35,   34
1362,  800,   34,  795
1363,  799,  798,   36
1364,  795,    3,  164
1365,  819,  794,  789
1366,  843,  803,  842
1367,  782,  164,  165
1368,  793,  124,  784
1369,  784,  124,  125
1370,  792,  125,  126
1371,  869,  821,  864
1372,  786,  133,  785
1373,  785,  133,  134
1374,  894,  854,  850
1375,  787,  132,  786
1376,  851,  139,  818
1377,  788,  131,  787
1378,  818,  140,  817
1379,  790,  130,  788
1380,  794,  783,  166
1381,  793,  123,  124
1382,  814,  142,  813
1383,  821,  129,  790
1384,  864,  821,  790
1385,  791,  127,  128
1386,  792,  784,  125
1387,  822,  792,  126
1388,  823,  793,  784
1389,  828,  789,  793
1390,  794,  166,    9
1391,  794,  122,  789
1392,  795,   34,    3
1393,  795,  164,  782
1394,  802,  160,  801
1395,  797,  796,   38
1396,  798,   37,   36
1397,  832,  831,  798
1398,  799,   36,   35
1399,  833,  799,  800
1400,  800,  799,   35
1401,  942,  904,  936
1402,  820,  795,  782
1403,  820,  800,  795
1404,  801,  160,  161
1405,  946,  927,  890
1406,  914,  912,  877
1407,  802,  159,  160
1408,  832,  798,  799
1409,  803,  158,  159
1410,  995,  968,  994
1411,  804,  157,  158
1412,  824,  823,  784
1413,  805,  156,  157
1414,  816,  144,  815
1415,  806,  155,  156
1416,  847,  145,  146
1417,  807,  154,  155
1418,  899,  859,  891
1419,  808,  153,  154
1420,  885,  845,  884
1421,  809,  152,  153
1422,  853,  847,  146
1423,  810,  151,  152
1424,  859,  811,  837
1425,  811,  150,  151
1426,  857,  148,  812
1427,  812,  148,  149
1428,  941,  910,  940
1429,  813,  142,  143
1430,  866,  826,  863
1431,  814,  141,  142
1432,  815,  144,  145
1433,  928,  852,  892
1434,  846,  845,  809
1435,  816,  813,  143
1436,  826,  787,  786
1437,  817,  140,  141
1438,  826,  825,  787
1439,  818,  139,  140
1440,  861,  783,  819
1441,  819,  783,  794
1442,  833,  800,  820
1443,  903,  782,  783
1444,  821,  791,  128
1445,  827,  790,  788
1446,  822,  126,  127
1447,  869,  791,  821
1448,  824,  784,  792
1449,  908,  868,  867
1450,  862,  792,  822
1451,  887,  844,  883
1452,  827,  788,  825
1453,  825,  788,  787
1454,  858,  786,  785
1455,  850,  137,  138
1456,  849,  818,  817
1457,  864,  790,  827
1458,  861,  819,  828
1459,  828,  819,  789
1460,  830,   40,   39
1461,  830,  829,   40
1462,  879,  796,  834
1463,  946,  890,  872
1464,  834,  797,  831
1465,  831,  797,  798
1466,  833,  832,  799
1467,  904,  876,  833
1468,  904,  820,  860
1469,  904,  833,  820
1470,  882,  881,  842
1471,  834,  796,  797
1472,  836,  162,  163
1473,  890,  875,  872
1474,  875,  163,   45
1475,  875,   45,   44
1476,  845,  810,  809
1477,  846,  808,  838
1478,  855,  816,  852
1479,  839,  807,  806
1480,  840,  806,  805
1481,  889,  840,  887
1482,  844,  805,  804
1483,  920,  883,  919
1484,  842,  802,  841
1485,  841,  802,  801
1486,  877,  831,  832
1487,  842,  803,  802
1488,  883,  843,  881
1489,  843,  804,  803
1490,  844,  840,  805
1491,  844,  804,  843
1492,  845,  837,  810
1493,  846,  809,  808
1494,  960,  895,  928
1495,  922,  901,  885
1496,  847,  815,  145
1497,  853,  146,  147
1498,  926,  925,  888
1499,  855,  813,  816
1500,  866,  865,  825
1501,  856,  849,  817
1502,  851,  850,  138
1503,  900,  894,  850
1504,  851,  138,  139
1505,  893,  818,  849
1506,  852,  816,  815
1507,  884,  845,  846
1508,  857,  853,  147
1509,  859,  853,  857
1510,  934,  854,  858
1511,  854,  136,  137
1512,  928,  892,  901
1513,  855,  848,  813
1514,  856,  817,  814
1515,  889,  888,  839
1516,  857,  147,  148
1517,  859,  857,  812
1518,  858,  826,  786
1519,  934,  858,  785
1520,  859,  812,  811
1521,  891,  837,  885
1522,  860,  820,  782
1523,  936,  903,  861
1524,  868,  823,  867
1525,  868,  828,  823
1526,  862,  824,  792
1527,  870,  822,  791
1528,  907,  866,  902
1529,  863,  826,  858
1530,  911,  827,  865
1531,  964,  929,  959
1532,  865,  827,  825
1533,  897,  849,  856
1534,  866,  825,  826
1535,  902,  863,  894
1536,  867,  823,  824
1537,  905,  824,  862
1538,  991,  965,  977
1539,  868,  861,  828
1540,  944,  939,  911
1541,  911,  906,  864
1542,  870,  862,  822
1543,  870,  791,  869
1544,  879,  830,  796
1545,  916,  879,  834
1546,  890,  836,  875
1547,  873,   43,   42
1548,  874,   42,   41
1549,  874,  873,   42
1550,  917,  829,  871
1551,  949,  945,  917
1552,  875,  836,  163
1553,  875,   44,  872
1554,  877,  832,  876
1555,  876,  832,  833
1556,  981,  954,  953
1557,  878,  831,  877
1558,  923,  919,  881
1559,  878,  834,  831
1560,  879,  871,  830
1561,  916,  834,  878
1562,  880,  841,  801
1563,  890,  880,  835
1564,  881,  843,  842
1565,  882,  842,  841
1566,  918,  841,  880
1567,  972,  945,  949
1568, 1022,  991,  997
1569,  883,  844,  843
1570,  886,  846,  838
1571,  886,  884,  846
1572,  901,  891,  885
1573,  885,  837,  845
1574,  888,  838,  839
1575,  956,  937,  922
1576,  970,  943,  969
1577,  887,  840,  844
1578,  926,  889,  921
1579,  888,  886,  838
1580,  889,  839,  840
1581,  921,  887,  920
1582,  890,  835,  836
1583,  961,  946,  913
1584,  901,  899,  891
1585,  891,  859,  837
1586,  892,  852,  815
1587,  899,  892,  847
1588,  893,  851,  818
1589,  929,  849,  897
1590,  894,  863,  858
1591,  900,  850,  851
1592,  896,  855,  895
1593,  895,  855,  852
1594,  898,  897,  856
1595,  896,  848,  855
1596,  930,  897,  898
1597,  898,  856,  848
1598,  963,  962,  931
1599,  931,  930,  898
1600,  899,  847,  853
1601,  899,  853,  859
1602,  933,  900,  893
1603,  902,  894,  900
1604,  901,  892,  899
1605,  922,  885,  884
1606,  929,  893,  849
1607,  902,  866,  863
1608,  903,  860,  782
1609,  903,  783,  861
1610,  936,  861,  935
1611,  935,  861,  868
1612,  905,  867,  824
1613,  909,  862,  870
1614,  910,  869,  906
1615,  906,  869,  864
1616,  986,  930,  962
1617,  907,  865,  866
1618,  914,  877,  876
1619,  938,  867,  905
1620,  909,  905,  862
1621,  910,  909,  870
1622,  910,  870,  869
1623,  925,  924,  886
1624,  911,  864,  827
1625,  944,  865,  907
1626,  978,  923,  951
1627,  912,  878,  877
1628,  913,  873,  874
1629,  917,  913,  874
1630,  942,  876,  904
1631,  971,  914,  942
1632,  915,  871,  879
1633,  916,  915,  879
1634,  948,  878,  912
1635,  948,  916,  878
1636,  917,  874,  829
1637,  949,  871,  915
1638,  918,  882,  841
1639,  927,  918,  880
1640,  919,  883,  881
1641,  923,  881,  882
1642, 1012,  992, 1008
1643,  920,  887,  883
1644,  940,  906,  939
1645,  921,  889,  887
1646,  924,  884,  886
1647,  924,  922,  884
1648,  951,  882,  918
1649,  981,  979,  954
1650,  932,  931,  896
1651,  925,  886,  888
1652,  955,  921,  952
1653,  963,  931,  932
1654,  926,  888,  889
1655,  990,  963,  987
1656,  927,  880,  890
1657,  961,  913,  945
1658,  928,  895,  852
1659,  937,  901,  922
1660,  933,  893,  929
1661,  959,  897,  930
1662,  973,  966,  944
1663,  931,  898,  896
1664,  932,  896,  895
1665,  957,  956,  924
1666,  960,  928,  937
1667,  987,  956,  984
1668,  983,  902,  933
1669,  933,  902,  900
1670,  934,  785,  135
1671,  934,  136,  854
1672,  942,  936,  935
1673,  935,  868,  908
1674,  936,  904,  860
1675,  936,  860,  903
1676,  937,  928,  901
1677,  956,  922,  924
1678,  938,  908,  867
1679,  943,  905,  909
1680,  958,  926,  955
1681,  939,  906,  911
1682,  968,  940,  967
1683,  940,  910,  906
1684,  969,  941,  968
1685,  941,  909,  910
1686,  965,  935,  908
1687,  942,  914,  876
1688,  943,  938,  905
1689,  943,  909,  941
1690,  944,  911,  865
1691,  983,  973,  907
1692, 1009,  945,  972
1693,  949,  917,  871
1694,  946,  872,  873
1695,  946,  873,  913
1696,  947,  912,  914
1697,  970,  938,  943
1698,  950,  916,  948
1699,  974,  912,  947
1700,  975,  915,  950
1701,  975,  972,  949
1702,  999,  972,  975
1703,  950,  915,  916
1704,  951,  923,  882
1705,  961,  951,  918
1706,  952,  921,  920
1707,  954,  920,  919
1708,  953,  919,  923
1709,  976,  948,  974
1710,  954,  952,  920
1711,  954,  919,  953
1712,  967,  939,  966
1713,  955,  926,  921
1714,  957,  924,  925
1715,  958,  925,  926
1716,  958,  957,  925
1717,  987,  963,  932
1718, 1023, 1019, 1018
1719,  982,  955,  980
1720, 1008,  989,  986
1721,  959,  929,  897
1722,  960,  932,  895
1723,  960,  937,  956
1724,  961,  918,  927
1725,  961,  927,  946
1726,  993,  992,  966
1727,  962,  930,  931
1728,  990,  987,  984
1729,  985,  958,  982
1730,  983,  964,  973
1731,  964,  933,  929
1732,  965,  942,  935
1733,  977,  938,  970
1734,  966,  939,  944
1735,  993,  973,  989
1736,  980,  952,  979
1737,  967,  940,  939
1738, 1013,  995, 1011
1739,  968,  941,  940
1740, 1022, 1021,  998
1741,  969,  943,  941
1742,  997,  970,  996
1743,  977,  908,  938
1744,  971,  947,  914
1745,  971,  942,  965
1746, 1009,  972,  978
1747,  975,  949,  915
1748,  973,  944,  907
1749,  989,  959,  986
1750,  974,  948,  912
1751,  998,  947,  991
1752, 1000,  950,  976
1753, 1015,  999, 1000
1754, 1000,  999,  975
1755,  976,  950,  948
1756,  991,  971,  965
1757,  977,  965,  908
1758,  978,  953,  923
1759, 1009,  978,  951
1760,  996,  969,  995
1761,  979,  952,  954
1762,  994,  967,  992
1763,  980,  955,  952
1764, 1001,  978,  999
1765, 1024, 1020, 1013
1766,  985,  984,  957
1767,  982,  958,  955
1768,  983,  907,  902
1769,  983,  933,  964
1770,  984,  956,  957
1771,  985,  957,  958
1772, 1006,  985,  982
1773,  990,  988,  963
1774,  986,  959,  930
1775, 1007,  962,  988
1776,  987,  932,  960
1777,  987,  960,  956
1778,  988,  962,  963
1779, 1005,  980, 1003
1780,  989,  973,  964
1781,  989,  964,  959
1782,  990,  984,  985
1783, 1006,  990,  985
1784,  997,  977,  970
1785,  991,  947,  971
1786,  992,  967,  966
1787, 1012, 1011,  994
1788,  993,  966,  973
1789, 1008,  986, 1007
1790, 1028, 1027, 1023
1791,  994,  968,  967
1792, 1017, 1003, 1016
1793,  995,  969,  968
1794, 1020,  996, 1013
1795,  996,  970,  969
1796, 1025, 1015, 1014
1797,  997,  991,  977
1798, 1002,  974,  998
1799,  998,  974,  947
1800,  999,  978,  972
1801, 1000,  975,  950
1802, 1014,  976, 1002
1803, 1015, 1000, 1014
1804, 1001,  981,  953
1805, 1001,  953,  978
1806, 1015, 1004,  981
1807, 1002,  976,  974
1808, 1003,  980,  979
1809, 1004, 1003,  979
1810, 1004,  979,  981
1811, 1024, 1021, 1020
1812, 1018, 1006, 1005
1813, 1005,  982,  980
1814, 1010,  990, 1006
1815, 1006,  982, 1005
1816, 1007,  986,  962
1817, 1019,  988, 1010
1818, 1008,  992,  993
1819, 1008,  993,  989
1820, 1009,  951,  961
1821, 1009,  961,  945
1822, 1010,  988,  990
1823, 1018, 1005, 1017
1824, 1011,  995,  994
1825, 1012,  994,  992
1826, 1026, 1008, 1007
1827, 1026, 1019, 1023
1828, 1028, 1016, 1024
1829, 1013,  996,  995
1830, 1014, 1000,  976
1831, 1029, 1002, 1021
1832, 1015,  981, 1001
1833, 1015, 1001,  999
1834, 1016, 1003, 1004
1835, 1025, 1016, 1004
1836, 1027, 1011, 1023
1837, 1017, 1005, 1003
1838, 1026, 1023, 1012
1839, 1018, 1010, 1006
1840, 1019, 1007,  988
1841, 1019, 1010, 1018
1842, 1022, 1020, 1021
1843, 1020,  997,  996
1844, 1029, 1025, 1002
1845, 1021, 1002,  998
1846, 1022,  998,  991
1847, 1022,  997, 1020
1848, 1028, 1018, 1017
1849, 1023, 1011, 1012
1850, 1027, 1024, 1013
1851, 1029, 1024, 1016
1852, 1025, 1004, 1015
1853, 1025, 1014, 1002
1854, 1026, 1012, 1008
1855, 1026, 1007, 1019
1856, 1027, 1013, 1011
1857, 1028, 1023, 1018
1858, 1028, 1017, 1016
1859, 1028, 1024, 1027
1860, 1029, 1016, 1025
1861, 1029, 1021, 1024
1862, 1115, 1033, 1075
1863, 1030,  134,  133
1864, 1050,  180, 1049
1865, 1032, 1031,  127
1866, 1066,    8,  118
1867, 1033,  132,  131
1868, 1067,  191,  192
1869, 1034, 1033,  131
1870, 1035, 1034,  130
1871, 1036,  128, 1031
1872, 1037, 1032,  126
1873, 1209, 1197, 1200
1874, 1045,  115, 1044
1875, 1038, 1037,  125
1876, 1039,  167,  168
1877, 1042, 1041,  122
1878, 1103, 1042, 1039
1879, 1042,    9,  167
1880, 1043, 1039,  168
1881,  111,    7,  170
1882, 1059,  170,  171
1883, 1095, 1057, 1088
1884, 1098, 1097,  113
1885, 1097,  114,  113
1886, 1139, 1135, 1136
1887, 1096, 1088, 1056
1888, 1047,  118,  117
1889,  185,  184,   12
1890, 1065,  185,  186
1891, 1105, 1064, 1074
1892, 1174, 1141, 1173
1893, 1049,  181, 1048
1894, 1176, 1140, 1174
1895, 1051,  179, 1050
1896, 1052,  178, 1051
1897, 1053,  177, 1052
1898, 1054,  176, 1053
1899, 1055,  175, 1054
1900, 1056,  174, 1055
1901, 1057,  173, 1056
1902, 1058,  172, 1057
1903, 1059,  171, 1058
1904,  195,   10,  134
1905, 1030,  195,  134
1906, 1070, 1068,  194
1907, 1110, 1068, 1107
1908, 1115, 1107, 1076
1909, 1067, 1060,  191
1910, 1061,  190, 1060
1911, 1062,  189, 1061
1912, 1063,  188, 1062
1913, 1064,  187, 1063
1914, 1065,  186, 1064
1915, 1070,  195, 1030
1916, 1076,  132, 1033
1917, 1031,  128,  127
1918, 1032,  127,  126
1919, 1037,  126,  125
1920, 1091, 1051, 1050
1921, 1034,  131,  130
1922, 1071, 1061, 1060
1923, 1035,  130,  129
1924, 1090, 1089, 1049
1925, 1036, 1035,  129
1926, 1143, 1116, 1120
1927, 1036,  129,  128
1928, 1091, 1050, 1089
1929, 1038,  125,  124
1930, 1100, 1045, 1099
1931, 1040,  124,  123
1932, 1084, 1040, 1041
1933, 1043,  168,  169
1934, 1102, 1047, 1046
1935, 1040, 1038,  124
1936, 1041, 1040,  123
1937, 1041,  123,  122
1938, 1084, 1078, 1040
1939, 1042,  122,    9
1940, 1042,  167, 1039
1941, 1066,  118, 1047
1942, 1046,  116, 1045
1943, 1044,  115,  114
1944, 1081, 1080, 1032
1945, 1179, 1163, 1160
1946, 1045,  116,  115
1947, 1102, 1046, 1100
1948, 1046,  117,  116
1949, 1104, 1047, 1102
1950, 1047,  117, 1046
1951, 1048,  181,  182
1952, 1085,  182,  183
1953, 1079, 1035, 1036
1954, 1049,  180,  181
1955, 1079, 1036, 1077
1956, 1050,  179,  180
1957, 1080, 1077, 1031
1958, 1051,  178,  179
1959, 1143, 1120, 1138
1960, 1052,  177,  178
1961, 1082, 1037, 1038
1962, 1053,  176,  177
1963, 1082, 1038, 1078
1964, 1054,  175,  176
1965, 1096, 1055, 1086
1966, 1055,  174,  175
1967, 1088, 1057, 1056
1968, 1056,  173,  174
1969, 1137, 1098, 1108
1970, 1057,  172,  173
1971, 1108, 1058, 1095
1972, 1058,  171,  172
1973, 1101,  111, 1059
1974, 1059,  111,  170
1975, 1060,  190,  191
1976, 1114, 1060, 1067
1977, 1072, 1061, 1071
1978, 1061,  189,  190
1979, 1073, 1062, 1072
1980, 1062,  188,  189
1981, 1074, 1063, 1073
1982, 1063,  187,  188
1983, 1105, 1092, 1065
1984, 1064,  186,  187
1985, 1092,  184, 1065
1986, 1065,  184,  185
1987, 1066, 1043,  169
1988, 1066,  169,    8
1989, 1069,  192,  193
1990, 1110, 1069, 1068
1991, 1068,  193,  194
1992, 1107, 1030, 1076
1993, 1069, 1067,  192
1994, 1069,  193, 1068
1995, 1070,  194,  195
1996, 1107, 1070, 1030
1997, 1144, 1118, 1140
1998, 1112, 1111, 1073
1999, 1129, 1127, 1089
2000, 1072, 1062, 1061
2001, 1151, 1145, 1124
2002, 1073, 1063, 1062
2003, 1124, 1085, 1105
2004, 1074, 1064, 1063
2005, 1075, 1033, 1034
2006, 1083, 1034, 1035
2007, 1076, 1030,  133
2008, 1076,  133,  132
2009, 1077, 1036, 1031
2010, 1080, 1031, 1032
2011, 1078, 1038, 1040
2012, 1134, 1044, 1097
2013, 1117, 1077, 1116
2014, 1083, 1035, 1079
2015, 1081, 1032, 1037
2016, 1120, 1116, 1080
2017, 1082, 1081, 1037
2018, 1141, 1140, 1117
2019, 1122, 1078, 1084
2020, 1121, 1120, 1081
2021, 1118, 1079, 1117
2022, 1083, 1075, 1034
2023, 1103, 1084, 1041
2024, 1123, 1078, 1122
2025, 1085, 1048,  182
2026, 1092, 1085,  183
2027, 1086, 1055, 1054
2028, 1094, 1054, 1053
2029, 1087, 1053, 1052
2030, 1093, 1052, 1051
2031, 1133, 1088, 1130
2032, 1096, 1056, 1055
2033, 1089, 1050, 1049
2034, 1090, 1049, 1048
2035, 1124, 1048, 1085
2036, 1111, 1074, 1073
2037, 1127, 1126, 1091
2038, 1093, 1051, 1091
2039, 1092,  183,  184
2040, 1105, 1065, 1064
2041, 1126, 1125, 1093
2042, 1093, 1087, 1052
2043, 1094, 1086, 1054
2044, 1094, 1053, 1087
2045, 1137, 1134, 1097
2046, 1095, 1058, 1057
2047, 1183, 1142, 1182
2048, 1130, 1088, 1096
2049, 1097, 1044,  114
2050, 1098,  113,  112
2051, 1101, 1098,  112
2052, 1108, 1101, 1059
2053, 1148, 1084, 1103
2054, 1099, 1045, 1044
2055, 1172, 1149, 1135
2056, 1100, 1046, 1045
2057, 1101,  112,  111
2058, 1108, 1059, 1058
2059, 1149, 1102, 1135
2060, 1104, 1066, 1047
2061, 1103, 1041, 1042
2062, 1150, 1039, 1043
2063, 1150, 1106, 1039
2064, 1104, 1043, 1066
2065, 1151, 1124, 1105
2066, 1105, 1085, 1092
2067, 1148, 1103, 1106
2068, 1106, 1103, 1039
2069, 1110, 1109, 1069
2070, 1107, 1068, 1070
2071, 1152, 1137, 1108
2072, 1108, 1098, 1101
2073, 1192, 1190, 1170
2074, 1109, 1067, 1069
2075, 1154, 1107, 1115
2076, 1157, 1154, 1115
2077, 1112, 1073, 1072
2078, 1113, 1072, 1071
2079, 1113, 1112, 1072
2080, 1155, 1112, 1113
2081, 1156, 1071, 1114
2082, 1119, 1083, 1118
2083, 1114, 1071, 1060
2084, 1114, 1067, 1109
2085, 1115, 1076, 1033
2086, 1157, 1075, 1119
2087, 1116, 1077, 1080
2088, 1120, 1080, 1081
2089, 1217, 1215, 1193
2090, 1117, 1079, 1077
2091, 1170, 1156, 1153
2092, 1118, 1083, 1079
2093, 1159, 1110, 1154
2094, 1119, 1075, 1083
2095, 1121, 1081, 1082
2096, 1128, 1087, 1125
2097, 1123, 1082, 1078
2098, 1131, 1094, 1128
2099, 1172, 1135, 1139
2100, 1135, 1102, 1100
2101, 1210, 1197, 1160
2102, 1123, 1121, 1082
2103, 1124, 1090, 1048
2104, 1151, 1105, 1074
2105, 1125, 1087, 1093
2106, 1126, 1093, 1091
2107, 1127, 1091, 1089
2108, 1194, 1174, 1193
2109, 1129, 1089, 1090
2110, 1181, 1145, 1164
2111, 1202, 1182, 1201
2112, 1128, 1094, 1087
2113, 1145, 1129, 1090
2114, 1171, 1164, 1155
2115, 1165, 1133, 1130
2116, 1132, 1096, 1086
2117, 1131, 1086, 1094
2118, 1184, 1182, 1166
2119, 1132, 1130, 1096
2120, 1132, 1086, 1131
2121, 1205, 1168, 1165
2122, 1133, 1095, 1088
2123, 1134, 1099, 1044
2124, 1137, 1097, 1098
2125, 1136, 1100, 1099
2126, 1136, 1135, 1100
2127, 1167, 1099, 1134
2128, 1187, 1165, 1147
2129, 1152, 1108, 1095
2130, 1168, 1137, 1152
2131, 1138, 1120, 1121
2132, 1163, 1121, 1123
2133, 1147, 1132, 1142
2134, 1210, 1122, 1148
2135, 1140, 1118, 1117
2136, 1141, 1117, 1116
2137, 1143, 1141, 1116
2138, 1161, 1126, 1158
2139, 1142, 1132, 1131
2140, 1166, 1131, 1128
2141, 1178, 1173, 1143
2142, 1185, 1184, 1146
2143, 1191, 1159, 1175
2144, 1144, 1119, 1118
2145, 1145, 1090, 1124
2146, 1164, 1112, 1155
2147, 1146, 1128, 1125
2148, 1161, 1125, 1126
2149, 1189, 1136, 1167
2150, 1147, 1130, 1132
2151, 1148, 1122, 1084
2152, 1169, 1106, 1150
2153, 1169, 1150, 1149
2154, 1149, 1104, 1102
2155, 1150, 1043, 1104
2156, 1150, 1104, 1149
2157, 1151, 1074, 1111
2158, 1151, 1111, 1145
2159, 1152, 1095, 1133
2160, 1168, 1167, 1134
2161, 1153, 1114, 1109
2162, 1159, 1109, 1110
2163, 1154, 1110, 1107
2164, 1157, 1115, 1075
2165, 1162, 1158, 1127
2166, 1177, 1113, 1156
2167, 1156, 1113, 1071
2168, 1156, 1114, 1153
2169, 1192, 1191, 1175
2170, 1175, 1159, 1157
2171, 1158, 1126, 1127
2172, 1162, 1127, 1129
2173, 1159, 1153, 1109
2174, 1159, 1154, 1157
2175, 1163, 1123, 1160
2176, 1160, 1123, 1122
2177, 1186, 1185, 1161
2178, 1161, 1146, 1125
2179, 1181, 1164, 1171
2180, 1181, 1171, 1162
2181, 1180, 1163, 1179
2182, 1163, 1138, 1121
2183, 1164, 1145, 1111
2184, 1164, 1111, 1112
2185, 1205, 1187, 1189
2186, 1165, 1130, 1147
2187, 1166, 1142, 1131
2188, 1166, 1128, 1146
2189, 1167, 1136, 1099
2190, 1168, 1134, 1137
2191, 1168, 1152, 1133
2192, 1168, 1133, 1165
2193, 1172, 1169, 1149
2194, 1169, 1148, 1106
2195, 1215, 1207, 1194
2196, 1192, 1170, 1191
2197, 1196, 1155, 1177
2198, 1188, 1186, 1158
2199, 1200, 1197, 1172
2200, 1210, 1172, 1197
2201, 1173, 1141, 1143
2202, 1178, 1143, 1138
2203, 1190, 1177, 1170
2204, 1174, 1140, 1141
2205, 1175, 1157, 1119
2206, 1175, 1119, 1144
2207, 1212, 1192, 1176
2208, 1176, 1144, 1140
2209, 1177, 1155, 1113
2210, 1177, 1156, 1170
2211, 1180, 1138, 1163
2212, 1217, 1216, 1203
2213, 1197, 1179, 1160
2214, 1199, 1198, 1180
2215, 1216, 1201, 1203
2216, 1180, 1178, 1138
2217, 1181, 1162, 1129
2218, 1181, 1129, 1145
2219, 1182, 1142, 1166
2220, 1184, 1166, 1146
2221, 1209, 1208, 1204
2222, 1183, 1147, 1142
2223, 1185, 1146, 1161
2224, 1198, 1195, 1178
2225, 1186, 1161, 1158
2226, 1195, 1193, 1173
2227, 1188, 1158, 1162
2228, 1215, 1194, 1193
2229, 1187, 1147, 1183
2230, 1208, 1187, 1204
2231, 1188, 1162, 1171
2232, 1214, 1171, 1196
2233, 1189, 1139, 1136
2234, 1205, 1189, 1167
2235, 1212, 1194, 1211
2236, 1212, 1211, 1190
2237, 1191, 1170, 1153
2238, 1191, 1153, 1159
2239, 1192, 1175, 1144
2240, 1192, 1144, 1176
2241, 1193, 1174, 1173
2242, 1195, 1173, 1178
2243, 1214, 1207, 1188
2244, 1194, 1176, 1174
2245, 1198, 1178, 1180
2246, 1217, 1206, 1215
2247, 1196, 1171, 1155
2248, 1196, 1177, 1190
2249, 1210, 1160, 1122
2250, 1200, 1172, 1139
2251, 1199, 1180, 1179
2252, 1216, 1213, 1201
2253, 1209, 1179, 1197
2254, 1213, 1202, 1201
2255, 1208, 1189, 1187
2256, 1209, 1202, 1199
2257, 1201, 1182, 1184
2258, 1203, 1201, 1184
2259, 1209, 1204, 1202
2260, 1202, 1183, 1182
2261, 1203, 1184, 1185
2262, 1206, 1203, 1185
2263, 1204, 1187, 1183
2264, 1204, 1183, 1202
2265, 1205, 1167, 1168
2266, 1205, 1165, 1187
2267, 1206, 1185, 1186
2268, 1207, 1206, 1186
2269, 1207, 1186, 1188
2270, 1214, 1211, 1207
2271, 1208, 1200, 1139
2272, 1208, 1139, 1189
2273, 1209, 1199, 1179
2274, 1209, 1200, 1208
2275, 1210, 1148, 1169
2276, 1210, 1169, 1172
2277, 1211, 1196, 1190
2278, 1211, 1194, 1207
2279, 1212, 1190, 1192
2280, 1212, 1176, 1194
2281, 1213, 1198, 1199
2282, 1213, 1199, 1202
2283, 1214, 1188, 1171
2284, 1214, 1196, 1211
2285, 1217, 1193, 1195
2286, 1215, 1206, 1207
2287, 1216, 1195, 1198
2288, 1216, 1198, 1213
2289, 1217, 1195, 1216
2290, 1217, 1203, 1206
*Orientation, name=Ori-1
1., 0., 0., 0., 1., 0.
3, 0.
** Region: (CompositeLayup-1-1: Generated From Layup)
*Elset, elset=CompositeLayup-1-1, generate
    1,  2290,     1
** Section: CompositeLayup-1-1
*Shell Section, elset=CompositeLayup-1-1, composite, orientation=Ori-1, layup=CompositeLayup-1, symmetric
0.25, 3, CFRP, 0., Ply-1
0.25, 3, CFRP, 45., Ply-2
0.25, 3, CFRP, 90., Ply-3
0.25, 3, CFRP, -45., Ply-4
*End Part
**  
**
** ASSEMBLY
**
*Assembly, name=Assembly
**  
*Instance, name=Plate-1, part=PLATE
*End Instance
**  
*Nset, nset=Set-1, instance=Plate-1
   6,   7,  12,  91,  92,  93,  94,  95,  96,  97,  98,  99, 100, 101, 102, 103
 104, 105, 106, 107, 108, 109, 110, 170, 171, 172, 173, 174, 175, 176, 177, 178
 179, 180, 181, 182, 183, 184
*Elset, elset=Set-1, instance=Plate-1
  760,  771,  790,  848,  850,  853,  855,  857,  859,  861,  863,  865,  867,  869,  871,  873
  875,  877,  879,  881,  883, 1881, 1882, 1889, 1951, 1952, 1954, 1956, 1958, 1960, 1962, 1964
 1966, 1968, 1970, 1972, 2039
*Nset, nset=Set-2, instance=Plate-1
   4,   5,  11,  46,  47,  48,  49,  50,  51,  52,  53,  54,  55,  56,  57,  58
  59,  60,  61,  62,  63,  64,  65, 149, 150, 151, 152, 153, 154, 155, 156, 157
 158, 159, 160, 161, 162, 163
*Elset, elset=Set-2, instance=Plate-1
   25,   26,   37,  119,  122,  124,  126,  128,  130,  132,  134,  136,  138,  140,  142,  144
  146,  148,  150,  152,  238, 1324, 1325, 1338, 1341, 1404, 1407, 1409, 1411, 1413, 1415, 1417
 1419, 1421, 1423, 1425, 1472
*End Assembly
** 
** MATERIALS
** 
*Material, name=CFRP
*Elastic, type=ENGINEERING CONSTANTS
150000.,9000.,9000., 0.34, 0.34,  0.4,5000.,5000.
5000.,
** ----------------------------------------------------------------
** 
** STEP: Step-1
** 
*Step, name=Step-1, nlgeom=NO
*Static
1., 1., 1e-05, 1.
** 
** BOUNDARY CONDITIONS
** 
** Name: BC-1 Type: Symmetry/Antisymmetry/Encastre
*Boundary
Set-1, ENCASTRE
** Name: DISPLACEMENT Type: Displacement/Rotation
*Boundary
Set-2, 1, 1, 1.26316
** 
** OUTPUT REQUESTS
** 
*Restart, write, frequency=0
** 
** FIELD OUTPUT: F-Output-1
** 
*Output, field
*Element Output, position=NODES, directions=YES
E, 
** 
** HISTORY OUTPUT: H-Output-1
** 
*Output, history, variable=PRESELECT
*End Step
