*Heading
** Job name: Plate_322 Model name: Model-1
** Generated by: Abaqus/CAE 2024.HF3
*Preprint, echo=NO, model=NO, history=NO, contact=NO
**
** PARTS
**
*Part, name=PLATE
*Node
      1,   106.702644,    186.88858,           0.
      2,   106.702644,   122.031265,           0.
      3,   122.830391,   105.903526,           0.
      4,   188.298782,   105.903526,           0.
      5,   188.298782,    186.88858,           0.
      6,           0.,    186.88858,           0.
      7,           0.,   105.903526,           0.
      8,   90.5749054,   105.903526,           0.
      9,   106.702644,   89.7757797,           0.
     10,   106.702644,           0.,           0.
     11,   188.298782,           0.,           0.
     12,           0.,           0.,           0.
     13,   106.702644,   180.992462,           0.
     14,   106.702644,   175.096344,           0.
     15,   106.702644,   169.200211,           0.
     16,   106.702644,   163.304092,           0.
     17,   106.702644,   157.407974,           0.
     18,   106.702644,   151.511856,           0.
     19,   106.702644,   145.615738,           0.
     20,   106.702644,    139.71962,           0.
     21,   106.702644,   133.823502,           0.
     22,   106.702644,   127.927383,           0.
     23,   112.874466,   120.803619,           0.
     24,   118.106682,   117.307564,           0.
     25,   121.602737,   112.075348,           0.
     26,   128.782059,   105.903526,           0.
     27,   134.733734,   105.903526,           0.
     28,    140.68541,   105.903526,           0.
     29,   146.637085,   105.903526,           0.
     30,   152.588745,   105.903526,           0.
     31,   158.540421,   105.903526,           0.
     32,   164.492096,   105.903526,           0.
     33,   170.443771,   105.903526,           0.
     34,   176.395447,   105.903526,           0.
     35,   182.347107,   105.903526,           0.
     36,   188.298782,   111.688171,           0.
     37,   188.298782,   117.472816,           0.
     38,   188.298782,   123.257462,           0.
     39,   188.298782,   129.042114,           0.
     40,   188.298782,   134.826752,           0.
     41,   188.298782,   140.611404,           0.
     42,   188.298782,   146.396057,           0.
     43,   188.298782,   152.180695,           0.
     44,   188.298782,   157.965347,           0.
     45,   188.298782,   163.749985,           0.
     46,   188.298782,   169.534637,           0.
     47,   188.298782,   175.319275,           0.
     48,   188.298782,   181.103928,           0.
     49,    182.47049,    186.88858,           0.
     50,   176.642197,    186.88858,           0.
     51,   170.813904,    186.88858,           0.
     52,   164.985596,    186.88858,           0.
     53,   159.157303,    186.88858,           0.
     54,    153.32901,    186.88858,           0.
     55,   147.500717,    186.88858,           0.
     56,   141.672424,    186.88858,           0.
     57,   135.844131,    186.88858,           0.
     58,   130.015823,    186.88858,           0.
     59,   124.187531,    186.88858,           0.
     60,   118.359238,    186.88858,           0.
     61,   112.530945,    186.88858,           0.
     62,   100.774719,    186.88858,           0.
     63,   94.8467941,    186.88858,           0.
     64,    88.918869,    186.88858,           0.
     65,   82.9909439,    186.88858,           0.
     66,   77.0630188,    186.88858,           0.
     67,   71.1350937,    186.88858,           0.
     68,   65.2071686,    186.88858,           0.
     69,   59.2792473,    186.88858,           0.
     70,   53.3513222,    186.88858,           0.
     71,   47.4233971,    186.88858,           0.
     72,    41.495472,    186.88858,           0.
     73,   35.5675468,    186.88858,           0.
     74,   29.6396236,    186.88858,           0.
     75,   23.7116985,    186.88858,           0.
     76,   17.7837734,    186.88858,           0.
     77,   11.8558493,    186.88858,           0.
     78,   5.92792463,    186.88858,           0.
     79,           0.,   181.103928,           0.
     80,           0.,   175.319275,           0.
     81,           0.,   169.534637,           0.
     82,           0.,   163.749985,           0.
     83,           0.,   157.965347,           0.
     84,           0.,   152.180695,           0.
     85,           0.,   146.396057,           0.
     86,           0.,   140.611404,           0.
     87,           0.,   134.826752,           0.
     88,           0.,   129.042114,           0.
     89,           0.,   123.257462,           0.
     90,           0.,   117.472816,           0.
     91,           0.,   111.688171,           0.
     92,   6.03832674,   105.903526,           0.
     93,   12.0766535,   105.903526,           0.
     94,   18.1149807,   105.903526,           0.
     95,    24.153307,   105.903526,           0.
     96,   30.1916351,   105.903526,           0.
     97,   36.2299614,   105.903526,           0.
     98,   42.2682877,   105.903526,           0.
     99,   48.3066139,   105.903526,           0.
    100,   54.3449402,   105.903526,           0.
    101,   60.3832703,   105.903526,           0.
    102,   66.4215927,   105.903526,           0.
    103,   72.4599228,   105.903526,           0.
    104,   78.4982529,   105.903526,           0.
    105,   84.5365753,   105.903526,           0.
    106,   91.8025513,   112.075348,           0.
    107,   95.2986069,   117.307564,           0.
    108,   100.530823,   120.803619,           0.
    109,   106.702644,   83.7907333,           0.
    110,   106.702644,   77.8056793,           0.
    111,   106.702644,   71.8206253,           0.
    112,   106.702644,   65.8355713,           0.
    113,   106.702644,   59.8505211,           0.
    114,   106.702644,   53.8654709,           0.
    115,   106.702644,   47.8804169,           0.
    116,   106.702644,   41.8953667,           0.
    117,   106.702644,   35.9103127,           0.
    118,   106.702644,   29.9252605,           0.
    119,   106.702644,   23.9402084,           0.
    120,   106.702644,   17.9551563,           0.
    121,   106.702644,   11.9701042,           0.
    122,   106.702644,   5.98505211,           0.
    123,   112.530945,           0.,           0.
    124,   118.359238,           0.,           0.
    125,   124.187531,           0.,           0.
    126,   130.015823,           0.,           0.
    127,   135.844131,           0.,           0.
    128,   141.672424,           0.,           0.
    129,   147.500717,           0.,           0.
    130,    153.32901,           0.,           0.
    131,   159.157303,           0.,           0.
    132,   164.985596,           0.,           0.
    133,   170.813904,           0.,           0.
    134,   176.642197,           0.,           0.
    135,    182.47049,           0.,           0.
    136,   188.298782,   5.88352919,           0.
    137,   188.298782,   11.7670584,           0.
    138,   188.298782,   17.6505871,           0.
    139,   188.298782,   23.5341167,           0.
    140,   188.298782,   29.4176464,           0.
    141,   188.298782,   35.3011742,           0.
    142,   188.298782,   41.1847038,           0.
    143,   188.298782,   47.0682335,           0.
    144,   188.298782,   52.9517632,           0.
    145,   188.298782,   58.8352928,           0.
    146,   188.298782,   64.7188187,           0.
    147,   188.298782,   70.6023483,           0.
    148,   188.298782,    76.485878,           0.
    149,   188.298782,   82.3694077,           0.
    150,   188.298782,   88.2529373,           0.
    151,   188.298782,    94.136467,           0.
    152,   188.298782,   100.019997,           0.
    153,   121.602737,   99.7317047,           0.
    154,   118.106682,   94.4994888,           0.
    155,   112.874466,   91.0034332,           0.
    156,   100.530823,   91.0034332,           0.
    157,   95.2986069,   94.4994888,           0.
    158,   91.8025513,   99.7317047,           0.
    159,           0.,   100.019997,           0.
    160,           0.,    94.136467,           0.
    161,           0.,   88.2529373,           0.
    162,           0.,   82.3694077,           0.
    163,           0.,    76.485878,           0.
    164,           0.,   70.6023483,           0.
    165,           0.,   64.7188187,           0.
    166,           0.,   58.8352928,           0.
    167,           0.,   52.9517632,           0.
    168,           0.,   47.0682335,           0.
    169,           0.,   41.1847038,           0.
    170,           0.,   35.3011742,           0.
    171,           0.,   29.4176464,           0.
    172,           0.,   23.5341167,           0.
    173,           0.,   17.6505871,           0.
    174,           0.,   11.7670584,           0.
    175,           0.,   5.88352919,           0.
    176,   5.92792463,           0.,           0.
    177,   11.8558493,           0.,           0.
    178,   17.7837734,           0.,           0.
    179,   23.7116985,           0.,           0.
    180,   29.6396236,           0.,           0.
    181,   35.5675468,           0.,           0.
    182,    41.495472,           0.,           0.
    183,   47.4233971,           0.,           0.
    184,   53.3513222,           0.,           0.
    185,   59.2792473,           0.,           0.
    186,   65.2071686,           0.,           0.
    187,   71.1350937,           0.,           0.
    188,   77.0630188,           0.,           0.
    189,   82.9909439,           0.,           0.
    190,    88.918869,           0.,           0.
    191,   94.8467941,           0.,           0.
    192,   100.774719,           0.,           0.
    193,   112.058266,   179.053619,           0.
    194,   123.531525,   118.429443,           0.
    195,   126.364388,    111.70652,           0.
    196,   111.830719,   160.359756,           0.
    197,    111.81575,   154.462448,           0.
    198,   111.823662,   148.567352,           0.
    199,   111.840714,   142.672333,           0.
    200,   111.862267,   136.840012,           0.
    201,   117.963295,   122.890892,           0.
    202,   111.987503,   131.169327,           0.
    203,    112.27227,   125.622215,           0.
    204,   149.618698,   111.067749,           0.
    205,   143.672882,    111.07972,           0.
    206,   137.763779,   111.091469,           0.
    207,   132.039581,   111.260048,           0.
    208,   183.080124,   166.639725,           0.
    209,   183.163239,   160.858002,           0.
    210,   183.250854,   155.073456,           0.
    211,   183.276184,   149.288864,           0.
    212,   183.278336,   143.504242,           0.
    213,   183.275909,   137.719879,           0.
    214,   183.271988,   131.935623,           0.
    215,   183.215805,   126.126854,           0.
    216,   183.025543,   120.118988,           0.
    217,   182.963531,   113.788162,           0.
    218,   121.368698,   181.855026,           0.
    219,   150.415161,   181.840073,           0.
    220,   156.243546,   181.841675,           0.
    221,   162.071838,   181.843201,           0.
    222,   167.934189,    181.79808,           0.
    223,   174.024185,   181.639481,           0.
    224,   180.400085,    181.63298,           0.
    225,   183.048676,   172.377991,           0.
    226,   177.730209,   163.731308,           0.
    227,   178.247528,   140.614868,           0.
    228,   178.181137,   129.006027,           0.
    229,   178.228531,   134.825104,           0.
    230,   178.219421,   152.177444,           0.
    231,   178.021317,   157.929596,           0.
    232,   178.242172,   146.397552,           0.
    233,   178.006866,   123.113266,           0.
    234,   183.532242,   177.260406,           0.
    235,   144.586884,   181.838333,           0.
    236,   132.934525,   181.839264,           0.
    237,   138.759491,   181.837021,           0.
    238,   153.330688,   176.793182,           0.
    239,   159.156586,   176.795853,           0.
    240,    164.97702,   176.764725,           0.
    241,   170.877151,   176.643814,           0.
    242,   116.436111,    182.20015,           0.
    243,   127.122421,   181.841797,           0.
    244,   111.896172,   166.372696,           0.
    245,    116.97348,    145.64505,           0.
    246,   117.057007,    139.85878,           0.
    247,   117.041107,   134.301239,           0.
    248,   116.937469,   151.528427,           0.
    249,   116.932526,   157.417419,           0.
    250,    155.57222,   111.061073,           0.
    251,   167.548615,   111.122238,           0.
    252,   135.132416,   116.381233,           0.
    253,    178.50766,   110.724548,           0.
    254,   161.546646,   111.079071,           0.
    255,   146.678665,    116.24881,           0.
    256,   140.838272,   116.272453,           0.
    257,   173.451385,   111.101547,           0.
    258,   177.132492,   116.560196,           0.
    259,   177.489243,   175.876663,           0.
    260,   112.054268,   172.582565,           0.
    261,   117.838905,   176.274567,           0.
    262,   173.330017,   120.815506,           0.
    263,   172.705505,   160.687515,           0.
    264,   173.204132,   143.511856,           0.
    265,   173.017395,   155.026901,           0.
    266,   173.159241,   149.283218,           0.
    267,   173.193481,   137.730164,           0.
    268,    173.15683,   131.857803,           0.
    269,   173.108292,   125.977097,           0.
    270,   177.649704,   169.574753,           0.
    271,   130.045654,   176.611603,           0.
    272,   141.680695,   176.786163,           0.
    273,   135.888306,    176.76561,           0.
    274,   167.926971,    171.81012,           0.
    275,   162.094559,   171.784912,           0.
    276,   156.251114,   171.753479,           0.
    277,   147.504929,   176.789078,           0.
    278,   124.178108,   176.530655,           0.
    279,   116.965416,   163.448959,           0.
    280,   122.036736,   154.509995,           0.
    281,    122.08773,   148.630615,           0.
    282,   122.079605,   136.940628,           0.
    283,   122.136398,   142.782669,           0.
    284,   173.120041,   172.128632,           0.
    285,   158.558762,   116.240707,           0.
    286,   164.592743,   116.395798,           0.
    287,   170.648163,   116.372971,           0.
    288,   138.073669,   121.448486,           0.
    289,   143.804916,   121.439674,           0.
    290,   152.616486,   116.231804,           0.
    291,   117.433891,   128.727631,           0.
    292,   129.582947,   116.854843,           0.
    293,   117.067894,   169.555908,           0.
    294,    123.64724,   126.182899,           0.
    295,   167.875244,   122.273994,           0.
    296,   127.860161,   121.915672,           0.
    297,   171.727371,    166.79863,           0.
    298,   168.167374,   134.700302,           0.
    299,   168.154266,   140.593094,           0.
    300,   167.817047,   157.840637,           0.
    301,   168.005936,   152.171021,           0.
    302,   168.234726,   128.729828,           0.
    303,   168.113083,   146.401657,           0.
    304,   121.944511,   166.626022,           0.
    305,   133.145096,    171.50145,           0.
    306,   150.422943,   171.741501,           0.
    307,     159.1922,   166.632904,           0.
    308,   138.827591,   171.658432,           0.
    309,   165.198013,   166.839508,           0.
    310,   144.609436,   171.717224,           0.
    311,   127.003395,   170.534866,           0.
    312,   127.252045,   145.753387,           0.
    313,   127.173241,   151.621017,           0.
    314,   121.981339,   160.543411,           0.
    315,   127.283058,   139.617218,           0.
    316,   155.533234,   121.546181,           0.
    317,   161.473602,    121.67968,           0.
    318,   140.889206,   126.745537,           0.
    319,   149.638367,   121.415092,           0.
    320,    121.60656,   171.904404,           0.
    321,   126.979477,   163.844559,           0.
    322,    163.35701,   131.515594,           0.
    323,   162.934143,   154.940247,           0.
    324,   163.199936,   137.546005,           0.
    325,   163.014923,    149.26265,           0.
    326,   163.096069,   143.466324,           0.
    327,   167.966385,   162.679993,           0.
    328,   153.281784,   166.594131,           0.
    329,   136.077606,   166.528488,           0.
    330,   162.501099,   161.048309,           0.
    331,   147.494232,   166.590805,           0.
    332,   141.760101,   166.591431,           0.
    333,    132.38327,   148.899796,           0.
    334,   163.873993,   126.345383,           0.
    335,   132.418686,   142.786484,           0.
    336,   127.188873,   157.697556,           0.
    337,   152.362366,   126.716362,           0.
    338,   158.464172,   127.659119,           0.
    339,   127.060173,   132.667847,           0.
    340,     121.4524,   131.764053,           0.
    341,   135.254791,   126.680298,           0.
    342,   146.673248,    126.65303,           0.
    343,    132.73674,   161.158966,           0.
    344,   158.347565,   134.313843,           0.
    345,   158.066025,   152.045914,           0.
    346,   158.068954,   140.434753,           0.
    347,   158.055145,   146.352768,           0.
    348,   156.116974,   161.342209,           0.
    349,   137.691116,    146.12767,           0.
    350,   138.887573,     161.5914,           0.
    351,   131.188461,   166.713669,           0.
    352,   150.242935,   161.284378,           0.
    353,   144.481369,   161.451797,           0.
    354,   132.252335,   154.815872,           0.
    355,   149.363129,   131.811493,           0.
    356,   132.353333,   136.432709,           0.
    357,   143.752502,   131.994003,           0.
    358,   137.644196,   132.787552,           0.
    359,   158.521729,   156.978073,           0.
    360,   153.137238,   143.543625,           0.
    361,   152.614197,   137.156403,           0.
    362,   153.233673,   149.286789,           0.
    363,   141.271622,   156.506699,           0.
    364,   146.860321,   156.113785,           0.
    365,   137.242264,   152.317825,           0.
    366,   137.493225,   139.617142,           0.
    367,   146.551834,   136.998489,           0.
    368,   154.230286,   131.531448,           0.
    369,   132.449341,   131.030746,           0.
    370,   141.745285,   136.812485,           0.
    371,   136.478104,   157.278152,           0.
    372,   129.812759,   126.667221,           0.
    373,   148.426727,   146.480408,           0.
    374,   143.382339,   150.255005,           0.
    375,    153.13446,   155.517792,           0.
    376,   143.431381,    142.53598,           0.
    377,   148.832275,   141.342987,           0.
    378,   149.007507,   151.530762,           0.
    379,   132.619461,   121.657959,           0.
    380,    94.991272,   123.585258,           0.
    381,   44.4586792,   181.752274,           0.
    382,   89.7213058,   118.234131,           0.
    383,   101.573242,   148.572952,           0.
    384,   101.558693,   142.675385,           0.
    385,   101.580772,   136.859055,           0.
    386,    101.62439,   131.242676,           0.
    387,   32.6037598,   181.760132,           0.
    388,   38.5308342,   181.756165,           0.
    389,   33.2062149,   111.135262,           0.
    390,   56.3153839,   181.748169,           0.
    391,   62.2436295,   181.748383,           0.
    392,   68.1716385,   181.749832,           0.
    393,   74.0995102,   181.751968,           0.
    394,   80.0274506,   181.751343,           0.
    395,    85.989502,   181.705353,           0.
    396,   92.1677017,   181.555222,           0.
    397,   98.6556473,   181.546753,           0.
    398,   5.40216684,   113.827438,           0.
    399,   5.32521296,   120.135239,           0.
    400,   5.10837412,    126.12278,           0.
    401,   5.04896164,   131.931793,           0.
    402,   5.03215981,   137.719009,           0.
    403,   5.02710104,   143.504105,           0.
    404,    5.0242691,   149.288666,           0.
    405,   5.02434587,   155.072952,           0.
    406,   5.02835131,   160.856339,           0.
    407,   5.08109951,   166.665878,           0.
    408,   5.26311541,   172.677551,           0.
    409,   5.31430054,   179.001678,           0.
    410,   21.0476494,   111.300812,           0.
    411,   27.1330757,   111.220436,           0.
    412,   50.3867836,   181.749008,           0.
    413,   39.2473335,   111.130234,           0.
    414,   45.2869148,   111.128906,           0.
    415,   51.3252754,   111.129837,           0.
    416,   57.3630943,   111.133026,           0.
    417,   63.4007835,   111.138657,           0.
    418,   69.4390488,   111.145721,           0.
    419,   75.4124985,   111.156914,           0.
    420,   81.2363968,   111.336632,           0.
    421,   86.9168472,   111.737053,           0.
    422,   10.2439871,   169.534805,           0.
    423,   10.1145849,   163.732346,           0.
    424,   10.0637207,   146.398087,           0.
    425,   10.0866966,   134.831818,           0.
    426,   10.3423443,   123.291092,           0.
    427,   10.1519527,   129.084351,           0.
    428,   10.0762291,   140.615082,           0.
    429,     10.06141,   152.181503,           0.
    430,   10.0715446,   157.961594,           0.
    431,   101.577034,   154.469452,           0.
    432,   101.326469,   166.292038,           0.
    433,   101.449791,   160.379074,           0.
    434,   96.4088364,   145.647919,           0.
    435,   96.4026947,   139.795868,           0.
    436,   96.5739594,   133.948166,           0.
    437,   101.812286,   177.128296,           0.
    438,    101.34613,   172.111069,           0.
    439,   101.274994,   125.778656,           0.
    440,   26.6397381,   181.667862,           0.
    441,   41.4912262,   176.618042,           0.
    442,   88.9605942,   176.476883,           0.
    443,   77.0631485,   176.608841,           0.
    444,    53.350132,   176.604004,           0.
    445,   65.2093124,   176.604248,           0.
    446,   20.6498508,   181.542099,           0.
    447,    14.752286,   181.574921,           0.
    448,   9.78459549,   182.092285,           0.
    449,   59.2800484,   176.601883,           0.
    450,   35.5632362,   176.628693,           0.
    451,   47.4197578,    176.60907,           0.
    452,   71.1375198,   176.606949,           0.
    453,   82.9887772,   176.573227,           0.
    454,   60.3752174,   116.369148,           0.
    455,   15.0488548,   111.255608,           0.
    456,   24.0151348,   116.716881,           0.
    457,   30.1658916,   116.482689,           0.
    458,   36.2207375,   116.369598,           0.
    459,   42.2650566,   116.352264,           0.
    460,     54.34058,   116.358009,           0.
    461,    72.340477,   116.448975,           0.
    462,   78.1446075,   116.626701,           0.
    463,   48.3040504,   116.351997,           0.
    464,    66.383873,   116.396637,           0.
    465,   11.2715921,   116.769882,           0.
    466,   11.0981045,    176.06929,           0.
    467,   95.6756897,   175.696762,           0.
    468,   97.2017441,   128.888565,           0.
    469,   15.0626802,   121.182724,           0.
    470,   15.1154099,   155.072891,           0.
    471,    15.119626,   149.293365,           0.
    472,   15.1893072,   131.986481,           0.
    473,   15.1468019,   160.829376,           0.
    474,   15.1308107,   143.512268,           0.
    475,   15.1564674,   137.737015,           0.
    476,   15.1638231,   166.588974,           0.
    477,   15.2984848,   126.207825,           0.
    478,   14.8973455,   171.703583,           0.
    479,   96.2687225,   157.417679,           0.
    480,   95.9257507,   163.327423,           0.
    481,   95.8475342,   169.279358,           0.
    482,   91.2797318,   136.645432,           0.
    483,   91.2342911,   142.710754,           0.
    484,   29.6383934,   176.477615,           0.
    485,   17.5706501,   176.209274,           0.
    486,    56.313858,   171.452286,           0.
    487,   85.9798813,   171.547348,           0.
    488,   74.1061707,   171.466232,           0.
    489,   80.0550766,   171.510834,           0.
    490,   68.1774139,   171.455994,           0.
    491,    50.380146,   171.458893,           0.
    492,   62.2463608,   171.451248,           0.
    493,   44.4474335,    171.47168,           0.
    494,   38.5605927,   171.474045,           0.
    495,   23.6341972,   176.210052,           0.
    496,   96.4001007,   151.539246,           0.
    497,   91.2554321,   171.882385,           0.
    498,   17.8588409,   116.646973,           0.
    499,   39.2377129,   121.559875,           0.
    500,   45.2805595,   121.565361,           0.
    501,   51.3169136,    121.57444,           0.
    502,   33.1902962,   121.639076,           0.
    503,   57.3470001,   121.590057,           0.
    504,   75.2482452,   121.787018,           0.
    505,   69.3447113,   121.672974,           0.
    506,   63.3595085,   121.620201,           0.
    507,   27.1518307,   121.788078,           0.
    508,    83.803299,   116.972977,           0.
    509,   85.7527008,   121.718765,           0.
    510,   91.4497604,   129.730301,           0.
    511,   20.6379776,   122.579987,           0.
    512,   20.4099884,   170.267822,           0.
    513,   89.8622284,   166.436249,           0.
    514,   20.3944187,   128.986481,           0.
    515,   20.0931034,    163.85347,           0.
    516,   20.1524696,   158.044815,           0.
    517,   20.2004757,   146.412125,           0.
    518,   20.2358932,   140.660416,           0.
    519,   20.1837616,   152.212463,           0.
    520,   20.4352703,   134.852432,           0.
    521,   91.1352615,   154.471527,           0.
    522,   90.8442459,   160.217361,           0.
    523,   85.7878571,   139.767609,           0.
    524,   65.2112885,   166.300049,           0.
    525,   71.1233749,   166.330475,           0.
    526,   83.2401352,   166.467804,           0.
    527,   32.7249641,   171.193573,           0.
    528,   77.1567917,   166.289658,           0.
    529,   47.4023399,   166.316269,           0.
    530,   41.5586662,   166.310684,           0.
    531,   26.8102283,   170.932129,           0.
    532,   59.2780342,   166.295868,           0.
    533,   53.3403282,   166.301559,           0.
    534,    91.224884,   148.618088,           0.
    535,   54.3206787,   126.799881,           0.
    536,    60.338707,   126.828056,           0.
    537,   48.2898636,   126.780495,           0.
    538,   42.2475891,   126.761429,           0.
    539,    72.350563,   126.885124,           0.
    540,   66.3460083,   126.863853,           0.
    541,   36.1565704,   126.732368,           0.
    542,    30.075882,   126.697655,           0.
    543,   9.96751881,   110.731995,           0.
    544,   24.9023247,   126.375771,           0.
    545,   24.9886131,   161.156601,           0.
    546,   26.3413887,   131.772522,           0.
    547,     25.34412,    143.57457,           0.
    548,   25.2843895,   149.346039,           0.
    549,   25.1512012,   155.253784,           0.
    550,   25.5224609,   137.903214,           0.
    551,   89.3158035,   124.070335,           0.
    552,   86.0078583,    151.56665,           0.
    553,   85.8869858,   157.278152,           0.
    554,   74.0949783,   161.277328,           0.
    555,    80.529808,   160.708847,           0.
    556,   29.8367214,   165.095596,           0.
    557,   68.1966782,   161.215408,           0.
    558,   62.2513771,   161.155045,           0.
    559,    35.905014,   166.097961,           0.
    560,   50.3580475,   161.152206,           0.
    561,   85.5735626,   133.553528,           0.
    562,   44.5249786,   161.165131,           0.
    563,   56.3045387,   161.142471,           0.
    564,   85.9809265,   145.735275,           0.
    565,   57.3106499,   132.027161,           0.
    566,   51.2884102,   131.996506,           0.
    567,    63.324398,   132.064545,           0.
    568,   45.2778969,   131.942963,           0.
    569,   69.4085159,   131.984863,           0.
    570,   39.1511269,   131.933578,           0.
    571,   78.2877731,   126.820107,           0.
    572,    32.974659,   131.737518,           0.
    573,    80.983429,   121.834793,           0.
    574,   24.4277306,   166.261124,           0.
    575,   84.5914993,   127.002533,           0.
    576,   29.9942017,   158.493362,           0.
    577,   30.3269062,   152.421097,           0.
    578,   30.4130058,   146.484863,           0.
    579,   30.2542763,   135.912674,           0.
    580,   30.4927826,   140.826385,           0.
    581,   80.6932907,   148.857727,           0.
    582,   80.8511963,   154.569305,           0.
    583,   71.4355392,   156.261475,           0.
    584,   65.3328629,    155.79512,           0.
    585,   86.0726776,    162.22168,           0.
    586,   58.9371262,   155.579941,           0.
    587,   52.8833771,   155.814941,           0.
    588,    38.901577,   161.130463,           0.
    589,   47.3239708,   156.204224,           0.
    590,   80.3977737,   143.111588,           0.
    591,   54.5822716,    137.48259,           0.
    592,   60.6832924,   137.352112,           0.
    593,   48.4129601,   137.173615,           0.
    594,    66.560173,   137.126205,           0.
    595,   75.4704132,   131.789276,           0.
    596,   79.4249954,   136.807892,           0.
    597,   42.3526611,   136.943283,           0.
    598,    35.834877,   137.467407,           0.
    599,   80.6696472,   131.194672,           0.
    600,   35.5082893,   149.415695,           0.
    601,    51.592144,   142.797882,           0.
    602,   54.4861298,    149.56308,           0.
    603,   75.1235657,   146.359756,           0.
    604,   35.7545166,   155.805984,           0.
    605,   69.0465164,   149.873489,           0.
    606,   61.8464279,   150.029053,           0.
    607,   34.0784073,   161.324677,           0.
    608,   35.6102676,   143.645386,           0.
    609,   45.2782555,   141.969986,           0.
    610,   75.5959778,   152.144089,           0.
    611,   76.5014954,   156.992203,           0.
    612,   49.4730263,   152.027039,           0.
    613,   41.8444061,   156.231476,           0.
    614,   72.6426773,   136.962509,           0.
    615,    58.810009,   143.487259,           0.
    616,   64.0366287,   141.299149,           0.
    617,   41.2774277,   146.659515,           0.
    618,   44.6011353,   151.684448,           0.
    619,   69.6360016,   142.638458,           0.
    620,   39.7971535,   151.959427,           0.
    621,   40.0706978,   141.337112,           0.
    622,   75.4449997,   141.176041,           0.
    623,   64.6751175,   145.465485,           0.
    624,    47.784687,   147.450333,           0.
    625,   123.665451,   93.5736847,           0.
    626,   118.424721,   88.1494064,           0.
    627,   111.890602,   62.8403587,           0.
    628,   111.896362,   68.8196335,           0.
    629,   111.861053,   74.7251663,           0.
    630,   111.797073,   80.4265518,           0.
    631,   167.894012,   5.26297092,           0.
    632,   162.070419,   5.16538811,           0.
    633,   156.243271,   5.07440042,           0.
    634,   150.415253,   5.06072569,           0.
    635,   144.587082,   5.05997801,           0.
    636,   138.758942,   5.06188583,           0.
    637,   132.930878,   5.06540108,           0.
    638,   127.077858,   5.12164211,           0.
    639,    121.02282,   5.31057358,           0.
    640,   114.651039,   5.36375904,           0.
    641,   182.895081,   97.9156647,           0.
    642,   183.164246,   79.4322281,           0.
    643,   183.185684,   73.5460968,           0.
    644,   183.192215,   67.6604691,           0.
    645,   183.196091,   61.7765846,           0.
    646,   183.198105,   55.8932571,           0.
    647,   183.199448,   50.0098114,           0.
    648,   183.200821,    44.126152,           0.
    649,   183.202698,   38.2424889,           0.
    650,   183.204666,   32.3589439,           0.
    651,   183.206421,   26.4755211,           0.
    652,    183.16127,   20.5571136,           0.
    653,   183.003754,   14.4082918,           0.
    654,   183.000366,   7.97204399,           0.
    655,   173.374847,   100.677803,           0.
    656,   149.621735,   100.727646,           0.
    657,   143.675598,   100.709717,           0.
    658,   137.784134,   100.691406,           0.
    659,   132.039871,   100.506325,           0.
    660,     126.4394,   100.085869,           0.
    661,   173.674103,   5.29665327,           0.
    662,    135.84819,   10.1379414,           0.
    663,   141.675507,   10.1318741,           0.
    664,   147.502182,   10.1295691,           0.
    665,   159.122772,    10.331233,           0.
    666,   164.953705,    10.678997,           0.
    667,   130.057175,   10.1746111,           0.
    668,   124.208916,   10.3210659,           0.
    669,   178.594772,   4.80978346,           0.
    670,   153.318939,      10.1812,           0.
    671,   183.111679,   85.3469009,           0.
    672,   178.103775,   41.1827011,           0.
    673,   178.048965,   76.4860764,           0.
    674,   178.108398,   35.2991791,           0.
    675,   178.096085,   52.9506073,           0.
    676,   178.099182,   47.0665779,           0.
    677,   178.111801,   29.4182453,           0.
    678,   178.081192,   23.5420609,           0.
    679,    177.96257,   17.5844841,           0.
    680,   178.084213,   64.7158508,           0.
    681,   178.090515,   58.8329887,           0.
    682,   182.911423,    91.495636,           0.
    683,   178.070511,   70.6012497,           0.
    684,   167.478653,   100.714142,           0.
    685,   155.572937,   100.734825,           0.
    686,   135.098145,   95.2490387,           0.
    687,   161.525406,   100.733444,           0.
    688,   146.686005,    95.511055,           0.
    689,   140.844742,   95.4187317,           0.
    690,   112.135292,   85.9586487,           0.
    691,   111.884956,   56.8557968,           0.
    692,   116.872299,   77.6886749,           0.
    693,   111.878311,   44.8874321,           0.
    694,   111.880409,    50.871727,           0.
    695,    111.87619,   38.9024963,           0.
    696,   111.874405,   32.9174995,           0.
    697,   111.968872,   26.8955746,           0.
    698,   112.094521,   20.8465881,           0.
    699,   112.059891,    14.891736,           0.
    700,   111.537544,   9.87722588,           0.
    701,    117.08419,   65.8139191,           0.
    702,   117.046623,   71.7678528,           0.
    703,   117.606644,   11.1965904,           0.
    704,   177.194885,   10.9089756,           0.
    705,    116.22509,   82.8088303,           0.
    706,   122.046883,   15.0117044,           0.
    707,   161.888916,   15.7224846,           0.
    708,   156.190475,   15.4048491,           0.
    709,    150.40567,   15.2587156,           0.
    710,   144.591843,   15.2184381,           0.
    711,   138.768723,   15.2210836,           0.
    712,   132.989914,   15.2427254,           0.
    713,   127.149628,   15.2930956,           0.
    714,   170.843307,   10.7474308,           0.
    715,   172.991974,   50.0055313,           0.
    716,   172.983551,   55.8877869,           0.
    717,   173.086258,   20.5609512,           0.
    718,   173.056564,   26.4505501,           0.
    719,   172.999283,   44.1206703,           0.
    720,   173.022232,   32.3505859,           0.
    721,   172.971954,   61.7679253,           0.
    722,   173.008972,   38.2358055,           0.
    723,   172.940033,   73.5590744,           0.
    724,   172.955673,   67.6550674,           0.
    725,   177.984055,   82.4429855,           0.
    726,   158.571045,   95.5360718,           0.
    727,   170.552719,   95.3526917,           0.
    728,   137.991653,    90.102066,           0.
    729,     143.8022,   90.2450485,           0.
    730,   164.581818,   95.3250198,           0.
    731,   152.623947,   95.5393524,           0.
    732,   173.413132,   15.3181639,           0.
    733,   117.059776,   53.8593292,           0.
    734,   117.047218,   41.8940659,           0.
    735,    117.05127,   47.8765221,           0.
    736,   117.477104,   17.7285709,           0.
    737,   117.052452,   35.9144669,           0.
    738,    117.21003,   29.9302254,           0.
    739,   117.474388,   23.8560219,           0.
    740,   122.189346,   74.9775925,           0.
    741,   122.259254,   68.8250275,           0.
    742,   117.071281,   59.8375931,           0.
    743,   129.532898,   94.8712006,           0.
    744,   177.831268,   88.4496384,           0.
    745,    177.02594,   95.0986252,           0.
    746,   127.626152,   90.0997849,           0.
    747,   121.987465,   81.9773254,           0.
    748,   123.468239,   20.5877514,           0.
    749,   168.040176,   16.7229481,           0.
    750,   172.957596,   85.5230408,           0.
    751,   135.814651,   20.3122673,           0.
    752,   141.671982,   20.3018322,           0.
    753,   158.990448,   20.6165161,           0.
    754,   129.922882,   20.2508698,           0.
    755,   147.503067,    20.321804,           0.
    756,   153.287567,   20.4309692,           0.
    757,    167.83989,   64.7007751,           0.
    758,   167.858246,   58.8190002,           0.
    759,   167.932251,   35.3119316,           0.
    760,   167.897171,   29.3384113,           0.
    761,   168.068893,    23.287674,           0.
    762,   167.873367,   52.9390335,           0.
    763,   167.906479,   41.1789207,           0.
    764,   167.887909,   47.0571022,           0.
    765,   167.828827,   70.5970535,           0.
    766,   172.972458,   79.5388565,           0.
    767,   155.657303,    90.324852,           0.
    768,   167.815765,   89.3230591,           0.
    769,   161.528946,   90.1739578,           0.
    770,   140.872345,   85.0227737,           0.
    771,   149.704895,   90.3147964,           0.
    772,    122.24321,    56.836132,           0.
    773,   122.225723,   50.8591118,           0.
    774,    122.75425,    27.042202,           0.
    775,   122.555489,   33.0249214,           0.
    776,   122.284866,   38.9591179,           0.
    777,   122.225929,   44.8889885,           0.
    778,   127.665054,   71.9045715,           0.
    779,   122.260117,   62.8156433,           0.
    780,   178.407684,   101.099831,           0.
    781,   167.914352,   82.7020187,           0.
    782,   132.665771,   25.1813488,           0.
    783,   138.632629,   25.3036289,           0.
    784,   156.100647,   25.6683083,           0.
    785,   144.528839,     25.35326,           0.
    786,   150.304001,   25.5788403,           0.
    787,   124.089539,   87.6995239,           0.
    788,   163.867722,   20.4773178,           0.
    789,   162.753677,   61.7030602,           0.
    790,   162.608154,   67.5282211,           0.
    791,   162.897354,   32.3868256,           0.
    792,   162.325562,   25.9877338,           0.
    793,   162.754379,   55.8524818,           0.
    794,   162.862747,   38.2312126,           0.
    795,   162.768341,   49.9827919,           0.
    796,   162.802872,   44.1046906,           0.
    797,   173.236649,   90.7494125,           0.
    798,   152.738678,   85.1470108,           0.
    799,    167.74971,   76.6184616,           0.
    800,   158.592911,   85.1638718,           0.
    801,   163.598312,   85.4417725,           0.
    802,   127.839371,   78.1972427,           0.
    803,   127.433022,    59.801548,           0.
    804,   127.403702,   53.8306465,           0.
    805,    127.38269,   47.8580856,           0.
    806,   127.418869,   41.9670486,           0.
    807,   128.705017,   30.0840549,           0.
    808,   127.696999,   36.2289124,           0.
    809,   146.789734,   85.0862885,           0.
    810,   127.489128,   65.8075027,           0.
    811,   135.028015,   85.0324402,           0.
    812,   132.336792,   90.0086594,           0.
    813,   127.503235,   24.6292458,           0.
    814,   128.785797,   84.7919159,           0.
    815,   162.047668,    79.887352,           0.
    816,   135.398483,   30.2039623,           0.
    817,   141.420502,   30.4243679,           0.
    818,   147.151611,    30.558815,           0.
    819,   153.142593,   31.4802704,           0.
    820,     157.6203,   64.3191071,           0.
    821,   157.666748,   58.6790466,           0.
    822,   158.478638,   30.1556816,           0.
    823,   158.015976,   35.2228622,           0.
    824,   157.647491,    52.884407,           0.
    825,   157.827927,   41.0919762,           0.
    826,   157.701935,   47.0052338,           0.
    827,   149.808716,   79.9821014,           0.
    828,   162.510468,   73.4368286,           0.
    829,   155.686157,   80.1570206,           0.
    830,   132.665482,   62.7899437,           0.
    831,   132.598557,   56.7987785,           0.
    832,   132.554764,   50.8249283,           0.
    833,    132.58403,   44.9378052,           0.
    834,   132.715637,   39.2357903,           0.
    835,   132.919922,   68.7140503,           0.
    836,    143.79155,   79.9877014,           0.
    837,   137.806473,   80.1327209,           0.
    838,   133.909607,   75.0652847,           0.
    839,   144.219696,    35.439518,           0.
    840,   132.673859,   80.6439209,           0.
    841,   146.831741,     74.89254,           0.
    842,    156.73848,   70.3340073,           0.
    843,   152.901688,   75.1979065,           0.
    844,   137.965836,   65.6443329,           0.
    845,   152.661087,   55.8752327,           0.
    846,   152.887939,    61.484684,           0.
    847,   132.535324,   34.3413811,           0.
    848,   140.616608,   75.0128708,           0.
    849,   157.976898,   75.8026199,           0.
    850,    153.00824,   37.9424133,           0.
    851,   152.680206,   43.9700508,           0.
    852,   152.664536,   50.0307236,           0.
    853,   137.666458,   47.8133698,           0.
    854,   137.801498,   59.6930542,           0.
    855,   137.690857,   53.7051468,           0.
    856,   137.641006,   42.0836182,           0.
    857,   138.011765,   35.9421349,           0.
    858,   141.961105,   39.7535057,           0.
    859,   148.977493,   35.2058029,           0.
    860,    147.91748,    59.081768,           0.
    861,   147.734833,   53.2199211,           0.
    862,   150.273941,   70.0912247,           0.
    863,   147.293777,   40.6052284,           0.
    864,   147.610443,   47.1811829,           0.
    865,   143.075882,   62.4783554,           0.
    866,     142.8237,    56.457531,           0.
    867,   142.682327,    50.511898,           0.
    868,    137.78511,   70.7164688,           0.
    869,   142.475861,   44.6581345,           0.
    870,   143.571991,   69.0867386,           0.
    871,   148.488449,   64.7380829,           0.
    872,   153.201828,   66.1934204,           0.
    873,   101.263397,   8.00061798,           0.
    874,   89.9306259,   93.5450363,           0.
    875,   87.0028992,   100.103371,           0.
    876,   101.522369,   38.9034958,           0.
    877,   101.521065,    44.888073,           0.
    878,   101.517532,   50.8719444,           0.
    879,   101.511497,   56.8561325,           0.
    880,   101.501961,   62.8405495,           0.
    881,   101.485809,   68.8173828,           0.
    882,   101.469971,   74.7380295,           0.
    883,   95.5148773,   89.1178741,           0.
    884,   101.357079,   80.5082397,           0.
    885,   101.116211,   86.1731415,           0.
    886,   57.3622818,   100.671349,           0.
    887,   63.3998222,     100.6632,           0.
    888,   69.4381943,   100.653076,           0.
    889,   75.4327316,   100.648041,           0.
    890,   81.2429352,    100.50193,           0.
    891,   5.28051376,   14.7311163,           0.
    892,   5.18641853,   20.5814953,           0.
    893,   5.11429214,   26.4739342,           0.
    894,   5.10126734,   32.3590508,           0.
    895,   5.09900093,   38.2428169,           0.
    896,    5.0991745,   44.1262779,           0.
    897,   5.10032272,   50.0096779,           0.
    898,     5.101964,   55.8931389,           0.
    899,   5.10394526,   61.7765846,           0.
    900,   5.10610533,   67.6600342,           0.
    901,      5.10885,   73.5434494,           0.
    902,   5.11211205,   79.4268799,           0.
    903,   5.16786671,   85.3356323,           0.
    904,   5.35824251,   91.4482498,           0.
    905,   5.41174412,   97.8803406,           0.
    906,   44.4589958,   5.13368225,           0.
    907,   38.5310326,   5.13231277,           0.
    908,   32.6031876,   5.13087988,           0.
    909,   26.6753521,   5.12951756,           0.
    910,   20.7255173,   5.17199707,           0.
    911,   14.5542936,   5.32767916,           0.
    912,   8.06043339,   5.33776426,           0.
    913,   10.2234917,   70.5992203,           0.
    914,   10.2654982,   82.3289795,           0.
    915,   4.86642981,   9.77855015,           0.
    916,   10.2115536,    58.833107,           0.
    917,   10.3329449,   23.4150887,           0.
    918,   10.2030535,   35.2965279,           0.
    919,   10.2030773,    47.066906,           0.
    920,   10.2447672,   29.3665409,           0.
    921,   10.2018909,   41.1831436,           0.
    922,     10.20784,   52.9496498,           0.
    923,   10.4154482,   17.5209885,           0.
    924,   10.2182608,   64.7159424,           0.
    925,   10.4134693,   88.2327652,           0.
    926,   10.2373142,   76.4755783,           0.
    927,   50.3869781,   5.13477564,           0.
    928,   41.4941978,   10.2649946,           0.
    929,    29.674551,   10.2591591,           0.
    930,   56.3151169,   5.13586187,           0.
    931,   35.5776024,    10.261488,           0.
    932,   23.7547321,   10.4237385,           0.
    933,   17.6498241,   10.5737247,           0.
    934,   96.7849731,   4.77622747,           0.
    935,   68.1717834,    5.1371479,           0.
    936,   62.2434998,   5.13677359,           0.
    937,   96.0361176,   77.5044632,           0.
    938,   101.497841,   26.9309502,           0.
    939,   101.517822,    32.918911,           0.
    940,   101.427773,    20.856123,           0.
    941,   96.3061523,   59.8391762,           0.
    942,   96.2717056,   65.8018951,           0.
    943,   96.3421555,   41.8948402,           0.
    944,   96.3358459,   47.8767891,           0.
    945,    96.323616,   53.8569145,           0.
    946,   96.1869049,   71.6793442,           0.
    947,   51.3243523,   100.676987,           0.
    948,   39.2486839,   100.682953,           0.
    949,   60.3711739,   95.4336548,           0.
    950,    72.355545,    95.435524,           0.
    951,   78.1313324,   95.3169327,           0.
    952,   33.2104111,   100.685249,           0.
    953,   27.1349678,   100.589844,           0.
    954,   21.0322723,   100.462448,           0.
    955,   15.0245295,   100.496712,           0.
    956,   9.96535492,   101.023483,           0.
    957,   45.2865868,   100.681129,           0.
    958,   66.3837585,   95.4248581,           0.
    959,   11.2965946,   94.8975525,           0.
    960,   10.8519325,   11.1946535,           0.
    961,   101.234222,    14.543107,           0.
    962,   95.3296814,   10.9513588,           0.
    963,   15.1458797,   90.4163513,           0.
    964,   15.4191885,   26.2469139,           0.
    965,   15.3137426,   38.2302971,           0.
    966,    15.365262,   32.2719498,           0.
    967,   15.4207869,   20.2558784,           0.
    968,   15.3106565,   44.1212425,           0.
    969,   15.3157406,   50.0045242,           0.
    970,   15.3233662,   55.8871841,           0.
    971,   15.3327217,   61.7697754,           0.
    972,   15.3440361,   67.6518173,           0.
    973,   15.3811836,   79.3672485,           0.
    974,   15.3618994,   73.5231018,           0.
    975,   15.4301815,    85.265213,           0.
    976,    53.349987,   10.2715549,           0.
    977,   47.4215012,   10.2684193,           0.
    978,   74.0973587,   5.13573074,           0.
    979,   59.2791176,   10.2739658,           0.
    980,   65.2078552,   10.2760973,           0.
    981,   85.9110413,   5.29590178,           0.
    982,   91.7628403,   5.30402136,           0.
    983,   80.0171738,   5.23791885,           0.
    984,   20.5888748,   16.4213581,           0.
    985,   26.8629303,   15.5345316,           0.
    986,    32.653595,   15.4118481,           0.
    987,   38.5381012,    15.396966,           0.
    988,   96.3420792,   35.9124985,           0.
    989,   96.2490158,   23.8997288,           0.
    990,   91.1598053,   44.8799248,           0.
    991,   91.1446762,   50.8566093,           0.
    992,   91.0780869,   62.7923965,           0.
    993,   91.1182709,   56.8276672,           0.
    994,   90.7896118,   74.6613846,           0.
    995,   90.9888763,   68.7298431,           0.
    996,   96.3181915,   29.9265137,           0.
    997,   14.9853735,   15.1933212,           0.
    998,    48.302063,   95.4592896,           0.
    999,   42.2657585,   95.4654236,           0.
   1000,   17.8867283,    95.029541,           0.
   1001,   36.2335129,   95.4603729,           0.
   1002,   30.1964798,   95.3010712,           0.
   1003,   24.0686302,   95.0334549,           0.
   1004,   75.1679764,    90.195137,           0.
   1005,   69.3276062,   90.1841202,           0.
   1006,   63.3493423,   90.1982346,           0.
   1007,   54.3361588,   95.4490662,           0.
   1008,   95.7717972,   83.4131775,           0.
   1009,   83.7965698,   94.9488525,           0.
   1010,   96.1179581,    17.819067,           0.
   1011,   90.2656021,   86.8970184,           0.
   1012,   85.8352814,   89.9934921,           0.
   1013,   20.8009872,   89.0156403,           0.
   1014,   20.6567459,    82.503212,           0.
   1015,   20.4250774,    41.170208,           0.
   1016,   20.5143566,    70.589119,           0.
   1017,   20.4273567,    47.056881,           0.
   1018,   20.4501781,   58.8202934,           0.
   1019,   20.4723053,   64.7019424,           0.
   1020,   20.4382076,   52.9381752,           0.
   1021,   20.5896244,   29.1927452,           0.
   1022,   20.4612656,   35.2618332,           0.
   1023,   20.5200958,   23.0364838,           0.
   1024,   20.7299366,   76.5505066,           0.
   1025,   91.1817551,   20.9044724,           0.
   1026,   44.4560738,   15.4000826,           0.
   1027,   77.0288315,   10.4699774,           0.
   1028,   56.3130264,   15.4111023,           0.
   1029,   35.5793037,   20.6381245,           0.
   1030,   29.7948322,   20.6134491,           0.
   1031,   82.9345551,   10.8114557,           0.
   1032,   62.2424736,   15.4157677,           0.
   1033,   50.3830299,   15.4059048,           0.
   1034,   71.1294937,   10.3098183,           0.
   1035,   85.8371124,   65.7371063,           0.
   1036,   85.9733658,   47.8545036,           0.
   1037,    85.945076,   53.8207932,           0.
   1038,    91.166626,    38.901474,           0.
   1039,   91.1799164,   26.9388447,           0.
   1040,   85.9001694,   59.7796936,           0.
   1041,   91.1708832,   32.9256172,           0.
   1042,   85.6711426,    71.749527,           0.
   1043,   51.3094749,   90.2377777,           0.
   1044,   45.2775497,   90.2507935,           0.
   1045,   27.3109818,   89.9355392,           0.
   1046,   33.2708931,   90.1507339,           0.
   1047,   39.2557602,   90.2395325,           0.
   1048,   72.2106705,   84.8486481,           0.
   1049,   57.3343353,   90.2192993,           0.
   1050,   66.2758789,   84.9444122,           0.
   1051,   86.0796509,   23.6668663,           0.
   1052,   25.5407677,   44.1098671,           0.
   1053,   26.6307487,   79.7011795,           0.
   1054,   25.6527996,   67.6389542,           0.
   1055,   25.8025532,   73.4123917,           0.
   1056,    25.553133,    49.988472,           0.
   1057,   25.5295963,    38.279583,           0.
   1058,   25.5881481,   32.4306412,           0.
   1059,   25.5992355,   61.7490501,           0.
   1060,   25.5727768,   55.8671989,           0.
   1061,   41.4902916,    20.614666,           0.
   1062,   74.0327301,   15.6066046,           0.
   1063,   79.7891159,   15.9362211,           0.
   1064,   32.6499329,   25.9058704,           0.
   1065,    59.271389,   20.5645943,           0.
   1066,   53.3426247,   20.5484486,           0.
   1067,   47.4136772,   20.5618477,           0.
   1068,   68.1585159,   15.4561329,           0.
   1069,   88.8961334,   10.8469648,           0.
   1070,   80.6773529,   62.7223015,           0.
   1071,   80.7804489,   50.8114586,           0.
   1072,   80.7357635,    56.764637,           0.
   1073,   80.6159515,   68.7908859,           0.
   1074,    85.989418,   41.8819237,           0.
   1075,   85.9028015,   29.7635174,           0.
   1076,   85.9655609,   35.8640633,           0.
   1077,   54.3044434,   85.0156021,           0.
   1078,   69.0828247,   79.5928116,           0.
   1079,   85.3905792,   77.8275681,           0.
   1080,   48.2792702,   85.0392227,           0.
   1081,   36.2582741,   84.9658661,           0.
   1082,   42.2523499,   85.0015945,           0.
   1083,    30.300396,    84.950325,           0.
   1084,   60.3054314,   84.9860458,           0.
   1085,   78.0856857,   84.8024368,           0.
   1086,    90.431282,   80.7978363,           0.
   1087,   26.2948284,   25.9789562,           0.
   1088,   25.1399727,   85.2211761,           0.
   1089,   24.8123131,   20.3169556,           0.
   1090,   91.5091476,    15.511548,           0.
   1091,   80.2194824,   26.4184093,           0.
   1092,   30.6695328,   47.0393715,           0.
   1093,   30.7656288,    70.438797,           0.
   1094,   30.6207027,   41.2139664,           0.
   1095,   30.4863605,   75.4552078,           0.
   1096,   30.7391376,   64.6424484,           0.
   1097,   30.5178757,   35.4150696,           0.
   1098,   30.6910057,   52.9128304,           0.
   1099,   30.7159157,   58.7833481,           0.
   1100,    38.631382,   26.0138474,           0.
   1101,   86.0314484,   16.9321766,           0.
   1102,   71.0326233,   20.7949028,           0.
   1103,   76.7919617,   20.9744091,           0.
   1104,    56.287262,     25.70508,           0.
   1105,   50.4276237,   25.7828274,           0.
   1106,   44.6128578,   25.9332561,           0.
   1107,   65.1642456,   20.6748772,           0.
   1108,   75.5246582,   59.6979446,           0.
   1109,   75.3852081,   65.8073883,           0.
   1110,    75.581192,   53.7482376,           0.
   1111,   80.8077469,   44.8497467,           0.
   1112,   80.8160629,   38.8825188,           0.
   1113,   80.8163452,   32.9473763,           0.
   1114,   80.5336685,    74.906189,           0.
   1115,   57.2782059,   79.7920914,           0.
   1116,   51.2679062,   79.8270111,           0.
   1117,   63.2406731,   79.7142715,           0.
   1118,   45.2753296,   79.7887573,           0.
   1119,   39.2401352,   79.6721649,           0.
   1120,   75.3300095,   78.7407684,           0.
   1121,   30.1339474,   30.3127556,           0.
   1122,   35.6528206,   31.9153652,           0.
   1123,   76.1417923,   30.7333851,           0.
   1124,   35.7256126,   44.1247177,           0.
   1125,   36.0102501,   73.9048843,           0.
   1126,   35.7147484,   67.5632019,           0.
   1127,   35.8011017,   49.9643135,           0.
   1128,   35.5309181,   38.3415413,           0.
   1129,   35.7887306,   61.7326241,           0.
   1130,      35.8181,    55.838932,           0.
   1131,   67.7996979,   25.9720383,           0.
   1132,   70.2990036,   62.7071495,           0.
   1133,   73.6776733,   26.1555653,           0.
   1134,   42.0734406,   31.4126549,           0.
   1135,   47.9380836,   31.1186867,           0.
   1136,    53.633728,   30.7500324,           0.
   1137,   70.3834763,   56.7423439,           0.
   1138,   62.0199394,   25.6685123,           0.
   1139,   81.7823334,   20.7856159,           0.
   1140,   75.5757523,   41.8790932,           0.
   1141,   75.6092911,   47.8058548,           0.
   1142,   75.5694809,   35.8983879,           0.
   1143,   75.4423141,    72.028038,           0.
   1144,   33.1543617,   79.7749329,           0.
   1145,   60.2197533,   74.5824661,           0.
   1146,   54.2720375,   74.6491013,           0.
   1147,   66.0723648,   74.5586624,           0.
   1148,   48.3758354,   74.5057907,           0.
   1149,   42.4379425,   74.3940887,           0.
   1150,    80.734787,   80.1520691,           0.
   1151,   84.5132675,   84.3662262,           0.
   1152,   39.9602318,   36.0321083,           0.
   1153,    40.941246,   47.0032234,           0.
   1154,   40.7261467,   41.1081886,           0.
   1155,   40.6480408,   64.7559052,           0.
   1156,   40.9494972,   52.8821945,           0.
   1157,   40.8267326,   58.8358498,           0.
   1158,   65.3998947,   59.7570038,           0.
   1159,   64.5221329,    30.032011,           0.
   1160,   51.4823952,   35.2173653,           0.
   1161,   59.4597931,   30.5882263,           0.
   1162,   70.2939072,   44.8450012,           0.
   1163,   70.4011536,    50.763279,           0.
   1164,   69.5944061,   69.2139893,           0.
   1165,   69.9916611,   38.7278137,           0.
   1166,   63.1615906,   69.3905411,           0.
   1167,   57.2610817,   69.3471222,           0.
   1168,   51.5713997,   69.3626328,           0.
   1169,    45.504631,   68.5125504,           0.
   1170,   40.0631218,   69.8261261,           0.
   1171,   45.9680824,   37.1596985,           0.
   1172,   46.2612267,   43.8905983,           0.
   1173,     45.95961,   49.7345963,           0.
   1174,   45.6597595,   61.9350471,           0.
   1175,   45.9470062,   55.7154388,           0.
   1176,   70.1814728,   31.8889999,           0.
   1177,   65.1921768,    47.749897,           0.
   1178,   63.6293068,   35.5401154,           0.
   1179,   56.8533173,   35.5473289,           0.
   1180,   64.7754745,   41.9024734,           0.
   1181,   65.4039154,   53.7270889,           0.
   1182,   65.7322464,    64.911171,           0.
   1183,   60.4218674,   63.4401436,           0.
   1184,   71.1043854,   74.8268509,           0.
   1185,   54.4535027,   64.2171478,           0.
   1186,   50.3478165,   47.0089455,           0.
   1187,    50.772213,   52.3198853,           0.
   1188,    51.268383,   58.9551163,           0.
   1189,   60.3617821,   50.9135208,           0.
   1190,   59.7491989,   44.9876175,           0.
   1191,   53.1966133,   41.4820747,           0.
   1192,   60.6631203,   56.9384193,           0.
   1193,   49.6915359,   64.5964966,           0.
   1194,   59.6407814,    39.891922,           0.
   1195,   56.5321045,   59.5735741,           0.
   1196,   55.0468788,   48.5048447,           0.
   1197,   80.9216843,   89.9371796,           0.
   1198,   55.7740784,   54.5342293,           0.
*Element, type=S3
  1, 244,  16, 196
  2, 242,  61, 193
  3, 372, 294, 296
  4, 193,  13,  14
  5, 195, 194,  25
  6, 195,   3,  26
  7, 196,  16,  17
  8, 235,  55,  56
  9, 197, 196,  17
 10, 198, 197,  18
 11, 199, 198,  19
 12, 200, 199,  20
 13, 246, 245, 199
 14, 201,  24, 194
 15, 291, 203, 201
 16, 203,   2,  23
 17,  35,   4,  36
 18, 217,  36,  37
 19, 228, 215, 214
 20, 229, 213, 227
 21, 268, 229, 267
 22, 257,  34, 253
 23, 250,  30,  31
 24, 205,  29, 204
 25, 206,  28, 205
 26, 206,  27,  28
 27,  49,  48,   5
 28, 224,  49,  50
 29, 297, 284, 274
 30, 272, 235, 237
 31, 209,  45, 208
 32, 210,  44, 209
 33, 211,  43, 210
 34, 212,  42, 211
 35, 213,  41, 212
 36, 214,  40, 213
 37, 215,  39, 214
 38, 216,  38, 215
 39, 217,  37, 216
 40,  61,   1,  13
 41, 193,  61,  13
 42, 242, 218,  60
 43, 218,  59,  60
 44, 243, 236,  58
 45, 243,  58,  59
 46, 310, 272, 308
 47, 235, 219,  55
 48, 220,  54, 219
 49, 221,  53, 220
 50, 222,  52, 221
 51, 223,  51, 222
 52, 224,  50, 223
 53, 260,  15, 244
 54, 279, 196, 249
 55, 194,  24,  25
 56, 290, 204, 250
 57, 195,  25,   3
 58, 207,  26,  27
 59, 197,  17,  18
 60, 238, 220, 219
 61, 198,  18,  19
 62, 226, 209, 208
 63, 199,  19,  20
 64, 358, 341, 318
 65, 200,  20,  21
 66, 347, 325, 345
 67, 202,  21,  22
 68, 247, 246, 200
 69, 201,  23,  24
 70, 340, 291, 294
 71, 202, 200,  21
 72, 203, 202,  22
 73, 203,  22,   2
 74, 203,  23, 201
 75, 204,  29,  30
 76, 230, 211, 210
 77, 256, 206, 205
 78, 205,  28,  29
 79, 252, 207, 206
 80, 207,  27, 206
 81, 292, 195, 207
 82, 207, 195,  26
 83, 208,  45,  46
 84, 225,  46,  47
 85, 231, 209, 226
 86, 209,  44,  45
 87, 248, 198, 245
 88, 210,  43,  44
 89, 232, 212, 211
 90, 211,  42,  43
 91, 227, 213, 212
 92, 212,  41,  42
 93, 295, 287, 262
 94, 213,  40,  41
 95, 257,  33,  34
 96, 214,  39,  40
 97, 233, 215, 228
 98, 215,  38,  39
 99, 258, 216, 233
100, 216,  37,  38
101, 253,  35, 217
102, 217,  35,  36
103, 243,  59, 218
104, 304, 293, 279
105, 219,  54,  55
106, 277, 219, 235
107, 239, 220, 238
108, 220,  53,  54
109, 240, 221, 239
110, 221,  52,  53
111, 284, 259, 241
112, 222,  51,  52
113, 259, 224, 223
114, 223,  50,  51
115, 234,  48, 224
116, 224,  48,  49
117, 225, 208,  46
118, 234, 225,  47
119, 270, 208, 225
120, 375, 348, 352
121, 232, 211, 230
122, 295, 286, 287
123, 286, 254, 251
124, 229, 228, 214
125, 229, 214, 213
126, 267, 227, 264
127, 231, 230, 210
128, 281, 280, 248
129, 231, 210, 209
130, 297, 270, 284
131, 301, 265, 300
132, 232, 227, 212
133, 258, 257, 253
134, 233, 216, 215
135, 234,  47,  48
136, 259, 234, 224
137, 237,  56,  57
138, 273, 272, 237
139, 236,  57,  58
140, 311, 305, 271
141, 237, 235,  56
142, 237,  57, 236
143, 249, 197, 248
144, 330, 323, 300
145, 275, 274, 240
146, 239, 221, 220
147, 297, 226, 270
148, 240, 222, 221
149, 241, 223, 222
150, 241, 222, 240
151, 242,  60,  61
152, 261, 242, 193
153, 293, 244, 279
154, 278, 271, 243
155, 260,  14,  15
156, 244,  15,  16
157, 245, 198, 199
158, 246, 199, 200
159, 247, 200, 202
160, 296, 294, 194
161, 291, 247, 202
162, 340, 247, 291
163, 265, 231, 263
164, 248, 197, 198
165, 278, 243, 218
166, 249, 196, 197
167, 250, 204,  30
168, 254,  31,  32
169, 251,  32,  33
170, 286, 285, 254
171, 379, 296, 292
172, 256, 205, 255
173, 253,  34,  35
174, 258, 217, 216
175, 254, 250,  31
176, 254,  32, 251
177, 255, 205, 204
178, 346, 344, 324
179, 315, 312, 283
180, 256, 252, 206
181, 287, 258, 262
182, 257, 251,  33
183, 258, 253, 217
184, 262, 258, 233
185, 259, 225, 234
186, 259, 223, 241
187, 261, 193, 260
188, 260, 193,  14
189, 278, 218, 261
190, 261, 218, 242
191, 269, 233, 228
192, 322, 302, 298
193, 263, 231, 226
194, 307, 275, 276
195, 264, 227, 232
196, 266, 232, 230
197, 265, 230, 231
198, 327, 263, 297
199, 266, 264, 232
200, 266, 230, 265
201, 344, 322, 324
202, 267, 229, 227
203, 317, 316, 285
204, 268, 228, 229
205, 269, 262, 233
206, 269, 228, 268
207, 270, 226, 208
208, 270, 225, 259
209, 273, 236, 271
210, 271, 236, 243
211, 280, 249, 248
212, 310, 277, 272
213, 273, 237, 236
214, 321, 304, 314
215, 274, 241, 240
216, 275, 240, 239
217, 276, 239, 238
218, 276, 275, 239
219, 306, 238, 277
220, 313, 281, 312
221, 277, 238, 219
222, 277, 235, 272
223, 320, 261, 293
224, 320, 304, 311
225, 279, 244, 196
226, 314, 304, 279
227, 353, 331, 332
228, 281, 248, 245
229, 283, 245, 246
230, 325, 301, 323
231, 282, 246, 247
232, 288, 252, 256
233, 283, 281, 245
234, 283, 246, 282
235, 284, 270, 259
236, 284, 241, 274
237, 290, 250, 285
238, 285, 250, 254
239, 287, 286, 251
240, 295, 262, 269
241, 287, 251, 257
242, 287, 257, 258
243, 289, 256, 255
244, 289, 288, 256
245, 319, 255, 290
246, 299, 298, 267
247, 290, 255, 204
248, 317, 285, 286
249, 291, 202, 203
250, 294, 291, 201
251, 292, 194, 195
252, 292, 207, 252
253, 293, 261, 260
254, 293, 260, 244
255, 294, 201, 194
256, 296, 194, 292
257, 302, 268, 298
258, 317, 286, 295
259, 379, 292, 252
260, 379, 341, 372
261, 309, 274, 275
262, 297, 263, 226
263, 298, 268, 267
264, 299, 267, 264
265, 303, 264, 266
266, 335, 333, 312
267, 300, 265, 263
268, 332, 310, 308
269, 377, 373, 376
270, 301, 266, 265
271, 302, 295, 269
272, 302, 269, 268
273, 303, 299, 264
274, 303, 266, 301
275, 320, 311, 278
276, 314, 279, 249
277, 308, 273, 305
278, 305, 273, 271
279, 306, 276, 238
280, 308, 272, 273
281, 330, 327, 309
282, 328, 276, 306
283, 336, 314, 280
284, 362, 360, 347
285, 309, 297, 274
286, 309, 275, 307
287, 332, 331, 310
288, 310, 306, 277
289, 311, 271, 278
290, 321, 311, 304
291, 312, 281, 283
292, 315, 283, 282
293, 351, 329, 305
294, 313, 280, 281
295, 314, 249, 280
296, 336, 321, 314
297, 339, 315, 282
298, 318, 288, 289
299, 338, 316, 317
300, 316, 290, 285
301, 334, 295, 302
302, 338, 337, 316
303, 342, 289, 319
304, 324, 322, 298
305, 319, 289, 255
306, 319, 290, 316
307, 320, 278, 261
308, 320, 293, 304
309, 343, 321, 336
310, 351, 311, 321
311, 338, 317, 334
312, 324, 298, 299
313, 323, 301, 300
314, 330, 300, 327
315, 326, 299, 303
316, 368, 355, 337
317, 325, 303, 301
318, 353, 332, 350
319, 326, 324, 299
320, 326, 303, 325
321, 327, 300, 263
322, 327, 297, 309
323, 328, 307, 276
324, 331, 306, 310
325, 332, 308, 329
326, 329, 308, 305
327, 330, 309, 307
328, 348, 307, 328
329, 378, 373, 362
330, 331, 328, 306
331, 354, 343, 336
332, 350, 329, 343
333, 333, 313, 312
334, 335, 312, 315
335, 334, 317, 295
336, 334, 302, 322
337, 356, 315, 339
338, 357, 342, 355
339, 336, 280, 313
340, 354, 313, 333
341, 368, 338, 344
342, 337, 319, 316
343, 338, 334, 322
344, 344, 338, 322
345, 340, 339, 282
346, 372, 341, 369
347, 340, 282, 247
348, 340, 294, 339
349, 341, 288, 318
350, 377, 376, 367
351, 342, 318, 289
352, 342, 319, 337
353, 371, 365, 363
354, 351, 343, 329
355, 346, 324, 326
356, 370, 358, 357
357, 345, 325, 323
358, 359, 330, 348
359, 347, 346, 326
360, 376, 373, 374
361, 347, 326, 325
362, 353, 352, 331
363, 348, 330, 307
364, 352, 328, 331
365, 349, 333, 335
366, 366, 335, 356
367, 350, 332, 329
368, 371, 343, 354
369, 351, 305, 311
370, 351, 321, 343
371, 375, 352, 364
372, 352, 348, 328
373, 363, 353, 350
374, 378, 374, 373
375, 354, 336, 313
376, 365, 333, 349
377, 355, 342, 337
378, 361, 344, 346
379, 356, 335, 315
380, 369, 356, 339
381, 357, 318, 342
382, 367, 355, 361
383, 369, 358, 356
384, 358, 318, 357
385, 359, 345, 323
386, 359, 323, 330
387, 360, 346, 347
388, 362, 347, 345
389, 368, 361, 355
390, 361, 346, 360
391, 375, 345, 359
392, 364, 352, 353
393, 371, 363, 350
394, 374, 364, 363
395, 378, 375, 364
396, 364, 353, 363
397, 365, 354, 333
398, 376, 374, 349
399, 366, 349, 335
400, 366, 356, 358
401, 367, 357, 355
402, 377, 361, 360
403, 368, 337, 338
404, 368, 344, 361
405, 372, 369, 339
406, 369, 341, 358
407, 370, 366, 358
408, 370, 357, 367
409, 371, 350, 343
410, 371, 354, 365
411, 372, 339, 294
412, 379, 372, 296
413, 376, 349, 366
414, 373, 360, 362
415, 374, 363, 365
416, 374, 365, 349
417, 375, 362, 345
418, 375, 359, 348
419, 376, 366, 370
420, 376, 370, 367
421, 377, 367, 361
422, 377, 360, 373
423, 378, 362, 375
424, 378, 364, 374
425, 379, 252, 288
426, 379, 288, 341
427, 439,   2,  22
428, 468, 439, 386
429, 391,  69, 390
430, 458, 457, 389
431, 543,  92,  93
432, 382, 107, 380
433,  13,   1,  62
434, 397,  62,  63
435, 480, 479, 433
436, 513, 481, 497
437, 438,  14, 437
438, 481, 480, 432
439, 431,  18,  17
440, 384,  19, 383
441, 385,  20, 384
442, 386,  22,  21
443,  78,   6,  79
444, 409,  79,  80
445, 422, 408, 407
446, 423, 422, 407
447, 485, 466, 478
448, 440,  74,  75
449, 424, 404, 403
450, 427, 401, 400
451, 413, 389,  97
452, 449, 445, 391
453, 575, 510, 561
454, 392,  68, 391
455, 393,  67, 392
456, 394,  66, 393
457, 395,  65, 394
458, 396,  64, 395
459, 397,  63, 396
460,  92,  91,   7
461, 398,  91,  92
462, 455,  94, 410
463, 399,  89,  90
464, 465, 399, 398
465, 401,  88, 400
466, 401,  87,  88
467, 402,  86,  87
468, 405,  84, 404
469, 406,  83, 405
470, 407,  82, 406
471, 408,  81, 407
472, 409,  80, 408
473, 498, 469, 465
474, 498, 455, 410
475, 411,  96, 389
476, 412,  71, 381
477, 414, 413,  98
478, 415, 414,  99
479, 460, 416, 454
480, 416, 415, 100
481, 417, 416, 101
482, 418, 417, 102
483, 573, 508, 509
484, 382, 106, 107
485, 508, 421, 382
486, 421,   8, 106
487, 380, 107, 108
488, 496, 383, 431
489, 381,  71,  72
490, 388,  72,  73
491, 419, 418, 103
492, 421, 420, 105
493, 383,  19,  18
494, 449, 390, 444
495, 435, 384, 434
496, 384,  20,  19
497, 436, 385, 435
498, 385,  21,  20
499, 439, 380, 108
500, 386,  21, 385
501, 387,  73,  74
502, 404,  85, 403
503, 388, 381,  72
504, 388,  73, 387
505, 389,  96,  97
506, 413,  97,  98
507, 390,  69,  70
508, 412, 390,  70
509, 552, 534, 521
510, 391,  68,  69
511, 513, 480, 481
512, 392,  67,  68
513, 480, 433, 432
514, 393,  66,  67
515, 443, 394, 393
516, 394,  65,  66
517, 438,  15,  14
518, 395,  64,  65
519, 467, 397, 396
520, 396,  63,  64
521, 437,  13, 397
522, 397,  13,  62
523, 399,  90, 398
524, 398,  90,  91
525, 410,  94,  95
526, 400,  89, 399
527, 498, 465, 455
528, 400,  88,  89
529, 428, 403, 402
530, 402,  87, 401
531, 568, 537, 566
532, 403,  86, 402
533, 470, 430, 429
534, 403,  85,  86
535, 494, 493, 441
536, 404,  84,  85
537, 430, 406, 405
538, 405,  83,  84
539, 446, 440,  75
540, 406,  82,  83
541, 447, 446,  76
542, 407,  81,  82
543, 466, 408, 422
544, 408,  80,  81
545, 448,  78, 409
546, 409,  78,  79
547, 411, 410,  95
548, 507, 457, 502
549, 411,  95,  96
550, 542, 502, 541
551, 412,  70,  71
552, 451, 381, 441
553, 414,  98,  99
554, 459, 458, 413
555, 415,  99, 100
556, 501, 500, 463
557, 416, 100, 101
558, 451, 444, 412
559, 417, 101, 102
560, 503, 501, 460
561, 418, 102, 103
562, 464, 418, 461
563, 419, 103, 104
564, 505, 461, 504
565, 420, 419, 104
566, 462, 419, 420
567, 420, 104, 105
568, 462, 461, 419
569, 421, 105,   8
570, 421, 106, 382
571, 423, 407, 406
572, 476, 423, 473
573, 429, 404, 424
574, 512, 485, 478
575, 471, 470, 429
576, 450, 441, 388
577, 425, 402, 401
578, 477, 472, 427
579, 426, 400, 399
580, 456, 410, 411
581, 427, 425, 401
582, 427, 400, 426
583, 428, 424, 403
584, 428, 402, 425
585, 576, 556, 545
586, 429, 405, 404
587, 430, 423, 406
588, 430, 405, 429
589, 431, 383,  18
590, 433,  17,  16
591, 432,  16,  15
592, 442, 396, 395
593, 433, 431,  17
594, 433,  16, 432
595, 488, 443, 452
596, 434, 384, 383
597, 523, 482, 483
598, 435, 385, 384
599, 510, 436, 482
600, 436, 386, 385
601, 437,  14,  13
602, 467, 396, 442
603, 487, 442, 453
604, 438, 432,  15
605, 439, 108,   2
606, 439,  22, 386
607, 440, 387,  74
608, 446,  75,  76
609, 441, 381, 388
610, 450, 388, 387
611, 453, 395, 394
612, 526, 487, 489
613, 452, 393, 392
614, 445, 392, 391
615, 444, 390, 412
616, 451, 412, 381
617, 449, 391, 390
618, 573, 462, 508
619, 447,  76,  77
620, 574, 545, 556
621, 448, 447,  77
622, 466, 448, 409
623, 448,  77,  78
624, 466, 409, 408
625, 599, 596, 595
626, 492, 449, 486
627, 484, 387, 440
628, 473, 430, 470
629, 493, 491, 451
630, 500, 499, 459
631, 452, 443, 393
632, 452, 392, 445
633, 453, 442, 395
634, 453, 394, 443
635, 454, 416, 417
636, 464, 417, 418
637, 543, 455, 465
638, 455,  93,  94
639, 457, 411, 389
640, 457, 456, 411
641, 458, 389, 413
642, 548, 517, 547
643, 459, 413, 414
644, 550, 547, 518
645, 463, 414, 415
646, 530, 529, 493
647, 491, 486, 444
648, 460, 415, 416
649, 461, 418, 419
650, 482, 436, 435
651, 508, 462, 420
652, 510, 380, 468
653, 463, 459, 414
654, 463, 415, 460
655, 490, 488, 452
656, 464, 454, 417
657, 465, 426, 399
658, 543, 465, 398
659, 478, 422, 476
660, 466, 447, 448
661, 467, 438, 437
662, 467, 437, 397
663, 468, 380, 439
664, 468, 386, 436
665, 477, 426, 469
666, 469, 426, 465
667, 471, 429, 424
668, 474, 424, 428
669, 475, 474, 428
670, 518, 517, 474
671, 475, 425, 472
672, 472, 425, 427
673, 512, 495, 485
674, 473, 423, 430
675, 474, 471, 424
676, 475, 428, 425
677, 572, 541, 570
678, 502, 458, 499
679, 531, 495, 512
680, 476, 422, 423
681, 477, 427, 426
682, 511, 456, 507
683, 512, 478, 476
684, 478, 466, 422
685, 522, 521, 479
686, 479, 431, 433
687, 481, 432, 438
688, 513, 497, 487
689, 481, 438, 467
690, 497, 467, 442
691, 483, 435, 434
692, 483, 482, 435
693, 534, 434, 496
694, 528, 488, 525
695, 484, 450, 387
696, 495, 440, 446
697, 485, 446, 447
698, 485, 447, 466
699, 486, 449, 444
700, 491, 444, 451
701, 489, 453, 443
702, 557, 554, 525
703, 490, 452, 445
704, 492, 445, 449
705, 489, 487, 453
706, 489, 443, 488
707, 492, 490, 445
708, 569, 567, 540
709, 493, 451, 441
710, 533, 491, 529
711, 533, 486, 491
712, 536, 535, 503
713, 494, 441, 450
714, 538, 500, 537
715, 527, 450, 484
716, 516, 515, 473
717, 495, 484, 440
718, 495, 446, 485
719, 496, 434, 383
720, 496, 431, 479
721, 497, 481, 467
722, 497, 442, 487
723, 498, 410, 456
724, 511, 498, 456
725, 499, 458, 459
726, 500, 459, 463
727, 501, 463, 460
728, 537, 501, 535
729, 503, 460, 454
730, 566, 535, 565
731, 514, 477, 511
732, 502, 457, 458
733, 506, 454, 464
734, 533, 532, 486
735, 504, 461, 462
736, 575, 571, 573
737, 567, 565, 536
738, 505, 464, 461
739, 506, 503, 454
740, 506, 464, 505
741, 544, 507, 542
742, 507, 456, 457
743, 508, 420, 421
744, 509, 508, 382
745, 551, 382, 380
746, 599, 595, 571
747, 510, 468, 436
748, 561, 482, 523
749, 511, 477, 469
750, 511, 469, 498
751, 515, 476, 473
752, 515, 512, 476
753, 585, 553, 522
754, 522, 480, 513
755, 520, 472, 514
756, 514, 472, 477
757, 516, 473, 470
758, 545, 515, 516
759, 519, 470, 471
760, 517, 471, 474
761, 518, 474, 475
762, 620, 604, 600
763, 520, 518, 475
764, 541, 499, 538
765, 519, 516, 470
766, 519, 471, 517
767, 520, 475, 472
768, 597, 568, 593
769, 553, 521, 522
770, 521, 496, 479
771, 522, 479, 480
772, 528, 526, 489
773, 564, 483, 534
774, 525, 490, 524
775, 524, 490, 492
776, 532, 492, 486
777, 553, 552, 521
778, 525, 488, 490
779, 526, 513, 487
780, 528, 489, 488
781, 527, 494, 450
782, 531, 527, 484
783, 582, 581, 552
784, 611, 583, 610
785, 529, 491, 493
786, 530, 493, 494
787, 559, 494, 527
788, 601, 593, 591
789, 531, 484, 495
790, 574, 556, 531
791, 586, 584, 558
792, 532, 524, 492
793, 612, 602, 587
794, 563, 533, 560
795, 534, 483, 434
796, 534, 496, 521
797, 535, 501, 503
798, 536, 503, 506
799, 540, 506, 505
800, 558, 557, 524
801, 562, 560, 529
802, 537, 500, 501
803, 570, 538, 568
804, 538, 499, 500
805, 539, 505, 504
806, 610, 603, 581
807, 540, 536, 506
808, 540, 505, 539
809, 546, 514, 544
810, 541, 502, 499
811, 546, 544, 542
812, 542, 507, 502
813, 543, 398,  92
814, 543,  93, 455
815, 544, 514, 511
816, 544, 511, 507
817, 574, 531, 512
818, 549, 516, 519
819, 550, 520, 546
820, 546, 520, 514
821, 604, 576, 577
822, 547, 517, 518
823, 577, 576, 549
824, 548, 519, 517
825, 549, 545, 516
826, 549, 519, 548
827, 550, 518, 520
828, 598, 572, 570
829, 551, 509, 382
830, 551, 380, 510
831, 554, 528, 525
832, 582, 552, 553
833, 585, 522, 513
834, 555, 526, 528
835, 557, 525, 524
836, 614, 594, 569
837, 585, 555, 553
838, 555, 528, 554
839, 559, 527, 556
840, 556, 527, 531
841, 558, 524, 532
842, 623, 619, 605
843, 563, 532, 533
844, 606, 586, 602
845, 576, 545, 549
846, 559, 530, 494
847, 560, 533, 529
848, 562, 529, 530
849, 575, 551, 510
850, 561, 510, 482
851, 588, 530, 559
852, 620, 617, 618
853, 587, 586, 563
854, 563, 558, 532
855, 564, 523, 483
856, 564, 534, 552
857, 565, 535, 536
858, 567, 536, 540
859, 589, 587, 560
860, 566, 537, 535
861, 569, 540, 539
862, 584, 583, 557
863, 580, 547, 550
864, 568, 538, 537
865, 595, 539, 571
866, 590, 564, 581
867, 579, 546, 572
868, 570, 541, 538
869, 571, 539, 504
870, 573, 571, 504
871, 572, 546, 542
872, 572, 542, 541
873, 573, 504, 462
874, 575, 573, 509
875, 574, 512, 515
876, 574, 515, 545
877, 575, 509, 551
878, 599, 575, 561
879, 607, 556, 576
880, 577, 549, 548
881, 578, 548, 547
882, 578, 577, 548
883, 580, 550, 579
884, 608, 600, 578
885, 579, 550, 546
886, 598, 570, 597
887, 609, 593, 601
888, 580, 578, 547
889, 581, 564, 552
890, 611, 610, 582
891, 582, 553, 555
892, 611, 555, 554
893, 583, 554, 557
894, 584, 557, 558
895, 586, 558, 563
896, 594, 592, 567
897, 585, 513, 526
898, 585, 526, 555
899, 587, 563, 560
900, 592, 591, 565
901, 589, 560, 562
902, 624, 617, 609
903, 588, 562, 530
904, 607, 588, 559
905, 613, 562, 588
906, 593, 566, 591
907, 622, 596, 590
908, 590, 523, 564
909, 591, 566, 565
910, 592, 565, 567
911, 594, 567, 569
912, 615, 602, 601
913, 621, 617, 608
914, 593, 568, 566
915, 622, 619, 614
916, 623, 616, 619
917, 596, 561, 523
918, 595, 569, 539
919, 596, 523, 590
920, 622, 614, 596
921, 621, 609, 617
922, 597, 570, 568
923, 598, 580, 579
924, 598, 579, 572
925, 599, 571, 575
926, 599, 561, 596
927, 600, 577, 578
928, 608, 578, 580
929, 615, 591, 592
930, 624, 602, 612
931, 606, 605, 584
932, 602, 586, 587
933, 603, 590, 581
934, 610, 605, 603
935, 607, 604, 588
936, 604, 577, 600
937, 605, 583, 584
938, 606, 584, 586
939, 615, 606, 602
940, 623, 615, 616
941, 607, 559, 556
942, 607, 576, 604
943, 608, 580, 598
944, 621, 598, 597
945, 609, 597, 593
946, 624, 612, 618
947, 610, 581, 582
948, 610, 583, 605
949, 611, 582, 555
950, 611, 554, 583
951, 612, 587, 589
952, 620, 618, 613
953, 613, 589, 562
954, 613, 588, 604
955, 614, 569, 595
956, 614, 595, 596
957, 615, 601, 591
958, 616, 615, 592
959, 616, 592, 594
960, 619, 616, 594
961, 617, 600, 608
962, 624, 618, 617
963, 618, 612, 589
964, 618, 589, 613
965, 619, 594, 614
966, 619, 603, 605
967, 620, 613, 604
968, 620, 600, 617
969, 621, 608, 598
970, 621, 597, 609
971, 622, 590, 603
972, 622, 603, 619
973, 623, 605, 606
974, 623, 606, 615
975, 624, 609, 601
976, 624, 601, 602
 977, 690,   9, 109
 978, 648, 143, 647
 979, 647, 144, 646
 980, 780,  35,  34
 981, 726, 687, 685
 982, 705, 690, 630
 983, 122,  10, 123
 984, 640, 123, 124
 985, 667, 637, 662
 986, 662, 637, 636
 987, 663, 636, 635
 988, 663, 662, 636
 989, 749, 714, 732
 990, 708, 670, 665
 991, 792, 753, 788
 992, 737, 695, 696
 993, 691, 113, 114
 994, 680, 645, 644
 995, 626, 625, 154
 996, 630, 109, 110
 997, 135,  11, 136
 998, 654, 136, 137
 999, 749, 732, 717
1000, 631, 132, 133
1001, 632, 132, 631
1002, 633, 131, 632
1003, 634, 130, 633
1004, 635, 129, 634
1005, 636, 128, 635
1006, 637, 127, 636
1007, 638, 126, 637
1008, 639, 125, 638
1009, 640, 124, 639
1010,  35, 152,   4
1011, 641, 152,  35
1012, 682, 151, 641
1013, 671, 642, 149
1014, 673, 643, 642
1015, 643, 148, 642
1016, 644, 147, 643
1017, 683, 680, 644
1018, 683, 643, 673
1019, 645, 146, 644
1020, 646, 145, 645
1021, 649, 142, 648
1022, 650, 141, 649
1023, 651, 140, 650
1024, 652, 139, 651
1025, 653, 138, 652
1026, 654, 137, 653
1027, 684,  33,  32
1028, 725, 673, 642
1029, 685,  31,  30
1030, 685,  30, 656
1031, 656,  30,  29
1032, 657, 656,  29
1033, 658, 657,  28
1034, 660, 659,  26
1035, 743, 660, 625
1036, 660,   3, 153
1037, 625, 153, 154
1038, 626, 154, 155
1039, 629, 111, 628
1040, 628, 112, 627
1041, 627, 112, 113
1042, 672, 649, 648
1043, 702, 629, 628
1044, 628, 111, 112
1045, 692, 630, 629
1046, 629, 110, 111
1047, 690, 626, 155
1048, 630, 110, 629
1049, 661, 133, 134
1050, 666, 632, 631
1051, 788, 707, 749
1052, 632, 131, 132
1053, 696, 695, 117
1054, 633, 130, 131
1055, 697, 696, 118
1056, 634, 129, 130
1057, 711, 663, 710
1058, 635, 128, 129
1059, 839, 817, 818
1060, 636, 127, 128
1061, 699, 698, 120
1062, 637, 126, 127
1063, 668, 638, 667
1064, 638, 125, 126
1065, 703, 639, 668
1066, 639, 124, 125
1067, 700, 122, 640
1068, 640, 122, 123
1069, 641, 151, 152
1070, 655,  34,  33
1071, 642, 148, 149
1072, 671, 149, 150
1073, 814, 787, 747
1074, 643, 147, 148
1075, 765, 757, 724
1076, 644, 146, 147
1077, 721, 716, 681
1078, 645, 145, 146
1079, 675, 647, 646
1080, 646, 144, 145
1081, 676, 647, 675
1082, 647, 143, 144
1083, 719, 676, 715
1084, 648, 142, 143
1085, 666, 665, 632
1086, 649, 141, 142
1087, 822, 792, 791
1088, 650, 140, 141
1089, 677, 650, 674
1090, 651, 139, 140
1091, 732, 704, 679
1092, 652, 138, 139
1093, 704, 654, 653
1094, 653, 137, 138
1095, 669, 135, 654
1096, 654, 135, 136
1097, 780, 655, 745
1098, 730, 727, 684
1099, 657,  29,  28
1100, 688, 656, 657
1101, 658,  28,  27
1102, 689, 688, 657
1103, 659, 658,  27
1104, 686, 658, 659
1105, 659,  27,  26
1106, 743, 686, 659
1107, 660,  26,   3
1108, 660, 153, 625
1109, 661, 631, 133
1110, 669, 661, 134
1111, 664, 635, 634
1112, 695, 693, 116
1113, 664, 663, 635
1114, 695, 116, 117
1115, 670, 634, 633
1116, 792, 784, 753
1117, 665, 633, 632
1118, 674, 649, 672
1119, 714, 631, 661
1120, 678, 651, 677
1121, 698, 697, 119
1122, 667, 638, 637
1123, 736, 703, 706
1124, 668, 639, 638
1125, 669, 134, 135
1126, 704, 669, 654
1127, 670, 664, 634
1128, 670, 633, 665
1129, 682, 150, 151
1130, 682, 671, 150
1131, 676, 648, 647
1132, 816, 807, 782
1133, 725, 642, 671
1134, 747, 705, 692
1135, 719, 672, 676
1136, 674, 650, 649
1137, 681, 646, 645
1138, 772, 742, 733
1139, 762, 716, 758
1140, 676, 672, 648
1141, 718, 717, 678
1142, 677, 651, 650
1143, 749, 666, 714
1144, 678, 652, 651
1145, 679, 653, 652
1146, 679, 652, 678
1147, 683, 644, 643
1148, 716, 715, 675
1149, 681, 675, 646
1150, 681, 645, 680
1151, 745, 655, 727
1152, 797, 745, 727
1153, 812, 811, 728
1154, 741, 740, 702
1155, 684, 655,  33
1156, 687,  32,  31
1157, 731, 656, 688
1158, 730, 687, 726
1159, 689, 658, 686
1160, 812, 686, 743
1161, 687, 684,  32
1162, 687,  31, 685
1163, 769, 726, 767
1164, 689, 657, 658
1165, 812, 743, 746
1166, 740, 692, 702
1167, 690, 155,   9
1168, 690, 109, 630
1169, 691, 627, 113
1170, 694, 114, 115
1171, 814, 747, 802
1172, 702, 628, 701
1173, 693, 115, 116
1174, 710, 664, 709
1175, 694, 691, 114
1176, 694, 115, 693
1177, 696, 117, 118
1178, 738, 737, 696
1179, 697, 118, 119
1180, 774, 739, 748
1181, 698, 119, 120
1182, 739, 738, 697
1183, 699, 120, 121
1184, 748, 739, 736
1185, 700, 699, 121
1186, 703, 700, 640
1187, 700, 121, 122
1188, 703, 640, 639
1189, 701, 628, 627
1190, 742, 627, 691
1191, 840, 838, 837
1192, 702, 692, 629
1193, 706, 703, 668
1194, 703, 699, 700
1195, 704, 661, 669
1196, 704, 653, 679
1197, 705, 626, 690
1198, 705, 630, 692
1199, 713, 668, 667
1200, 712, 662, 711
1201, 708, 665, 707
1202, 707, 665, 666
1203, 722, 720, 674
1204, 709, 670, 708
1205, 764, 763, 719
1206, 709, 664, 670
1207, 737, 734, 695
1208, 710, 663, 664
1209, 782, 754, 751
1210, 711, 662, 663
1211, 751, 712, 711
1212, 712, 667, 662
1213, 713, 706, 668
1214, 713, 667, 712
1215, 714, 666, 631
1216, 714, 661, 704
1217, 715, 676, 675
1218, 716, 675, 681
1219, 721, 681, 680
1220, 841, 827, 836
1221, 717, 679, 678
1222, 718, 678, 677
1223, 720, 677, 674
1224, 722, 672, 719
1225, 764, 715, 762
1226, 760, 720, 759
1227, 720, 718, 677
1228, 722, 674, 672
1229, 724, 680, 683
1230, 758, 721, 757
1231, 834, 833, 806
1232, 759, 720, 722
1233, 723, 683, 673
1234, 766, 725, 750
1235, 724, 721, 680
1236, 724, 683, 723
1237, 744, 671, 682
1238, 727, 655, 684
1239, 731, 726, 685
1240, 771, 767, 731
1241, 768, 727, 730
1242, 730, 684, 687
1243, 729, 689, 728
1244, 728, 689, 686
1245, 800, 767, 798
1246, 729, 688, 689
1247, 781, 750, 768
1248, 797, 750, 744
1249, 731, 685, 656
1250, 771, 688, 729
1251, 732, 714, 704
1252, 732, 679, 717
1253, 733, 691, 694
1254, 735, 694, 693
1255, 734, 693, 695
1256, 813, 774, 748
1257, 735, 733, 694
1258, 735, 693, 734
1259, 736, 698, 699
1260, 736, 699, 703
1261, 738, 696, 697
1262, 813, 807, 774
1263, 739, 697, 698
1264, 748, 706, 713
1265, 739, 698, 736
1266, 748, 736, 706
1267, 741, 702, 701
1268, 790, 789, 757
1269, 779, 701, 742
1270, 821, 789, 820
1271, 742, 701, 627
1272, 742, 691, 733
1273, 743, 659, 660
1274, 746, 743, 625
1275, 744, 725, 671
1276, 745, 744, 682
1277, 745, 682, 641
1278, 780, 745, 641
1279, 787, 625, 626
1280, 747, 626, 705
1281, 747, 692, 740
1282, 838, 778, 835
1283, 754, 713, 712
1284, 813, 782, 807
1285, 761, 717, 718
1286, 749, 707, 666
1287, 801, 768, 769
1288, 750, 725, 744
1289, 752, 711, 710
1290, 752, 751, 711
1291, 755, 710, 709
1292, 823, 819, 822
1293, 756, 708, 753
1294, 753, 708, 707
1295, 754, 748, 713
1296, 754, 712, 751
1297, 755, 752, 710
1298, 756, 755, 709
1299, 756, 709, 708
1300, 791, 760, 759
1301, 757, 721, 724
1302, 765, 724, 723
1303, 793, 758, 789
1304, 758, 716, 721
1305, 763, 722, 719
1306, 763, 759, 722
1307, 792, 788, 761
1308, 760, 718, 720
1309, 761, 749, 717
1310, 761, 718, 760
1311, 773, 772, 733
1312, 762, 715, 716
1313, 764, 719, 715
1314, 826, 825, 796
1315, 795, 762, 793
1316, 795, 764, 762
1317, 799, 766, 781
1318, 829, 798, 827
1319, 766, 723, 673
1320, 766, 673, 725
1321, 767, 726, 731
1322, 842, 790, 828
1323, 797, 768, 750
1324, 769, 768, 730
1325, 769, 730, 726
1326, 849, 843, 842
1327, 770, 729, 728
1328, 778, 740, 741
1329, 771, 731, 688
1330, 809, 729, 770
1331, 803, 779, 772
1332, 773, 733, 735
1333, 777, 735, 734
1334, 796, 764, 795
1335, 775, 738, 774
1336, 774, 738, 739
1337, 776, 737, 775
1338, 775, 737, 738
1339, 806, 805, 777
1340, 776, 734, 737
1341, 777, 773, 735
1342, 777, 734, 776
1343, 810, 741, 779
1344, 835, 810, 830
1345, 779, 741, 701
1346, 779, 742, 772
1347, 780, 641,  35
1348, 780,  34, 655
1349, 815, 781, 801
1350, 781, 766, 750
1351, 783, 751, 752
1352, 783, 782, 751
1353, 785, 752, 755
1354, 818, 817, 785
1355, 786, 756, 784
1356, 784, 756, 753
1357, 785, 783, 752
1358, 786, 785, 755
1359, 786, 755, 756
1360, 819, 818, 786
1361, 787, 746, 625
1362, 787, 626, 747
1363, 788, 753, 707
1364, 788, 749, 761
1365, 789, 758, 757
1366, 790, 757, 765
1367, 828, 765, 799
1368, 844, 835, 830
1369, 794, 759, 763
1370, 794, 791, 759
1371, 792, 761, 760
1372, 792, 760, 791
1373, 804, 803, 772
1374, 793, 762, 758
1375, 796, 763, 764
1376, 857, 834, 847
1377, 855, 832, 853
1378, 805, 804, 773
1379, 833, 832, 805
1380, 796, 794, 763
1381, 797, 744, 745
1382, 797, 727, 768
1383, 798, 767, 771
1384, 809, 798, 771
1385, 799, 765, 723
1386, 799, 723, 766
1387, 815, 801, 800
1388, 800, 769, 767
1389, 801, 781, 768
1390, 801, 769, 800
1391, 802, 747, 740
1392, 802, 740, 778
1393, 846, 845, 821
1394, 804, 772, 773
1395, 805, 773, 777
1396, 824, 793, 821
1397, 806, 777, 776
1398, 826, 795, 824
1399, 808, 776, 775
1400, 847, 807, 816
1401, 807, 775, 774
1402, 816, 782, 783
1403, 808, 806, 776
1404, 808, 775, 807
1405, 809, 771, 729
1406, 848, 837, 838
1407, 810, 778, 741
1408, 810, 779, 803
1409, 811, 770, 728
1410, 814, 811, 812
1411, 812, 728, 686
1412, 814, 812, 746
1413, 813, 748, 754
1414, 813, 754, 782
1415, 814, 746, 787
1416, 840, 814, 802
1417, 849, 815, 829
1418, 815, 799, 781
1419, 817, 783, 785
1420, 817, 816, 783
1421, 818, 785, 786
1422, 863, 859, 850
1423, 819, 786, 784
1424, 850, 819, 823
1425, 822, 819, 784
1426, 823, 822, 791
1427, 820, 789, 790
1428, 843, 829, 827
1429, 831, 830, 803
1430, 821, 793, 789
1431, 822, 784, 792
1432, 823, 791, 794
1433, 825, 794, 796
1434, 825, 823, 794
1435, 832, 831, 804
1436, 824, 795, 793
1437, 826, 796, 795
1438, 851, 850, 825
1439, 852, 824, 845
1440, 864, 852, 861
1441, 827, 798, 809
1442, 836, 809, 770
1443, 828, 790, 765
1444, 828, 799, 815
1445, 829, 815, 800
1446, 829, 800, 798
1447, 830, 810, 803
1448, 831, 803, 804
1449, 832, 804, 805
1450, 866, 860, 865
1451, 833, 805, 806
1452, 852, 851, 826
1453, 834, 806, 808
1454, 858, 857, 839
1455, 847, 834, 808
1456, 857, 856, 834
1457, 848, 841, 836
1458, 835, 778, 810
1459, 836, 827, 809
1460, 837, 836, 770
1461, 837, 770, 811
1462, 840, 837, 811
1463, 838, 802, 778
1464, 868, 838, 835
1465, 859, 819, 850
1466, 863, 858, 839
1467, 840, 811, 814
1468, 840, 802, 838
1469, 870, 848, 868
1470, 862, 842, 843
1471, 842, 820, 790
1472, 849, 842, 828
1473, 843, 827, 841
1474, 872, 862, 871
1475, 854, 830, 831
1476, 871, 870, 865
1477, 845, 824, 821
1478, 846, 821, 820
1479, 872, 842, 862
1480, 866, 865, 854
1481, 847, 808, 807
1482, 857, 847, 816
1483, 848, 836, 837
1484, 868, 848, 838
1485, 849, 828, 815
1486, 849, 829, 843
1487, 850, 823, 825
1488, 851, 825, 826
1489, 852, 826, 824
1490, 869, 856, 858
1491, 866, 861, 860
1492, 861, 845, 860
1493, 853, 832, 833
1494, 856, 853, 833
1495, 854, 844, 830
1496, 855, 854, 831
1497, 855, 831, 832
1498, 869, 864, 867
1499, 856, 833, 834
1500, 858, 856, 857
1501, 857, 816, 817
1502, 857, 817, 839
1503, 863, 839, 859
1504, 864, 863, 851
1505, 859, 839, 818
1506, 859, 818, 819
1507, 860, 845, 846
1508, 872, 871, 846
1509, 867, 861, 866
1510, 861, 852, 845
1511, 862, 843, 841
1512, 870, 862, 841
1513, 863, 850, 851
1514, 864, 851, 852
1515, 867, 864, 861
1516, 869, 863, 864
1517, 865, 844, 854
1518, 871, 865, 860
1519, 866, 854, 855
1520, 867, 866, 855
1521, 867, 855, 853
1522, 869, 867, 853
1523, 868, 835, 844
1524, 870, 868, 844
1525, 869, 853, 856
1526, 869, 858, 863
1527, 870, 841, 848
1528, 870, 844, 865
1529, 871, 860, 846
1530, 871, 862, 870
1531, 872, 846, 820
1532, 872, 820, 842
1533, 1010,  940,  989
1534,  934,  192,  873
1535,  970,  922,  969
1536,  873,  122,  121
1537,  875,  874,  158
1538,  875,    8,  105
1539,  938,  119,  118
1540,  939,  117,  876
1541,  927,  183,  184
1542,  928,  907,  906
1543,  877,  876,  116
1544,  878,  877,  115
1545,  880,  113,  112
1546,  879,  878,  114
1547,  881,  880,  112
1548,  882,  881,  111
1549,  937,  882,  884
1550,  883,  157,  874
1551, 1008,  885,  883
1552,  885,    9,  156
1553,   92,    7,  159
1554,  905,  159,  160
1555,  925,  903,  914
1556,  926,  901,  913
1557,  913,  901,  900
1558,  924,  900,  899
1559, 1020,  969, 1017
1560,  952,  948,   97
1561,  952,   97,   96
1562,  947,  100,   99
1563,  887,  101,  886
1564,  888,  102,  887
1565,  889,  103,  888
1566,  889,  104,  103
1567,  176,  175,   12
1568,  912,  175,  176
1569,  929,  909,  908
1570,  892,  173,  891
1571,  893,  172,  892
1572,  894,  171,  893
1573,  895,  170,  894
1574,  896,  169,  895
1575,  897,  168,  896
1576,  898,  167,  897
1577,  899,  166,  898
1578,  900,  165,  899
1579,  901,  164,  900
1580,  902,  163,  901
1581,  903,  162,  902
1582,  904,  161,  903
1583,  905,  160,  904
1584,  192,   10,  122
1585,  873,  192,  122
1586,  996,  939,  988
1587,  962,  934,  873
1588, 1069,  982,  962
1589, 1069, 1031,  981
1590,  989,  940,  938
1591,  978,  187,  188
1592,  936,  186,  935
1593,  927,  906,  183
1594,  930,  184,  185
1595,  907,  182,  906
1596,  908,  181,  907
1597,  909,  180,  908
1598,  910,  179,  909
1599,  911,  178,  910
1600,  960,  915,  912
1601,  961,  120,  940
1602,  940,  119,  938
1603,  874,  157,  158
1604, 1151, 1011, 1012
1605,  875,  158,    8
1606,  890,  105,  104
1607,  876,  117,  116
1608,  877,  116,  115
1609,  878,  115,  114
1610,  917,  893,  892
1611,  879,  114,  113
1612,  918,  895,  894
1613,  880,  879,  113
1614,  942,  880,  881
1615,  881,  112,  111
1616,  942,  941,  880
1617,  882,  111,  110
1618, 1086, 1008, 1011
1619,  884,  110,  109
1620, 1008,  937,  884
1621,  883,  156,  157
1622, 1086,  937, 1008
1623,  884,  882,  110
1624,  885,  884,  109
1625,  885,  109,    9
1626,  885,  156,  883
1627,  886,  101,  100
1628,  919,  897,  896
1629,  949,  887,  886
1630,  887,  102,  101
1631,  950,  889,  888
1632,  888,  103,  102
1633,  951,  889,  950
1634,  890,  104,  889
1635, 1009,  875,  890
1636,  890,  875,  105
1637,  891,  173,  174
1638,  915,  175,  912
1639,  987,  986,  931
1640,  892,  172,  173
1641,  920,  893,  917
1642,  893,  171,  172
1643,  944,  943,  877
1644,  894,  170,  171
1645,  921,  895,  918
1646,  895,  169,  170
1647,  945,  879,  941
1648,  896,  168,  169
1649,  922,  898,  897
1650,  897,  167,  168
1651, 1018,  971,  970
1652,  898,  166,  167
1653,  926,  914,  902
1654,  899,  165,  166
1655,  954,  953,   95
1656,  900,  164,  165
1657, 1149, 1119, 1125
1658,  901,  163,  164
1659,  914,  903,  902
1660,  902,  162,  163
1661,  955,  954,   94
1662,  903,  161,  162
1663,  959,  904,  925
1664,  904,  160,  161
1665,  956,   92,  905
1666,  905,   92,  159
1667,  906,  182,  183
1668,  976,  927,  930
1669,  967,  917,  923
1670,  907,  181,  182
1671,  923,  917,  892
1672,  908,  180,  181
1673, 1023,  967,  984
1674,  909,  179,  180
1675,  932,  909,  929
1676,  910,  178,  179
1677,  960,  923,  891
1678,  911,  177,  178
1679,  912,  176,  177
1680,  912,  177,  911
1681,  916,  899,  898
1682,  972,  924,  971
1683,  953,  952,   96
1684,  926,  902,  901
1685,  915,  891,  174
1686,  915,  174,  175
1687,  991,  990,  944
1688,  971,  916,  970
1689,  923,  892,  891
1690,  931,  907,  928
1691,  920,  918,  894
1692,  968,  921,  965
1693,  921,  919,  896
1694,  969,  919,  968
1695,  920,  894,  893
1696, 1023, 1021,  964
1697,  921,  896,  895
1698, 1057, 1052, 1015
1699,  922,  916,  898
1700,  922,  897,  919
1701,  960,  891,  915
1702,  933,  911,  910
1703,  924,  913,  900
1704,  924,  899,  916
1705, 1000,  959,  963
1706,  925,  904,  903
1707,  999,  998,  957
1708, 1002, 1001,  952
1709,  930,  927,  184
1710, 1142, 1113, 1112
1711, 1089, 1087, 1023
1712,  977,  906,  927
1713,  967,  964,  917
1714,  931,  929,  908
1715,  936,  185,  186
1716,  979,  976,  930
1717,  931,  908,  907
1718,  986,  985,  929
1719,  997,  984,  967
1720,  932,  910,  909
1721,  997,  960,  933
1722,  933,  910,  932
1723,  982,  191,  934
1724,  934,  191,  192
1725,  935,  186,  187
1726, 1039,  989,  996
1727,  980,  979,  936
1728,  936,  930,  185
1729,  946,  882,  937
1730, 1004,  951,  950
1731, 1090, 1069,  962
1732,  939,  938,  118
1733,  939,  118,  117
1734,  988,  876,  943
1735,  961,  121,  120
1736,  940,  120,  119
1737,  941,  879,  880
1738,  999,  957,  948
1739,  946,  881,  882
1740,  946,  942,  881
1741,  943,  876,  877
1742,  944,  877,  878
1743,  945,  944,  878
1744, 1040,  992, 1035
1745,  945,  878,  879
1746, 1017,  968, 1015
1747,  958,  950,  888
1748,  958,  887,  949
1749,  947,  886,  100
1750,  957,   99,   98
1751,  948,   98,   97
1752,  974,  913,  972
1753,  995,  942,  946
1754, 1007,  886,  947
1755, 1012, 1011,  874
1756,  958,  888,  887
1757, 1197, 1012, 1009
1758,  951,  890,  889
1759,  953,   96,   95
1760, 1045, 1003, 1013
1761,  954,   95,   94
1762, 1003, 1002,  953
1763,  955,   94,   93
1764, 1013, 1003, 1000
1765,  956,  955,   93
1766,  959,  956,  905
1767,  956,   93,   92
1768,  959,  905,  904
1769,  957,  947,   99
1770,  957,   98,  948
1771, 1042,  995,  994
1772, 1005, 1004,  950
1773,  963,  959,  925
1774,  959,  955,  956
1775,  960,  912,  911
1776,  960,  911,  933
1777,  962,  873,  961
1778,  961,  873,  121
1779,  996,  989,  938
1780,  982,  981,  190
1781,  975,  925,  914
1782,  973,  914,  926
1783,  966,  920,  964
1784,  964,  920,  917
1785,  965,  921,  918
1786,  966,  965,  918
1787,  966,  918,  920
1788, 1023,  964,  967
1789,  997,  967,  923
1790,  984,  933,  932
1791, 1105, 1066, 1104
1792,  968,  919,  921
1793, 1060, 1020, 1056
1794,  969,  922,  919
1795, 1148, 1146, 1116
1796,  970,  916,  922
1797, 1116, 1115, 1077
1798,  971,  924,  916
1799, 1001,  999,  948
1800,  972,  913,  924
1801, 1053, 1014, 1024
1802,  974,  973,  926
1803,  974,  926,  913
1804, 1088, 1053, 1083
1805,  975,  963,  925
1806,  975,  914,  973
1807, 1032,  979,  980
1808,  979,  930,  936
1809,  977,  928,  906
1810,  977,  927,  976
1811,  978,  935,  187
1812,  983,  188,  189
1813,  980,  936,  935
1814, 1032, 1028,  979
1815, 1034,  935,  978
1816, 1075, 1039, 1041
1817,  981,  189,  190
1818, 1025, 1010,  989
1819,  982,  190,  191
1820,  982,  934,  962
1821,  983,  978,  188
1822,  983,  189,  981
1823,  985,  932,  929
1824,  985,  984,  932
1825,  986,  929,  931
1826,  987,  931,  928
1827, 1026,  928,  977
1828, 1134, 1100, 1106
1829, 1033,  977,  976
1830, 1067, 1026, 1033
1831,  988,  939,  876
1832, 1038,  943,  990
1833, 1101, 1069, 1090
1834,  996,  938,  939
1835,  990,  943,  944
1836,  991,  944,  945
1837,  993,  945,  941
1838, 1128, 1094, 1097
1839,  992,  941,  942
1840, 1073, 1070, 1035
1841,  993,  991,  945
1842,  993,  941,  992
1843,  994,  946,  937
1844, 1042, 1035,  995
1845,  995,  992,  942
1846,  995,  946,  994
1847, 1041,  988, 1038
1848, 1076, 1075, 1041
1849,  997,  923,  960
1850,  997,  933,  984
1851, 1043, 1007,  998
1852,  998,  947,  957
1853, 1001,  948,  952
1854, 1083, 1081, 1046
1855, 1000,  954,  955
1856, 1000,  955,  959
1857, 1002,  952,  953
1858, 1088, 1083, 1045
1859, 1003,  953,  954
1860, 1013,  963,  975
1861, 1003,  954, 1000
1862, 1013, 1000,  963
1863, 1005,  950,  958
1864, 1006,  958,  949
1865, 1006, 1005,  958
1866, 1143, 1114, 1120
1867, 1049,  949, 1007
1868, 1127, 1092, 1124
1869, 1007,  949,  886
1870, 1007,  947,  998
1871, 1008,  884,  885
1872, 1011, 1008,  883
1873, 1009,  874,  875
1874, 1009,  890,  951
1875, 1010,  962,  961
1876, 1010,  961,  940
1877, 1011,  883,  874
1878, 1012,  874, 1009
1879, 1197, 1009,  951
1880, 1197, 1085, 1151
1881, 1014,  975,  973
1882, 1014, 1013,  975
1883, 1024,  973,  974
1884, 1016,  974,  972
1885, 1015,  968,  965
1886, 1022,  965,  966
1887, 1044, 1043,  998
1888, 1019,  972,  971
1889, 1037, 1036,  991
1890, 1017,  969,  968
1891, 1020, 1018,  970
1892, 1098, 1056, 1092
1893, 1019, 1016,  972
1894, 1019,  971, 1018
1895, 1020,  970,  969
1896, 1056, 1017, 1052
1897, 1021,  966,  964
1898, 1029,  986,  987
1899, 1022, 1015,  965
1900, 1022,  966, 1021
1901, 1089,  984,  985
1902, 1030,  986, 1029
1903, 1024, 1014,  973
1904, 1024,  974, 1016
1905, 1101, 1031, 1069
1906, 1031, 1027,  983
1907, 1026,  987,  928
1908, 1033,  976, 1028
1909, 1063, 1062, 1027
1910, 1027,  978,  983
1911, 1028,  976,  979
1912, 1107, 1032, 1068
1913, 1058, 1057, 1022
1914, 1061,  987, 1026
1915, 1089, 1030, 1087
1916, 1030,  985,  986
1917, 1031,  983,  981
1918, 1139, 1103, 1063
1919, 1068,  980, 1034
1920, 1113, 1075, 1076
1921, 1033, 1026,  977
1922, 1066, 1028, 1065
1923, 1034,  980,  935
1924, 1034,  978, 1027
1925, 1035,  992,  995
1926, 1050, 1048, 1005
1927, 1036,  990,  991
1928, 1037,  991,  993
1929, 1040, 1037,  993
1930, 1110, 1072, 1108
1931, 1038,  988,  943
1932, 1074,  990, 1036
1933, 1039, 1025,  989
1934, 1041, 1039,  996
1935, 1040,  993,  992
1936, 1096, 1093, 1054
1937, 1041,  996,  988
1938, 1076, 1038, 1074
1939, 1079, 1042,  994
1940, 1048, 1004, 1005
1941, 1077, 1049, 1043
1942, 1044,  998,  999
1943, 1047,  999, 1001
1944, 1093, 1055, 1054
1945, 1046, 1002, 1045
1946, 1045, 1002, 1003
1947, 1088, 1045, 1013
1948, 1046, 1001, 1002
1949, 1047, 1044,  999
1950, 1047, 1001, 1046
1951, 1050, 1005, 1006
1952, 1084, 1006, 1049
1953, 1049, 1006,  949
1954, 1049, 1007, 1043
1955, 1080, 1077, 1043
1956, 1150, 1120, 1114
1957, 1139, 1063, 1101
1958, 1051, 1025, 1039
1959, 1052, 1017, 1015
1960, 1057, 1015, 1022
1961, 1055, 1024, 1016
1962, 1118, 1116, 1080
1963, 1054, 1016, 1019
1964, 1059, 1019, 1018
1965, 1055, 1053, 1024
1966, 1055, 1016, 1054
1967, 1072, 1040, 1070
1968, 1056, 1020, 1017
1969, 1058, 1022, 1021
1970, 1097, 1094, 1057
1971, 1087, 1058, 1021
1972, 1064, 1030, 1029
1973, 1059, 1054, 1019
1974, 1060, 1059, 1018
1975, 1060, 1018, 1020
1976, 1130, 1098, 1127
1977, 1061, 1029,  987
1978, 1066, 1033, 1028
1979, 1103, 1102, 1062
1980, 1062, 1034, 1027
1981, 1063, 1027, 1031
1982, 1139, 1091, 1103
1983, 1121, 1087, 1064
1984, 1100, 1029, 1061
1985, 1065, 1028, 1032
1986, 1138, 1065, 1107
1987, 1191, 1171, 1160
1988, 1067, 1033, 1066
1989, 1094, 1092, 1052
1990, 1067, 1061, 1026
1991, 1068, 1032,  980
1992, 1068, 1034, 1062
1993, 1069,  981,  982
1994, 1090,  962, 1010
1995, 1070, 1040, 1035
1996, 1073, 1035, 1042
1997, 1071, 1036, 1037
1998, 1072, 1071, 1037
1999, 1072, 1037, 1040
2000, 1193, 1169, 1174
2001, 1114, 1042, 1079
2002, 1078, 1048, 1050
2003, 1074, 1038,  990
2004, 1111, 1036, 1071
2005, 1075, 1051, 1039
2006, 1076, 1041, 1038
2007, 1112, 1074, 1111
2008, 1165, 1142, 1140
2009, 1115, 1084, 1077
2010, 1080, 1043, 1044
2011, 1109, 1108, 1070
2012, 1117, 1050, 1084
2013, 1086, 1079,  994
2014, 1151, 1085, 1150
2015, 1082, 1044, 1047
2016, 1119, 1118, 1082
2017, 1081, 1047, 1046
2018, 1095, 1055, 1093
2019, 1082, 1080, 1044
2020, 1082, 1047, 1081
2021, 1083, 1046, 1045
2022, 1144, 1053, 1095
2023, 1084, 1050, 1006
2024, 1084, 1049, 1077
2025, 1085, 1004, 1048
2026, 1120, 1048, 1078
2027, 1086,  994,  937
2028, 1151, 1086, 1011
2029, 1087, 1021, 1023
2030, 1087, 1030, 1064
2031, 1088, 1013, 1014
2032, 1088, 1014, 1053
2033, 1089, 1023,  984
2034, 1089,  985, 1030
2035, 1090, 1010, 1025
2036, 1101, 1090, 1025
2037, 1123, 1091, 1113
2038, 1091, 1051, 1075
2039, 1092, 1056, 1052
2040, 1094, 1052, 1057
2041, 1096, 1054, 1059
2042, 1167, 1166, 1145
2043, 1097, 1057, 1058
2044, 1122, 1121, 1064
2045, 1144, 1083, 1053
2046, 1095, 1053, 1055
2047, 1099, 1059, 1060
2048, 1168, 1167, 1146
2049, 1121, 1097, 1058
2050, 1100, 1064, 1029
2051, 1098, 1060, 1056
2052, 1187, 1173, 1186
2053, 1099, 1096, 1059
2054, 1099, 1060, 1098
2055, 1106, 1061, 1067
2056, 1105, 1067, 1066
2057, 1101, 1025, 1051
2058, 1101, 1063, 1031
2059, 1176, 1133, 1123
2060, 1102, 1068, 1062
2061, 1103, 1062, 1063
2062, 1133, 1091, 1123
2063, 1104, 1066, 1065
2064, 1173, 1153, 1172
2065, 1128, 1124, 1094
2066, 1106, 1067, 1105
2067, 1171, 1134, 1135
2068, 1106, 1100, 1061
2069, 1107, 1065, 1032
2070, 1107, 1068, 1102
2071, 1108, 1072, 1070
2072, 1109, 1070, 1073
2073, 1143, 1073, 1114
2074, 1166, 1164, 1147
2075, 1191, 1186, 1172
2076, 1110, 1071, 1072
2077, 1111, 1074, 1036
2078, 1141, 1071, 1110
2079, 1176, 1159, 1131
2080, 1112, 1076, 1074
2081, 1113, 1091, 1075
2082, 1113, 1076, 1112
2083, 1114, 1073, 1042
2084, 1150, 1114, 1079
2085, 1145, 1117, 1115
2086, 1116, 1077, 1080
2087, 1118, 1080, 1082
2088, 1170, 1155, 1169
2089, 1117, 1078, 1050
2090, 1117, 1084, 1115
2091, 1119, 1082, 1081
2092, 1144, 1125, 1119
2093, 1144, 1119, 1081
2094, 1125, 1095, 1093
2095, 1120, 1085, 1048
2096, 1184, 1120, 1078
2097, 1121, 1058, 1087
2098, 1122, 1064, 1100
2099, 1128, 1097, 1122
2100, 1122, 1097, 1121
2101, 1162, 1140, 1141
2102, 1133, 1131, 1102
2103, 1124, 1092, 1094
2104, 1154, 1153, 1124
2105, 1126, 1093, 1096
2106, 1126, 1125, 1093
2107, 1129, 1096, 1099
2108, 1183, 1166, 1167
2109, 1137, 1108, 1132
2110, 1127, 1098, 1092
2111, 1134, 1122, 1100
2112, 1152, 1122, 1134
2113, 1129, 1126, 1096
2114, 1130, 1129, 1099
2115, 1130, 1099, 1098
2116, 1179, 1161, 1178
2117, 1176, 1131, 1133
2118, 1131, 1107, 1102
2119, 1132, 1108, 1109
2120, 1164, 1109, 1143
2121, 1133, 1102, 1103
2122, 1133, 1103, 1091
2123, 1135, 1106, 1105
2124, 1135, 1134, 1106
2125, 1136, 1105, 1104
2126, 1136, 1135, 1105
2127, 1161, 1104, 1138
2128, 1178, 1159, 1176
2129, 1156, 1127, 1153
2130, 1137, 1110, 1108
2131, 1138, 1104, 1065
2132, 1138, 1107, 1131
2133, 1139, 1101, 1051
2134, 1139, 1051, 1091
2135, 1140, 1112, 1111
2136, 1141, 1140, 1111
2137, 1141, 1111, 1071
2138, 1163, 1110, 1137
2139, 1142, 1123, 1113
2140, 1142, 1112, 1140
2141, 1184, 1147, 1164
2142, 1143, 1109, 1073
2143, 1144, 1081, 1083
2144, 1144, 1095, 1125
2145, 1146, 1115, 1116
2146, 1146, 1145, 1115
2147, 1148, 1116, 1118
2148, 1170, 1169, 1149
2149, 1147, 1078, 1117
2150, 1147, 1117, 1145
2151, 1149, 1148, 1118
2152, 1155, 1126, 1129
2153, 1149, 1118, 1119
2154, 1170, 1125, 1126
2155, 1151, 1150, 1079
2156, 1150, 1085, 1120
2157, 1151, 1079, 1086
2158, 1197, 1151, 1012
2159, 1154, 1128, 1152
2160, 1152, 1128, 1122
2161, 1153, 1127, 1124
2162, 1154, 1124, 1128
2163, 1171, 1135, 1160
2164, 1160, 1135, 1136
2165, 1157, 1129, 1130
2166, 1183, 1182, 1166
2167, 1175, 1156, 1173
2168, 1156, 1130, 1127
2169, 1157, 1155, 1129
2170, 1157, 1130, 1156
2171, 1158, 1137, 1132
2172, 1182, 1164, 1166
2173, 1161, 1138, 1159
2174, 1159, 1138, 1131
2175, 1172, 1154, 1171
2176, 1179, 1136, 1161
2177, 1161, 1136, 1104
2178, 1180, 1162, 1177
2179, 1163, 1162, 1141
2180, 1194, 1180, 1190
2181, 1163, 1141, 1110
2182, 1181, 1137, 1158
2183, 1164, 1132, 1109
2184, 1184, 1164, 1143
2185, 1178, 1176, 1165
2186, 1165, 1140, 1162
2187, 1166, 1147, 1145
2188, 1167, 1145, 1146
2189, 1168, 1146, 1148
2190, 1185, 1183, 1167
2191, 1169, 1168, 1148
2192, 1174, 1155, 1157
2193, 1169, 1148, 1149
2194, 1174, 1169, 1155
2195, 1170, 1149, 1125
2196, 1170, 1126, 1155
2197, 1171, 1154, 1152
2198, 1171, 1152, 1134
2199, 1196, 1187, 1186
2200, 1172, 1153, 1154
2201, 1195, 1192, 1183
2202, 1173, 1156, 1153
2203, 1175, 1174, 1157
2204, 1198, 1192, 1195
2205, 1175, 1157, 1156
2206, 1196, 1190, 1189
2207, 1176, 1123, 1142
2208, 1176, 1142, 1165
2209, 1177, 1162, 1163
2210, 1181, 1177, 1163
2211, 1178, 1161, 1159
2212, 1180, 1178, 1165
2213, 1194, 1190, 1191
2214, 1179, 1160, 1136
2215, 1180, 1165, 1162
2216, 1190, 1177, 1189
2217, 1181, 1163, 1137
2218, 1195, 1183, 1185
2219, 1182, 1158, 1132
2220, 1182, 1132, 1164
2221, 1183, 1158, 1182
2222, 1185, 1167, 1168
2223, 1184, 1143, 1120
2224, 1184, 1078, 1147
2225, 1193, 1185, 1168
2226, 1188, 1174, 1175
2227, 1186, 1173, 1172
2228, 1191, 1172, 1171
2229, 1198, 1195, 1188
2230, 1187, 1175, 1173
2231, 1193, 1188, 1185
2232, 1188, 1175, 1187
2233, 1189, 1177, 1181
2234, 1192, 1189, 1181
2235, 1196, 1191, 1190
2236, 1190, 1180, 1177
2237, 1191, 1160, 1179
2238, 1194, 1191, 1179
2239, 1192, 1181, 1158
2240, 1192, 1158, 1183
2241, 1193, 1168, 1169
2242, 1193, 1174, 1188
2243, 1194, 1179, 1178
2244, 1194, 1178, 1180
2245, 1195, 1185, 1188
2246, 1198, 1188, 1187
2247, 1198, 1196, 1189
2248, 1196, 1186, 1191
2249, 1197,  951, 1004
2250, 1197, 1004, 1085
2251, 1198, 1187, 1196
2252, 1198, 1189, 1192
*Orientation, name=Ori-1
1., 0., 0., 0., 1., 0.
3, 0.
** Region: (CompositeLayup-1-1: Generated From Layup)
*Elset, elset=CompositeLayup-1-1, generate
    1,  2252,     1
** Section: CompositeLayup-1-1
*Shell Section, elset=CompositeLayup-1-1, composite, orientation=Ori-1, layup=CompositeLayup-1, symmetric
0.25, 3, CFRP, 0., Ply-1
0.25, 3, CFRP, 45., Ply-2
0.25, 3, CFRP, 90., Ply-3
0.25, 3, CFRP, -45., Ply-4
*End Part
**  
**
** ASSEMBLY
**
*Assembly, name=Assembly
**  
*Instance, name=Plate-1, part=PLATE
*End Instance
**  
*Nset, nset=Set-1, instance=Plate-1
   6,   7,  12,  79,  80,  81,  82,  83,  84,  85,  86,  87,  88,  89,  90,  91
 159, 160, 161, 162, 163, 164, 165, 166, 167, 168, 169, 170, 171, 172, 173, 174
 175,
*Elset, elset=Set-1, instance=Plate-1
  443,  444,  460,  463,  466,  467,  524,  528,  534,  536,  538,  540,  542,  544, 1553, 1554
 1567, 1637, 1640, 1642, 1644, 1646, 1648, 1650, 1652, 1654, 1656, 1658, 1660, 1662, 1664, 1686
*Nset, nset=Set-2, instance=Plate-1
   4,   5,  11,  36,  37,  38,  39,  40,  41,  42,  43,  44,  45,  46,  47,  48
 136, 137, 138, 139, 140, 141, 142, 143, 144, 145, 146, 147, 148, 149, 150, 151
 152,
*Elset, elset=Set-2, instance=Plate-1
   17,   18,   27,   83,   84,   86,   88,   90,   92,   94,   96,   98,  100,  135,  997,  998
 1010, 1069, 1071, 1072, 1074, 1076, 1078, 1080, 1082, 1084, 1086, 1088, 1090, 1092, 1094, 1129
*End Assembly
** 
** MATERIALS
** 
*Material, name=CFRP
*Elastic, type=ENGINEERING CONSTANTS
150000.,9000.,9000., 0.34, 0.34,  0.4,5000.,5000.
5000.,
** ----------------------------------------------------------------
** 
** STEP: Step-1
** 
*Step, name=Step-1, nlgeom=NO
*Static
1., 1., 1e-05, 1.
** 
** BOUNDARY CONDITIONS
** 
** Name: BC-1 Type: Symmetry/Antisymmetry/Encastre
*Boundary
Set-1, ENCASTRE
** Name: DISPLACEMENT Type: Displacement/Rotation
*Boundary
Set-2, 1, 1, 1.10526
** 
** OUTPUT REQUESTS
** 
*Restart, write, frequency=0
** 
** FIELD OUTPUT: F-Output-1
** 
*Output, field
*Element Output, position=NODES, directions=YES
E, 
** 
** HISTORY OUTPUT: H-Output-1
** 
*Output, history, variable=PRESELECT
*End Step
