*Heading
** Job name: Plate_149 Model name: Model-1
** Generated by: Abaqus/CAE 2024.HF3
*Preprint, echo=NO, model=NO, history=NO, contact=NO
**
** PARTS
**
*Part, name=PLATE
*Node
      1,   48.3926353,   135.874969,           0.
      2,   48.3926353,    67.617569,           0.
      3,   59.3956299,   56.6145706,           0.
      4,   116.142326,   56.6145706,           0.
      5,   116.142326,   135.874969,           0.
      6,           0.,   135.874969,           0.
      7,           0.,   56.6145706,           0.
      8,   37.3896408,   56.6145706,           0.
      9,   48.3926353,   45.6115761,           0.
     10,   48.3926353,           0.,           0.
     11,   116.142326,           0.,           0.
     12,           0.,           0.,           0.
     13,   48.3926353,   131.859833,           0.
     14,   48.3926353,   127.844688,           0.
     15,   48.3926353,   123.829544,           0.
     16,   48.3926353,   119.814407,           0.
     17,   48.3926353,   115.799263,           0.
     18,   48.3926353,   111.784119,           0.
     19,   48.3926353,   107.768982,           0.
     20,   48.3926353,   103.753838,           0.
     21,   48.3926353,   99.7387009,           0.
     22,   48.3926353,   95.7235565,           0.
     23,   48.3926353,   91.7084122,           0.
     24,   48.3926353,   87.6932755,           0.
     25,   48.3926353,   83.6781311,           0.
     26,   48.3926353,   79.6629868,           0.
     27,   48.3926353,     75.64785,           0.
     28,   48.3926353,   71.6327057,           0.
     29,   52.6032982,    66.780014,           0.
     30,   56.1729279,   64.3948669,           0.
     31,    58.558075,   60.8252335,           0.
     32,   63.4489632,   56.6145706,           0.
     33,   67.5022964,   56.6145706,           0.
     34,   71.5556335,   56.6145706,           0.
     35,   75.6089706,   56.6145706,           0.
     36,   79.6623077,   56.6145706,           0.
     37,   83.7156448,   56.6145706,           0.
     38,   87.7689743,   56.6145706,           0.
     39,   91.8223114,   56.6145706,           0.
     40,   95.8756485,   56.6145706,           0.
     41,   99.9289856,   56.6145706,           0.
     42,   103.982315,   56.6145706,           0.
     43,   108.035652,   56.6145706,           0.
     44,   112.088989,   56.6145706,           0.
     45,   116.142326,   60.5775909,           0.
     46,   116.142326,   64.5406113,           0.
     47,   116.142326,   68.5036316,           0.
     48,   116.142326,   72.4666519,           0.
     49,   116.142326,   76.4296722,           0.
     50,   116.142326,   80.3926926,           0.
     51,   116.142326,   84.3557129,           0.
     52,   116.142326,   88.3187332,           0.
     53,   116.142326,   92.2817535,           0.
     54,   116.142326,   96.2447739,           0.
     55,   116.142326,   100.207794,           0.
     56,   116.142326,   104.170815,           0.
     57,   116.142326,   108.133827,           0.
     58,   116.142326,   112.096848,           0.
     59,   116.142326,   116.059868,           0.
     60,   116.142326,   120.022888,           0.
     61,   116.142326,   123.985909,           0.
     62,   116.142326,   127.948929,           0.
     63,   116.142326,   131.911957,           0.
     64,   112.157051,   135.874969,           0.
     65,   108.171768,   135.874969,           0.
     66,   104.186493,   135.874969,           0.
     67,   100.201218,   135.874969,           0.
     68,   96.2159424,   135.874969,           0.
     69,   92.2306671,   135.874969,           0.
     70,   88.2453918,   135.874969,           0.
     71,   84.2601166,   135.874969,           0.
     72,   80.2748413,   135.874969,           0.
     73,    76.289566,   135.874969,           0.
     74,   72.3042908,   135.874969,           0.
     75,   68.3190155,   135.874969,           0.
     76,   64.3337402,   135.874969,           0.
     77,   60.3484612,   135.874969,           0.
     78,   56.3631859,   135.874969,           0.
     79,   52.3779106,   135.874969,           0.
     80,   44.3599167,   135.874969,           0.
     81,   40.3271942,   135.874969,           0.
     82,   36.2944756,   135.874969,           0.
     83,   32.2617569,   135.874969,           0.
     84,   28.2290363,   135.874969,           0.
     85,   24.1963177,   135.874969,           0.
     86,   20.1635971,   135.874969,           0.
     87,   16.1308784,   135.874969,           0.
     88,   12.0981588,   135.874969,           0.
     89,   8.06543922,   135.874969,           0.
     90,   4.03271961,   135.874969,           0.
     91,           0.,   131.911957,           0.
     92,           0.,   127.948929,           0.
     93,           0.,   123.985909,           0.
     94,           0.,   120.022888,           0.
     95,           0.,   116.059868,           0.
     96,           0.,   112.096848,           0.
     97,           0.,   108.133827,           0.
     98,           0.,   104.170815,           0.
     99,           0.,   100.207794,           0.
    100,           0.,   96.2447739,           0.
    101,           0.,   92.2817535,           0.
    102,           0.,   88.3187332,           0.
    103,           0.,   84.3557129,           0.
    104,           0.,   80.3926926,           0.
    105,           0.,   76.4296722,           0.
    106,           0.,   72.4666519,           0.
    107,           0.,   68.5036316,           0.
    108,           0.,   64.5406113,           0.
    109,           0.,   60.5775909,           0.
    110,   3.73896408,   56.6145706,           0.
    111,   7.47792816,   56.6145706,           0.
    112,   11.2168922,   56.6145706,           0.
    113,   14.9558563,   56.6145706,           0.
    114,   18.6948204,   56.6145706,           0.
    115,   22.4337845,   56.6145706,           0.
    116,   26.1727486,   56.6145706,           0.
    117,   29.9117126,   56.6145706,           0.
    118,   33.6506767,   56.6145706,           0.
    119,   38.2271919,   60.8252335,           0.
    120,   40.6123428,   64.3948669,           0.
    121,   44.1819725,    66.780014,           0.
    122,   48.3926353,   41.8106117,           0.
    123,   48.3926353,   38.0096474,           0.
    124,   48.3926353,    34.208683,           0.
    125,   48.3926353,   30.4077187,           0.
    126,   48.3926353,   26.6067524,           0.
    127,   48.3926353,    22.805788,           0.
    128,   48.3926353,   19.0048237,           0.
    129,   48.3926353,   15.2038593,           0.
    130,   48.3926353,    11.402894,           0.
    131,   48.3926353,   7.60192966,           0.
    132,   48.3926353,   3.80096483,           0.
    133,   52.3779106,           0.,           0.
    134,   56.3631859,           0.,           0.
    135,   60.3484612,           0.,           0.
    136,   64.3337402,           0.,           0.
    137,   68.3190155,           0.,           0.
    138,   72.3042908,           0.,           0.
    139,    76.289566,           0.,           0.
    140,   80.2748413,           0.,           0.
    141,   84.2601166,           0.,           0.
    142,   88.2453918,           0.,           0.
    143,   92.2306671,           0.,           0.
    144,   96.2159424,           0.,           0.
    145,   100.201218,           0.,           0.
    146,   104.186493,           0.,           0.
    147,   108.171768,           0.,           0.
    148,   112.157051,           0.,           0.
    149,   116.142326,   4.04389811,           0.
    150,   116.142326,   8.08779621,           0.
    151,   116.142326,   12.1316938,           0.
    152,   116.142326,   16.1755924,           0.
    153,   116.142326,   20.2194901,           0.
    154,   116.142326,   24.2633877,           0.
    155,   116.142326,   28.3072853,           0.
    156,   116.142326,   32.3511848,           0.
    157,   116.142326,   36.3950806,           0.
    158,   116.142326,   40.4389801,           0.
    159,   116.142326,   44.4828758,           0.
    160,   116.142326,   48.5267754,           0.
    161,   116.142326,   52.5706749,           0.
    162,    58.558075,   52.4039078,           0.
    163,   56.1729279,   48.8342781,           0.
    164,   52.6032982,    46.449131,           0.
    165,   44.1819725,    46.449131,           0.
    166,   40.6123428,   48.8342781,           0.
    167,   38.2271919,   52.4039078,           0.
    168,           0.,   52.5706749,           0.
    169,           0.,   48.5267754,           0.
    170,           0.,   44.4828758,           0.
    171,           0.,   40.4389801,           0.
    172,           0.,   36.3950806,           0.
    173,           0.,   32.3511848,           0.
    174,           0.,   28.3072853,           0.
    175,           0.,   24.2633877,           0.
    176,           0.,   20.2194901,           0.
    177,           0.,   16.1755924,           0.
    178,           0.,   12.1316938,           0.
    179,           0.,   8.08779621,           0.
    180,           0.,   4.04389811,           0.
    181,   4.03271961,           0.,           0.
    182,   8.06543922,           0.,           0.
    183,   12.0981588,           0.,           0.
    184,   16.1308784,           0.,           0.
    185,   20.1635971,           0.,           0.
    186,   24.1963177,           0.,           0.
    187,   28.2290363,           0.,           0.
    188,   32.2617569,           0.,           0.
    189,   36.2944756,           0.,           0.
    190,   40.3271942,           0.,           0.
    191,   44.3599167,           0.,           0.
    192,   52.0223465,   130.520813,           0.
    193,   59.8700409,   65.1543732,           0.
    194,   61.8017731,   60.5717583,           0.
    195,   51.8682289,    113.79129,           0.
    196,   51.8682632,   109.776291,           0.
    197,   51.8682289,    105.76133,           0.
    198,   51.8682785,   101.746284,           0.
    199,   51.8690758,   97.7313614,           0.
    200,   51.8720474,   93.7168503,           0.
    201,   51.8777122,   89.7024536,           0.
    202,   51.8870354,   85.6890793,           0.
    203,    51.900238,   81.6797867,           0.
    204,   51.9124107,    77.707756,           0.
    205,   56.0714569,   68.1987305,           0.
    206,   51.9946976,   73.8418503,           0.
    207,     52.18993,   70.0629272,           0.
    208,   81.6911392,   60.1293373,           0.
    209,   77.6381912,   60.1368904,           0.
    210,   73.5889053,   60.1451607,           0.
    211,   69.5647659,   60.1526337,           0.
    212,    65.667305,   60.2674408,           0.
    213,   112.569801,   122.004944,           0.
    214,   112.634674,   118.042458,           0.
    215,   112.696342,   114.078545,           0.
    216,   112.706596,   110.115372,           0.
    217,   112.708267,   106.152328,           0.
    218,   112.708557,   102.189301,           0.
    219,   112.708405,    98.226326,           0.
    220,   112.707909,   94.2633972,           0.
    221,    112.70697,   90.3004837,           0.
    222,   112.705734,   86.3375168,           0.
    223,   112.704178,   82.3745651,           0.
    224,   112.702492,   78.4115982,           0.
    225,   112.698273,   74.4490967,           0.
    226,   112.661064,   70.4685211,           0.
    227,   112.538132,   66.3491211,           0.
    228,   112.505684,    62.016613,           0.
    229,   58.3813896,   132.428116,           0.
    230,   62.3337784,    132.42746,           0.
    231,   66.3255081,   132.422806,           0.
    232,   70.3116074,   132.421692,           0.
    233,   74.2969818,   132.421555,           0.
    234,   78.2823181,   132.421921,           0.
    235,   82.2676544,   132.422607,           0.
    236,   86.2529602,   132.423431,           0.
    237,   90.2382202,    132.42424,           0.
    238,   94.2234573,   132.424942,           0.
    239,   98.2086868,   132.425476,           0.
    240,   102.216942,   132.393921,           0.
    241,   106.380447,   132.283447,           0.
    242,    110.74025,   132.276688,           0.
    243,    112.54995,    125.93718,           0.
    244,   109.263519,   84.3574142,           0.
    245,   109.140717,   116.042587,           0.
    246,   109.273163,   100.208008,           0.
    247,    109.12606,   68.5012665,           0.
    248,   109.251762,   76.4324875,           0.
    249,   109.257759,   80.3950729,           0.
    250,   108.898186,    120.01181,           0.
    251,    109.24894,   112.093994,           0.
    252,   109.268944,   108.133369,           0.
    253,   109.272346,   104.170815,           0.
    254,   109.270096,   92.2827606,           0.
    255,   109.271698,     96.24543,           0.
    256,    109.26651,   88.3203201,           0.
    257,   109.213768,    72.478653,           0.
    258,   112.881622,   129.281082,           0.
    259,   80.2756195,   128.969009,           0.
    260,   64.2773209,   128.962128,           0.
    261,   68.3097153,   128.965515,           0.
    262,   72.3029709,   128.966385,           0.
    263,   76.2898407,   128.967346,           0.
    264,   84.2611313,   128.970917,           0.
    265,   88.2463379,   128.972977,           0.
    266,   92.2311783,   128.974747,           0.
    267,   96.2146454,   128.975311,           0.
    268,   100.194206,    128.95253,           0.
    269,   104.227722,   128.866776,           0.
    270,   55.0163918,   132.662598,           0.
    271,    60.276226,   128.948929,           0.
    272,    55.342289,    111.78331,           0.
    273,   55.4375839,   75.9645462,           0.
    274,   55.3488197,    95.726799,           0.
    275,   55.3595428,   91.7154465,           0.
    276,   55.3776627,   87.7054367,           0.
    277,   51.8846054,   117.808327,           0.
    278,   55.4435425,   79.7804565,           0.
    279,   51.9139099,   121.888451,           0.
    280,   55.4074478,   83.7186508,           0.
    281,   55.3423538,   107.768517,           0.
    282,   55.3425255,   103.753891,           0.
    283,   55.3441582,   99.7399445,           0.
    284,   85.7440338,   60.1246147,           0.
    285,   93.8493958,   60.1195221,           0.
    286,   89.7966461,   60.1211281,           0.
    287,   79.6747665,   63.6516685,           0.
    288,   75.6340866,   63.6677475,           0.
    289,   67.7733154,   63.7575569,           0.
    290,    97.926033,   60.1842461,           0.
    291,   102.019516,   60.2725067,           0.
    292,   106.051262,   60.2520103,           0.
    293,   109.448898,   59.8988304,           0.
    294,   71.6570358,   63.6835098,           0.
    295,     108.5466,   64.0237122,           0.
    296,   108.748558,   128.337204,           0.
    297,   52.0120468,   126.105545,           0.
    298,   55.9668922,   128.630081,           0.
    299,   105.834557,   98.2275925,           0.
    300,   105.835266,   102.189835,           0.
    301,   105.833916,   106.152184,           0.
    302,    105.82328,   110.113556,           0.
    303,   105.693245,   114.049156,           0.
    304,    105.46862,   117.930313,           0.
    305,   105.831383,   94.2658234,           0.
    306,   105.826355,   90.3041458,           0.
    307,   105.820099,   86.3421249,           0.
    308,   105.812592,   82.3798981,           0.
    309,    105.77507,   74.4696808,           0.
    310,   105.798607,   78.4204941,           0.
    311,   105.760109,   70.5191345,           0.
    312,   108.854683,   124.019951,           0.
    313,   105.944878,   67.0130081,           0.
    314,   74.2968826,   125.512054,           0.
    315,   70.3044586,   125.515465,           0.
    316,   66.2344437,    125.53669,           0.
    317,   102.209023,    125.56015,           0.
    318,   62.1835594,    125.59137,           0.
    319,   98.2214966,   125.547432,           0.
    320,   94.2264862,    125.52993,           0.
    321,   78.2838669,   125.513832,           0.
    322,   90.2406693,   125.524574,           0.
    323,   86.2556381,   125.520584,           0.
    324,   82.2701797,   125.516869,           0.
    325,   55.3716583,   115.799873,           0.
    326,    58.822113,   97.7376175,           0.
    327,   58.8169136,   101.748482,           0.
    328,   58.8151169,   105.761017,           0.
    329,   58.8144188,   109.775337,           0.
    330,   58.8353462,   93.7307816,           0.
    331,   58.8956032,   85.7313995,           0.
    332,   58.8599091,   89.7289581,           0.
    333,   58.8768501,   77.7658386,           0.
    334,   58.9221916,   81.7516251,           0.
    335,   55.5074883,   119.886642,           0.
    336,   105.759407,   125.773178,           0.
    337,   87.7736893,   63.6286049,           0.
    338,   95.8695602,   63.7378769,           0.
    339,   91.8205109,   63.6492767,           0.
    340,   104.120499,   63.9249496,           0.
    341,    99.974884,   63.9209175,           0.
    342,   69.7741928,   67.2056198,           0.
    343,   73.6798706,   67.2031326,           0.
    344,   77.6851654,   67.1794205,           0.
    345,   83.7248764,   63.6379585,           0.
    346,    55.708477,   72.1728516,           0.
    347,   63.9939346,   64.0780258,           0.
    348,   55.5948448,   124.061501,           0.
    349,   59.9463158,   70.4324951,           0.
    350,   62.8191681,    67.524437,           0.
    351,   102.156181,   67.9718857,           0.
    352,   104.803764,   122.122559,           0.
    353,   59.5979576,   122.095688,           0.
    354,   102.391586,   96.2492065,           0.
    355,   102.245789,   72.3629684,           0.
    356,   102.384819,   92.2891464,           0.
    357,    102.36541,   84.3671112,           0.
    358,   102.332565,   80.3989258,           0.
    359,   102.375122,   88.3289337,           0.
    360,   102.166916,   115.965813,           0.
    361,   102.303337,   112.075348,           0.
    362,    102.37233,    108.12973,           0.
    363,   102.390541,   104.170815,           0.
    364,   102.393257,   100.210037,           0.
    365,   102.190857,    76.375061,           0.
    366,   92.2186432,   122.087463,           0.
    367,   64.0648727,   122.125366,           0.
    368,   96.2630386,   122.052147,           0.
    369,   100.360046,   122.155014,           0.
    370,   88.2456665,   122.075302,           0.
    371,   84.2647018,    122.06707,           0.
    372,   68.1764984,   121.995758,           0.
    373,   72.2665253,   122.033585,           0.
    374,   80.2791901,   122.060989,           0.
    375,   76.2838669,   122.051552,           0.
    376,    58.723896,   125.865517,           0.
    377,   62.4186058,   83.7622528,           0.
    378,   62.3052063,   95.7449875,           0.
    379,   62.3310471,   91.7489166,           0.
    380,   58.8473625,   113.807983,           0.
    381,   62.3135757,   107.754532,           0.
    382,   62.2916298,   103.753502,           0.
    383,   62.2936974,   99.7482986,           0.
    384,   58.9711189,    117.78331,           0.
    385,   62.3703957,   87.7571869,           0.
    386,   62.4301682,   79.5789871,           0.
    387,   85.7585068,   67.1385651,           0.
    388,   89.8003922,   67.1390228,           0.
    389,   97.7975845,    67.348938,           0.
    390,   93.8068848,   67.2057495,           0.
    391,   71.7025528,   70.8106766,           0.
    392,   75.7061768,   70.7257843,           0.
    393,   81.7187271,   67.1564789,           0.
    394,   98.9426956,   94.2745209,           0.
    395,   98.9490356,    98.232872,           0.
    396,   98.9306335,   90.3167725,           0.
    397,   98.8825989,   82.4050369,           0.
    398,   98.2390137,    74.247139,           0.
    399,   98.9127808,   86.3591461,           0.
    400,   98.9502869,   102.192276,           0.
    401,   98.8724976,   114.066452,           0.
    402,   98.7900238,   78.5124054,           0.
    403,   98.9093933,   110.157204,           0.
    404,   98.9317703,   106.178551,           0.
    405,   102.259293,   119.289719,           0.
    406,   65.9727249,   118.124084,           0.
    407,   94.2801895,   118.654396,           0.
    408,   90.3686447,   118.600845,           0.
    409,   98.5775528,   118.268745,           0.
    410,   86.3438492,   118.578758,           0.
    411,   70.3295898,   118.540573,           0.
    412,    74.309906,   118.578239,           0.
    413,   82.3004608,   118.597412,           0.
    414,   78.2972031,   118.594803,           0.
    415,   65.7957687,   93.7678909,           0.
    416,   65.8874435,   85.7812958,           0.
    417,   65.7725296,   97.7586288,           0.
    418,   65.8362122,    89.782608,           0.
    419,    65.900795,   81.6350479,           0.
    420,   62.3607101,   111.768532,           0.
    421,   65.7615967,   101.756638,           0.
    422,   65.8193283,   105.728714,           0.
    423,   62.3757477,   115.739014,           0.
    424,   83.7559509,   70.6524429,           0.
    425,     73.74646,   74.3352203,           0.
    426,   87.7948456,   70.6595459,           0.
    427,   91.8041153,   70.6975861,           0.
    428,   95.7897415,   70.7080307,           0.
    429,   62.2736511,   74.8442307,           0.
    430,   79.7282715,   70.6825638,           0.
    431,   67.8584747,   70.7623367,           0.
    432,   58.4485741,   74.2359924,           0.
    433,   99.2456589,   70.5277939,           0.
    434,    95.498642,   96.2598495,           0.
    435,   95.4855728,   92.3054276,           0.
    436,   95.5044785,   100.216095,           0.
    437,    95.467392,   88.3497391,           0.
    438,   95.6513367,   77.1235123,           0.
    439,   95.4569397,   84.4172363,           0.
    440,   95.4543304,   80.5128326,           0.
    441,   95.4663391,   104.219315,           0.
    442,   95.4976349,   112.380562,           0.
    443,   95.3289185,   108.358994,           0.
    444,   95.9712906,   115.710075,           0.
    445,   92.6621017,   115.211388,           0.
    446,   68.9098053,   115.453819,           0.
    447,   88.5855942,   114.992279,           0.
    448,   69.2567749,   95.7836304,           0.
    449,   84.4009323,   115.078651,           0.
    450,   69.3452682,    87.798027,           0.
    451,   72.3581848,    115.22451,           0.
    452,   69.2949448,   91.8008194,           0.
    453,   80.3295059,   115.129128,           0.
    454,   76.3284378,   115.181328,           0.
    455,   69.4344711,   83.6515579,           0.
    456,   69.2074509,   99.7670212,           0.
    457,   62.1964836,   119.173492,           0.
    458,    65.960083,    109.73381,           0.
    459,   69.2050629,    103.71962,           0.
    460,   65.9189301,   113.767807,           0.
    461,    81.767746,   74.1713257,           0.
    462,   65.8746109,   77.3634567,           0.
    463,   85.7709274,   74.1849136,           0.
    464,    89.802597,   74.2638626,           0.
    465,   77.7270966,   74.2306976,           0.
    466,   69.5038986,   74.8680267,           0.
    467,    92.040123,   94.2933807,           0.
    468,   92.0519485,   98.2445908,           0.
    469,   92.0199203,    90.342514,           0.
    470,   91.9883957,   102.285431,           0.
    471,   92.0402679,    86.377037,           0.
    472,   91.9484329,   78.1625671,           0.
    473,   92.1318436,   82.4387283,           0.
    474,   91.2968369,   110.975433,           0.
    475,   91.8445129,   106.410797,           0.
    476,   72.8729858,    85.760376,           0.
    477,   72.7486801,   93.8151169,           0.
    478,   72.8022308,   89.7846375,           0.
    479,   72.7542953,   97.8704529,           0.
    480,   86.6653366,   111.346397,           0.
    481,   69.9064102,   111.806839,           0.
    482,   82.4841232,   111.434227,           0.
    483,   74.2281723,   111.791214,           0.
    484,   78.2969208,   111.578445,           0.
    485,   79.7330933,   77.6604767,           0.
    486,    72.591301,   101.869461,           0.
    487,   69.3095322,    107.60054,           0.
    488,   69.3800888,   79.4122772,           0.
    489,   83.6903458,   77.7468491,           0.
    490,   93.8725357,   74.2004471,           0.
    491,   87.6521912,   77.8244934,           0.
    492,   75.7631607,   77.7140198,           0.
    493,   65.9487228,    73.707489,           0.
    494,   72.3514099,   77.5402908,           0.
    495,   73.3711472,   81.3402252,           0.
    496,   64.1498184,   70.7548141,           0.
    497,   88.7602463,    96.298439,           0.
    498,   88.5573273,   92.4802704,           0.
    499,   76.2410507,   87.6780167,           0.
    500,   76.2979736,   91.6666412,           0.
    501,   88.6277084,   100.339851,           0.
    502,   88.4564209,   88.4610214,           0.
    503,   76.2648926,    95.688942,           0.
    504,     88.50354,   104.490265,           0.
    505,   88.7799454,   84.3527679,           0.
    506,   76.5956192,   100.120079,           0.
    507,   84.8445511,   107.222023,           0.
    508,   80.3944702,   107.799469,           0.
    509,   75.9707718,   107.691353,           0.
    510,   77.6914139,   81.1646805,           0.
    511,   81.5264511,   81.2945633,           0.
    512,   72.4634476,   105.629471,           0.
    513,   85.5813141,   81.8248215,           0.
    514,     89.21875,   80.9206772,           0.
    515,   88.6309586,   108.088982,           0.
    516,   72.3756714,   108.903885,           0.
    517,   79.7425995,   89.3506927,           0.
    518,   79.7185745,   93.4218369,           0.
    519,   85.8749695,   94.7419128,           0.
    520,   85.4071274,   98.3293533,           0.
    521,   84.0890121,   90.9623871,           0.
    522,   79.3124771,   97.0587463,           0.
    523,   85.1340103,   102.544304,           0.
    524,   85.3620453,   86.2121735,           0.
    525,   79.4939194,   85.0515594,           0.
    526,   82.0723648,   104.399109,           0.
    527,   78.6054077,   104.041939,           0.
    528,   75.9341049,   84.1989746,           0.
    529,   81.3958664,   100.321251,           0.
    530,   82.8663101,   84.3240356,           0.
    531,   82.6330032,   95.8059158,           0.
    532,   75.2453079,   103.870461,           0.
    533,   66.0614853,   67.3471298,           0.
    534,   82.3107758,   87.1801682,           0.
    535,   16.6628857,   60.0409813,           0.
    536,   20.5242901,   59.9485512,           0.
    537,   24.2884693,   59.9560585,           0.
    538,   27.9885864,    59.962635,           0.
    539,   31.5790253,   59.9825706,           0.
    540,   35.0687904,   60.2777939,           0.
    541,   3.82263279,   62.6089096,           0.
    542,   3.58680272,   66.5474701,           0.
    543,   3.47187757,   70.4901886,           0.
    544,   3.44321108,   74.4477158,           0.
    545,   3.44057155,    78.411087,           0.
    546,   3.43914509,   82.3748245,           0.
    547,   3.43712616,   86.3377533,           0.
    548,   3.43568754,   90.3005142,           0.
    549,   3.43480611,   94.2633514,           0.
    550,   3.43455768,   98.2263107,           0.
    551,   3.43465543,   102.189255,           0.
    552,   3.43498683,   106.152168,           0.
    553,   3.43599343,   110.115036,           0.
    554,   3.43737006,   114.077995,           0.
    555,   3.44383311,   118.047607,           0.
    556,   3.51234436,   122.102737,           0.
    557,   3.65623951,   126.276749,           0.
    558,     3.681849,   130.592255,           0.
    559,   44.5099487,   70.0176315,           0.
    560,   44.9143562,   89.7014847,           0.
    561,   44.9157295,    113.79155,           0.
    562,   44.9164925,   109.776405,           0.
    563,    44.917347,   97.7311172,           0.
    564,   44.8966179,    77.695282,           0.
    565,    44.935627,   121.804832,           0.
    566,   44.9185715,   117.803864,           0.
    567,   44.9170609,   105.761307,           0.
    568,   44.9175072,   101.746208,           0.
    569,   44.9166527,   93.7162552,           0.
    570,   44.9087448,   85.6869736,           0.
    571,   44.9017029,   81.6840515,           0.
    572,    44.794548,   73.8440399,           0.
    573,    22.180912,   132.386673,           0.
    574,   26.2131901,   132.386215,           0.
    575,   30.2528267,   132.381317,           0.
    576,   34.3876686,   132.317978,           0.
    577,   38.6451607,   132.191544,           0.
    578,   43.0361404,   132.188522,           0.
    579,    40.058403,   68.2955551,           0.
    580,   36.5242577,   64.5716476,           0.
    581,   33.1165733,   62.9851608,           0.
    582,   18.4636707,   63.4094315,           0.
    583,   8.18920612,   60.3297462,           0.
    584,   12.6609316,   60.0782814,           0.
    585,   26.1556797,   63.3534355,           0.
    586,   22.3159332,   63.3561096,           0.
    587,   29.9216747,   63.3079529,           0.
    588,   3.87145519,   58.8933258,           0.
    589,   6.87991381,   84.3583221,           0.
    590,   6.87136698,   96.2449722,           0.
    591,   6.87284374,   92.2824402,           0.
    592,   6.87617302,   88.3206406,           0.
    593,   6.88324213,   80.3935547,           0.
    594,   7.07394314,   124.238121,           0.
    595,   6.88679647,   116.067024,           0.
    596,   6.87358141,   108.132706,           0.
    597,   6.87209511,   104.170212,           0.
    598,   7.29516459,   64.5715332,           0.
    599,   6.89822578,   72.4612656,           0.
    600,   7.01927185,   68.5022278,           0.
    601,   6.87852812,   112.096703,           0.
    602,   6.94501638,   120.132111,           0.
    603,     6.871696,   100.207657,           0.
    604,   6.88515043,   76.4257736,           0.
    605,   44.9469299,   125.768257,           0.
    606,   41.4407959,   111.783272,           0.
    607,   41.4430351,   95.7241516,           0.
    608,    41.459938,   75.9872742,           0.
    609,   41.4387627,   91.7111435,           0.
    610,   45.1925812,   129.167496,           0.
    611,   41.4394646,    115.79776,           0.
    612,   41.4425583,   107.768372,           0.
    613,   41.4436684,   103.753494,           0.
    614,   41.4440994,   99.7386398,           0.
    615,   41.4281044,   87.6990509,           0.
    616,   41.4118996,   83.6960526,           0.
    617,   41.4206009,   79.7733994,           0.
    618,   41.4603539,   119.813004,           0.
    619,    18.147583,   132.390503,           0.
    620,   24.1995831,   128.896606,           0.
    621,   36.5816422,   128.592072,           0.
    622,   14.1218557,     132.4216,           0.
    623,   10.1286211,   132.450409,           0.
    624,   6.71632385,   132.709854,           0.
    625,   28.2498264,   128.865768,           0.
    626,   32.3936462,    128.66568,           0.
    627,   32.5372009,   66.7965012,           0.
    628,   7.65875006,   128.742188,           0.
    629,   41.1772804,   128.162476,           0.
    630,   10.5796824,   63.0783272,           0.
    631,   28.1660824,   66.8258133,           0.
    632,    24.134697,   66.7978516,           0.
    633,   20.2091465,   66.7698593,           0.
    634,   14.2007875,   63.9993553,           0.
    635,   10.3114052,   102.188385,           0.
    636,   10.3115511,   98.2264709,           0.
    637,   10.3128071,   94.2647095,           0.
    638,   10.3166838,   90.3040085,           0.
    639,   10.3138208,   106.149864,           0.
    640,   10.3539057,   118.169868,           0.
    641,   10.3186989,   110.111771,           0.
    642,   10.3233461,   86.3434296,           0.
    643,   10.3297873,   114.106697,           0.
    644,   10.3930225,   122.283363,           0.
    645,   10.3287096,    78.405365,           0.
    646,   10.3294897,   82.3779602,           0.
    647,    10.327837,   74.4260788,           0.
    648,   10.5333967,   66.4958572,           0.
    649,   10.3805208,   70.4425812,           0.
    650,   37.9718704,   97.7323608,           0.
    651,   37.9669724,   93.7216873,           0.
    652,   37.9725761,    101.74604,           0.
    653,   37.9714966,   105.760193,           0.
    654,   37.9689445,   109.774323,           0.
    655,   37.9536438,   117.878288,           0.
    656,   37.9428635,   113.819168,           0.
    657,   37.9531631,   89.7142944,           0.
    658,   37.9289551,   85.7134933,           0.
    659,   37.9216118,   81.7574768,           0.
    660,   38.1261215,   77.8371201,           0.
    661,   41.4882011,   123.807343,           0.
    662,   20.1776505,   128.898376,           0.
    663,   12.0417252,   128.891296,           0.
    664,   34.5303764,    124.56134,           0.
    665,   30.1818829,   125.235161,           0.
    666,   26.1880741,    125.37751,           0.
    667,   16.1092224,   128.810089,           0.
    668,   41.1318932,   72.3831863,           0.
    669,   37.4529381,   71.6483994,           0.
    670,   22.0004101,   70.1302643,           0.
    671,   26.0295143,   70.2821655,           0.
    672,   16.8603725,   66.5688858,           0.
    673,   13.7778177,    84.366539,           0.
    674,   13.8963404,   68.3682175,           0.
    675,   13.7678623,   88.3288879,           0.
    676,   13.7562094,   104.167236,           0.
    677,   13.7615175,   108.127068,           0.
    678,   13.8403969,   120.348656,           0.
    679,   13.7603807,   92.2877197,           0.
    680,   13.7565413,   96.2471542,           0.
    681,    13.785718,   112.115875,           0.
    682,   13.7557983,   100.207184,           0.
    683,   13.9043989,   116.222908,           0.
    684,   13.7823801,   80.3894882,           0.
    685,   13.8726301,   72.4160233,           0.
    686,   10.2218351,   125.806389,           0.
    687,   13.7911444,   76.4307861,           0.
    688,   34.4578514,   79.6296997,           0.
    689,   34.4850311,   91.7294617,           0.
    690,   34.4579544,   87.7358856,           0.
    691,    34.500206,   107.765106,           0.
    692,    34.435833,   111.816452,           0.
    693,   34.4979439,     95.73246,           0.
    694,   34.5027809,   99.7407303,           0.
    695,   34.5030823,   103.752312,           0.
    696,   34.4382172,    83.730217,           0.
    697,   34.3329849,    115.95694,           0.
    698,   38.0434723,   121.931572,           0.
    699,   22.2013645,   125.409988,           0.
    700,    38.364193,   125.410957,           0.
    701,   31.5379181,   122.014893,           0.
    702,    28.152071,   122.006599,           0.
    703,   13.9444389,   124.817505,           0.
    704,   18.2405777,   125.351784,           0.
    705,   30.0247555,   70.4101105,           0.
    706,   17.7534771,   70.2595978,           0.
    707,   23.6907349,   73.5579987,           0.
    708,   17.2275372,   86.3570251,           0.
    709,   17.2065182,   106.143127,           0.
    710,   17.2306938,   110.101784,           0.
    711,   17.2150116,   90.3150558,           0.
    712,   17.2071514,   94.2711258,           0.
    713,    17.203413,   102.185608,           0.
    714,   17.2042236,   98.2281952,           0.
    715,   17.8917351,   118.319885,           0.
    716,   17.3081284,   113.999832,           0.
    717,   17.2641201,   82.3638916,           0.
    718,   27.7833042,   73.8468246,           0.
    719,   30.8986111,   81.8741837,           0.
    720,   17.2688904,   78.3822937,           0.
    721,   31.0034142,   89.8185043,           0.
    722,   17.2754211,   74.4602356,           0.
    723,   30.9750538,   85.8597031,           0.
    724,   31.0245533,   93.8215637,           0.
    725,   30.9664898,   109.804825,           0.
    726,   34.4652138,   120.100113,           0.
    727,   31.0242901,   105.808029,           0.
    728,    30.740387,   113.899338,           0.
    729,   31.0327702,   97.8241043,           0.
    730,   31.0334415,   101.831383,           0.
    731,   24.3305035,   122.011696,           0.
    732,   16.8295689,   122.162331,           0.
    733,   30.3603306,   118.430717,           0.
    734,   20.3800507,   121.889229,           0.
    735,   34.9085312,   75.1113205,           0.
    736,   33.7486343,   70.9995651,           0.
    737,   25.0507908,   77.7333145,           0.
    738,   20.6708126,   88.2995834,           0.
    739,   20.7362022,   84.2743149,           0.
    740,   20.6437378,    108.06147,           0.
    741,   20.6539669,    104.12278,           0.
    742,    20.660183,   92.2447891,           0.
    743,    20.656414,   96.1994019,           0.
    744,   20.6559048,   100.153511,           0.
    745,   20.5310364,   111.877502,           0.
    746,    20.426075,   115.233284,           0.
    747,    20.288784,   72.9346848,           0.
    748,   27.5470257,   88.0178223,           0.
    749,   27.5752201,   84.1185074,           0.
    750,   27.5596085,   91.9894028,           0.
    751,   20.8867741,   80.1843491,           0.
    752,   27.5669041,   95.9730682,           0.
    753,   27.5207996,   107.876427,           0.
    754,   27.2864227,   111.870979,           0.
    755,   27.5610371,    103.93557,           0.
    756,    27.568594,   99.9581985,           0.
    757,   26.4997864,   119.268661,           0.
    758,   30.3163338,   77.4896088,           0.
    759,   20.7435665,   76.2088089,           0.
    760,   31.3563118,   73.5714874,           0.
    761,   36.0642853,   68.4623337,           0.
    762,   26.8810654,   115.906487,           0.
    763,   23.6532707,   113.818192,           0.
    764,   24.1524162,   86.1637726,           0.
    765,   24.1162815,   90.1436081,           0.
    766,   24.0827599,   106.003883,           0.
    767,   23.9530048,   109.918076,           0.
    768,   24.1051865,   102.045517,           0.
    769,   24.1113758,   94.1082382,           0.
    770,   24.1107292,   98.0729904,           0.
    771,    24.339365,   82.1826553,           0.
    772,   27.6360645,   80.6796494,           0.
    773,   22.8660698,   118.063919,           0.
    774,   38.6158867,   74.5934601,           0.
    775,   56.4069519,   44.7636147,           0.
    776,   60.0028534,    48.305233,           0.
    777,   51.9425697,   5.19654799,           0.
    778,   51.8867188,   9.33212757,           0.
    779,   51.7500153,   13.2724495,           0.
    780,   51.7178421,   17.0988712,           0.
    781,   51.7155571,   20.9026432,           0.
    782,    51.723156,   24.7029686,           0.
    783,   51.7380333,   28.5035114,           0.
    784,   51.7534294,   32.3049011,           0.
    785,   51.7746124,   36.0725746,           0.
    786,   51.8189354,   39.7496223,           0.
    787,   90.2398148,   3.45740581,           0.
    788,   86.2538452,   3.45783854,           0.
    789,   82.2671967,   3.45691252,           0.
    790,   78.2810898,   3.45377207,           0.
    791,   74.2957001,    3.4489615,           0.
    792,   70.3104401,   3.44334197,           0.
    793,   66.3251266,   3.43730688,           0.
    794,   62.2954597,   3.46242309,           0.
    795,   58.3140526,    3.4430325,           0.
    796,   112.424217,   51.1871376,           0.
    797,   112.635834,   34.3728027,           0.
    798,   112.638031,   30.3289509,           0.
    799,    112.64006,   26.2848129,           0.
    800,   112.642113,   22.2409286,           0.
    801,   112.642273,   18.1968346,           0.
    802,   112.612541,   14.1279144,           0.
    803,    112.51664,   9.90895081,           0.
    804,   112.522064,   5.48893213,           0.
    805,   105.951553,     53.09375,           0.
    806,   101.940811,   53.1048431,           0.
    807,   97.8983002,    53.104805,           0.
    808,   93.8482513,   53.1032639,           0.
    809,   89.7963867,   53.1002007,           0.
    810,   85.7440338,    53.094799,           0.
    811,   81.6909637,   53.0875053,           0.
    812,   77.6373901,   53.0792732,           0.
    813,   73.5887909,   53.0679436,           0.
    814,   69.5778351,   53.0578117,           0.
    815,   65.6670074,   52.9349785,           0.
    816,   61.8598824,   52.6645088,           0.
    817,   52.1000137,   43.2890663,           0.
    818,   55.2285728,   34.2357903,           0.
    819,   55.1077156,   26.5900841,           0.
    820,   55.0799828,   22.7924519,           0.
    821,   55.0617447,   18.9982815,           0.
    822,   55.0864563,   15.1605902,           0.
    823,   55.2186241,    11.304184,           0.
    824,   55.1665192,   30.4015598,           0.
    825,   55.2314491,   38.0706482,           0.
    826,    94.225853,   3.45947909,           0.
    827,   102.202644,   3.63389397,           0.
    828,   76.2836304,   6.90436029,           0.
    829,   72.2975922,   6.89147902,           0.
    830,   68.3122482,   6.87656498,           0.
    831,   88.2486877,   6.91962814,           0.
    832,   84.2602844,   6.91878653,           0.
    833,   106.148895,     3.655725,           0.
    834,   98.2160339,   3.55145383,           0.
    835,   64.2270813,   6.95493507,           0.
    836,   60.1480446,   6.93355179,           0.
    837,   109.512924,   3.31972957,           0.
    838,   80.2708664,   6.91393471,           0.
    839,   112.617981,   38.4178047,           0.
    840,   109.061531,   12.0933428,           0.
    841,   109.143639,   20.2168713,           0.
    842,   112.562965,   42.5174103,           0.
    843,   109.128845,   32.3453255,           0.
    844,    112.45163,   46.7525787,           0.
    845,   109.136032,   28.3041382,           0.
    846,   109.140968,    24.260498,           0.
    847,   109.122887,   16.1713238,           0.
    848,   87.7754517,   49.5778465,           0.
    849,   104.026642,     49.57967,           0.
    850,   99.9761276,   49.5849152,           0.
    851,   95.8834686,   49.5906181,           0.
    852,   91.8269196,   49.5865974,           0.
    853,   79.6733475,   49.5439873,           0.
    854,   75.6325073,   49.5159988,           0.
    855,   67.7655411,   49.3640327,           0.
    856,   83.7261505,   49.5619621,           0.
    857,   71.6589279,   49.4591408,           0.
    858,   55.8203621,   7.03927612,           0.
    859,   108.547615,   7.50992012,           0.
    860,   54.8640594,    41.317009,           0.
    861,   58.4553375,   17.0567818,           0.
    862,   58.4670029,   13.2215137,           0.
    863,   58.4738617,    20.879652,           0.
    864,   58.7568665,   36.2643394,           0.
    865,   58.6608238,   32.3160515,           0.
    866,   58.5747147,   28.4677887,           0.
    867,    58.514534,   24.6634979,           0.
    868,   96.2056808,    7.0484581,           0.
    869,   100.188301,   7.29910517,           0.
    870,   104.208321,   7.37769508,           0.
    871,   86.2546082,   10.3857861,           0.
    872,   82.2618103,      10.3806,           0.
    873,   70.2883911,   10.3233252,           0.
    874,   74.2780838,   10.3490763,           0.
    875,   66.3070831,   10.3571873,           0.
    876,   62.0031776,   10.8514137,           0.
    877,   78.2683411,   10.3684969,           0.
    878,   92.2321548,   6.94230604,           0.
    879,   108.954842,   40.4510651,           0.
    880,   54.9636154,   3.13577127,           0.
    881,   105.646622,   22.2344112,           0.
    882,   105.639076,   26.2781754,           0.
    883,   105.666069,   18.1829243,           0.
    884,   105.718895,   14.1137428,           0.
    885,   105.628265,   30.3179073,           0.
    886,   109.079376,   36.3707504,           0.
    887,   108.417877,   49.2775345,           0.
    888,   93.8562012,   46.0762749,           0.
    889,   98.0000687,   46.0862885,           0.
    890,   102.129837,   46.1386757,           0.
    891,   89.8095627,   46.0646019,           0.
    892,   69.7409286,    45.848999,           0.
    893,   73.6679535,   45.9264069,           0.
    894,   77.6800995,   45.9783554,           0.
    895,   81.7195587,    46.015934,           0.
    896,   85.7652512,   46.0438614,           0.
    897,   105.957199,   10.5133944,           0.
    898,   64.0048523,   49.1495514,           0.
    899,   108.829185,    44.654438,           0.
    900,   62.7304344,    45.973629,           0.
    901,    61.923542,   18.8480682,           0.
    902,   61.9904366,   22.6631145,           0.
    903,   58.7805405,   40.7316322,           0.
    904,   61.8269882,   15.0179138,           0.
    905,   62.2420807,   34.1901588,           0.
    906,   62.0165672,   26.4881516,           0.
    907,   62.1049271,   30.3224144,           0.
    908,   58.3314438,   9.86998749,           0.
    909,   102.270065,   11.4380684,           0.
    910,   104.779671,    42.624073,           0.
    911,   94.1947098,   10.5020142,           0.
    912,   76.2355042,   13.8450308,           0.
    913,   98.0715179,   10.7333345,           0.
    914,   72.1252747,   13.9422131,           0.
    915,   64.7427368,   13.3253565,           0.
    916,   68.0585861,   13.7683153,           0.
    917,   80.2481384,   13.8501329,           0.
    918,   84.2480087,    13.861372,           0.
    919,   90.2366257,   10.4107323,           0.
    920,    102.10009,   28.2839947,           0.
    921,   105.422218,    38.323719,           0.
    922,   102.141258,   24.2470226,           0.
    923,   102.119354,    20.116827,           0.
    924,   102.249329,   15.9362698,           0.
    925,   91.8419418,   42.5564194,           0.
    926,   105.560913,   34.3426437,           0.
    927,   87.8039017,   42.5344162,           0.
    928,   96.0197144,   42.5073128,           0.
    929,   105.636642,   46.4548798,           0.
    930,   83.7652664,   42.5010529,           0.
    931,   100.236488,   42.6267281,           0.
    932,   71.7000885,   42.2691498,           0.
    933,   79.7263565,   42.4575882,           0.
    934,   75.7160187,   42.4047928,           0.
    935,   109.383659,   53.3575134,           0.
    936,   65.5393143,   20.5188026,           0.
    937,   65.5000992,   24.4554195,           0.
    938,   65.5442734,   28.3122406,           0.
    939,   65.6615829,     32.16716,           0.
    940,   102.157394,   39.7108459,           0.
    941,   92.1346359,   13.9940195,           0.
    942,   96.0005722,   14.0936527,           0.
    943,   69.4835892,   17.9065952,           0.
    944,   60.2718811,   44.4099007,           0.
    945,   74.0263367,   17.4103508,           0.
    946,    78.131546,   17.3439312,           0.
    947,   82.1593475,   17.3668652,           0.
    948,   88.1988297,   13.9246378,           0.
    949,   89.8405762,   39.0313416,           0.
    950,   98.5795517,   26.1812534,           0.
    951,   102.021568,   32.3070869,           0.
    952,   85.8124161,   38.9971962,           0.
    953,   98.6245956,   22.1960869,           0.
    954,   98.2509613,   17.8080006,           0.
    955,   93.8754501,   39.0281296,           0.
    956,   101.993279,   36.2632523,           0.
    957,    81.780838,   38.9506264,           0.
    958,   77.7499008,   38.9252548,           0.
    959,   98.2906876,   38.6190758,           0.
    960,   73.7537842,   38.8621864,           0.
    961,   67.6893539,    42.305687,           0.
    962,   65.8949585,   45.8195496,           0.
    963,   62.4811668,   38.1429939,           0.
    964,   69.1474609,   22.3391495,           0.
    965,   69.2207718,   26.3347301,           0.
    966,   69.1899719,   30.3199215,           0.
    967,   65.2624588,   16.5641747,           0.
    968,    89.974884,   17.6223011,           0.
    969,   93.9384232,   17.6561012,           0.
    970,   72.3423538,    20.538084,           0.
    971,   65.8131409,   36.0348969,           0.
    972,    75.946373,    20.760107,           0.
    973,   99.3684921,   14.0018654,           0.
    974,   86.0199509,   17.4902515,           0.
    975,   79.9697037,   20.8777142,           0.
    976,   87.8432236,   35.5097198,           0.
    977,    91.849205,   35.6193237,           0.
    978,   98.4225388,   30.1919231,           0.
    979,    83.832077,   35.4577446,           0.
    980,   79.6392899,   35.3178291,           0.
    981,    95.215744,   24.1125126,           0.
    982,   95.5674362,   20.6917629,           0.
    983,   95.3678055,   35.9425011,           0.
    984,   75.4813843,   35.4457245,           0.
    985,   69.4432755,   38.3882751,           0.
    986,    63.381279,    42.394268,           0.
    987,   73.3590012,    24.300478,           0.
    988,   72.9166794,   28.6683407,           0.
    989,    69.156311,   34.2094803,           0.
    990,   87.7238388,   21.1336136,           0.
    991,   89.9961395,   32.1249161,           0.
    992,   85.9373856,   31.9014778,           0.
    993,   83.9014435,   21.0075016,           0.
    994,   77.8301163,   24.2938824,           0.
    995,   94.4134598,   32.2021217,           0.
    996,   81.6573334,   31.6796074,           0.
    997,   95.0427399,    27.993227,           0.
    998,   76.8931656,   31.2667313,           0.
    999,   98.4182205,   34.2543259,           0.
   1000,    91.873497,   21.6568031,           0.
   1001,   65.7616425,   39.4532242,           0.
   1002,   89.0662231,   24.2962952,           0.
   1003,   76.1483154,    27.290514,           0.
   1004,    72.633255,   32.6244965,           0.
   1005,   91.8932571,   29.2828007,           0.
   1006,   88.3286438,   28.0576744,           0.
   1007,   83.8669662,   28.1230774,           0.
   1008,   81.8384399,    24.470438,           0.
   1009,    79.705719,   27.8540421,           0.
   1010,    72.093605,   35.9060326,           0.
   1011,   91.9033508,   25.8998852,           0.
   1012,     85.78759,   24.5147667,           0.
   1013,   44.7119408,   5.12227011,           0.
   1014,   36.6203156,   48.6223869,           0.
   1015,   35.0925293,    52.963871,           0.
   1016,   45.0710411,    17.105875,           0.
   1017,   45.0870972,   20.9044113,           0.
   1018,    45.087204,   24.7054996,           0.
   1019,   45.0773506,   28.5040607,           0.
   1020,   45.0576935,   32.3014526,           0.
   1021,   45.0679741,   36.0596466,           0.
   1022,   40.4136734,   44.8384361,           0.
   1023,   45.0711403,   39.7331505,           0.
   1024,   44.7541962,   43.2911949,           0.
   1025,   5.12671232,    53.087616,           0.
   1026,   9.17500401,    53.150135,           0.
   1027,   13.0526304,   53.2856178,           0.
   1028,   16.8171978,    53.311779,           0.
   1029,   20.5603371,   53.3067474,           0.
   1030,   24.3001308,   53.2929993,           0.
   1031,   27.9860554,   53.2744789,           0.
   1032,   31.5880356,   53.2783546,           0.
   1033,   3.60714531,    10.109951,           0.
   1034,   3.54932094,    14.138689,           0.
   1035,   3.50349593,   18.1948471,           0.
   1036,   3.49586821,   22.2407303,           0.
   1037,   3.49586535,   26.2849579,           0.
   1038,   3.49598026,   30.3296432,           0.
   1039,   3.49190569,   34.3747673,           0.
   1040,   3.48344874,   38.4191208,           0.
   1041,   3.47900414,   42.5442123,           0.
   1042,   3.42925692,    46.627449,           0.
   1043,   38.2623444,   3.40068841,           0.
   1044,   26.2102566,   3.47710967,           0.
   1045,   22.1785698,   3.47984576,           0.
   1046,   18.1473675,   3.48275948,           0.
   1047,   14.1021738,   3.51646447,           0.
   1048,   9.90759182,   3.63371515,           0.
   1049,     5.488976,   3.65418363,           0.
   1050,   18.6748867,   49.9612198,           0.
   1051,   14.9027796,   49.9416275,           0.
   1052,   22.4178257,   49.9291077,           0.
   1053,    26.144825,   49.9036255,           0.
   1054,   29.9171124,   49.9476089,           0.
   1055,   11.1201706,   49.8115845,           0.
   1056,    41.700695,   34.1606483,           0.
   1057,   41.7536087,   19.0112705,           0.
   1058,   41.7674789,   22.8017673,           0.
   1059,   41.7536812,   26.5951385,           0.
   1060,   44.9687881,   13.2687254,           0.
   1061,   41.7491989,   38.0125351,           0.
   1062,   41.7209396,   30.3786983,           0.
   1063,   30.2418423,   3.46628594,           0.
   1064,   41.6852036,   3.11231947,           0.
   1065,   24.1930408,    6.9467144,           0.
   1066,     20.15835,   6.95585918,           0.
   1067,   34.2745514,   3.44422603,           0.
   1068,    16.105526,   6.98822355,           0.
   1069,    11.996067,   7.08443689,           0.
   1070,   3.10197639,   50.0167198,           0.
   1071,   6.99375582,   40.5883408,           0.
   1072,   6.98445702,   32.3562202,           0.
   1073,   6.98769188,   28.3074894,           0.
   1074,   7.17283154,   16.1217308,           0.
   1075,   7.01664495,   20.2101517,           0.
   1076,   6.99066401,    24.260437,           0.
   1077,   3.31816483,   6.70711851,           0.
   1078,   7.26264763,   12.0286465,           0.
   1079,   6.97571945,   36.4290466,           0.
   1080,   6.88631296,   44.7803154,           0.
   1081,   6.93842554,   49.1674767,           0.
   1082,   44.7827301,   9.30542946,           0.
   1083,   7.42929029,     7.635427,           0.
   1084,    40.786953,   7.01774693,           0.
   1085,   13.0580702,   46.5108414,           0.
   1086,   28.2161865,   46.4570808,           0.
   1087,   24.3121204,   46.4841766,           0.
   1088,   20.5594521,   46.4899979,           0.
   1089,    16.848032,   46.4851913,           0.
   1090,   38.4245529,   24.6777744,           0.
   1091,   38.3804703,   20.9009056,           0.
   1092,   38.3799286,   28.4548988,           0.
   1093,   38.3270988,   32.2407646,           0.
   1094,   38.3021774,   36.2340584,           0.
   1095,   41.6400909,   15.1945009,           0.
   1096,   41.4410629,   11.3256693,           0.
   1097,   28.2377853,    6.9474659,           0.
   1098,   36.4179268,    6.9414444,           0.
   1099,    13.988946,   10.3985653,           0.
   1100,   18.0857506,   10.3884153,           0.
   1101,    22.162981,   10.3985949,           0.
   1102,   10.6774597,    18.206274,           0.
   1103,   10.5313263,   22.2145844,           0.
   1104,   11.3547888,     13.90833,           0.
   1105,   10.4735336,   30.3364048,           0.
   1106,   10.4827881,   26.2786942,           0.
   1107,   10.4539433,   38.4591522,           0.
   1108,   10.8279343,   42.8611183,           0.
   1109,   10.4708643,   34.4050751,           0.
   1110,    32.354023,   7.03884268,           0.
   1111,   10.4063473,   10.2110815,           0.
   1112,   38.1781311,   13.2839527,           0.
   1113,   15.0886097,   42.9422798,           0.
   1114,   26.2730656,   42.8699455,           0.
   1115,   18.8831711,   42.9781876,           0.
   1116,   22.5560493,   43.0570526,           0.
   1117,   34.9759407,   30.3069153,           0.
   1118,    34.910244,   34.2243195,           0.
   1119,   35.0396805,    26.526186,           0.
   1120,   35.0789757,   22.8292751,           0.
   1121,   38.2454681,   17.1029549,           0.
   1122,    9.7661829,   46.6262665,           0.
   1123,   38.2286263,   40.7639389,           0.
   1124,   32.6080742,   46.4312706,           0.
   1125,   26.2096119,   10.4025116,           0.
   1126,   34.5597191,   10.9163408,           0.
   1127,   15.8988781,   13.8179455,           0.
   1128,   20.0703907,   13.9056177,           0.
   1129,   14.0060501,    24.201889,           0.
   1130,   13.9186707,   36.4123077,           0.
   1131,   14.1009903,   20.1753674,           0.
   1132,    13.541501,   39.9222183,           0.
   1133,   13.9686584,   28.2992859,           0.
   1134,   30.2039375,   10.4462452,           0.
   1135,    13.986845,   32.3596077,           0.
   1136,   38.2767601,   9.89703083,           0.
   1137,   31.6053581,   32.3202972,           0.
   1138,   20.9791985,   40.1642265,           0.
   1139,   31.6373253,   28.4189987,           0.
   1140,   24.2215424,   39.5949554,           0.
   1141,   31.7454185,    24.541069,           0.
   1142,   34.8869896,   19.1345825,           0.
   1143,   34.7565727,   38.2358017,           0.
   1144,    24.201458,   13.9022923,           0.
   1145,   13.9715014,   16.7626324,           0.
   1146,   31.6937141,   13.5780573,           0.
   1147,   17.4959412,    26.252512,           0.
   1148,   17.6092644,    22.178091,           0.
   1149,   17.3955345,   39.0145721,           0.
   1150,    17.798645,   17.7903423,           0.
   1151,   28.2558079,   13.9160767,           0.
   1152,   30.1604443,   42.7439156,           0.
   1153,   17.6061401,   34.3613319,           0.
   1154,   17.4389267,   30.2183113,           0.
   1155,   34.7391014,   15.2582731,           0.
   1156,   28.2012405,   30.4405708,           0.
   1157,    28.241972,   26.3178177,           0.
   1158,   21.7013226,   36.2846031,           0.
   1159,   32.1878242,   21.1680756,           0.
   1160,   31.6119862,   36.2748222,           0.
   1161,   33.9687347,   42.0742111,           0.
   1162,    22.189312,   17.4388199,           0.
   1163,   21.3943939,   24.4048729,           0.
   1164,   28.2814865,   38.8436165,           0.
   1165,   30.9251595,   17.4986229,           0.
   1166,   26.3252869,   17.5900726,           0.
   1167,   20.3388424,   28.1895943,           0.
   1168,   21.0547562,   31.6906681,           0.
   1169,   24.8599567,   32.9164619,           0.
   1170,   24.1968422,   28.3330784,           0.
   1171,   28.3907471,   21.7814503,           0.
   1172,   28.3510914,   34.5260811,           0.
   1173,   31.7558441,   39.6344719,           0.
   1174,   42.0433655,   41.3278503,           0.
   1175,     20.60289,   20.5590115,           0.
   1176,   25.4830799,   36.4331436,           0.
   1177,   24.0315609,   21.0242977,           0.
   1178,   25.2511024,    24.372303,           0.
   1179,   33.1652107,   50.2486992,           0.
   1180,   36.3678856,   44.5460472,           0.
*Element, type=S3
  1, 457, 353, 384
  2, 270,  79, 192
  3, 276, 275, 201
  4, 192,  13,  14
  5, 194, 193,  31
  6, 194,   3,  32
  7, 277,  17, 195
  8, 195,  17,  18
  9, 235,  71,  72
 10, 196, 195,  18
 11, 197, 196,  19
 12, 198, 197,  20
 13, 199, 198,  21
 14, 200, 199,  22
 15, 202,  24,  25
 16, 201, 200,  23
 17, 203, 202,  25
 18, 204, 203,  26
 19, 273, 204, 206
 20, 205,  30, 193
 21, 346, 207, 205
 22, 207,   2,  29
 23,  44,   4,  45
 24, 228,  45,  46
 25, 247, 227, 226
 26, 310, 249, 308
 27, 249, 223, 244
 28, 244, 223, 222
 29, 351, 340, 313
 30, 290,  40,  41
 31, 284,  37,  38
 32, 209,  36, 208
 33, 210,  35, 209
 34, 211,  34, 210
 35, 211,  33,  34
 36,  64,  63,   5
 37, 242,  64,  65
 38, 352, 336, 317
 39, 373, 314, 315
 40, 214,  60, 213
 41, 215,  59, 214
 42, 216,  58, 215
 43, 217,  57, 216
 44, 218,  56, 217
 45, 219,  55, 218
 46, 220,  54, 219
 47, 221,  53, 220
 48, 222,  52, 221
 49, 223,  51, 222
 50, 224,  50, 223
 51, 225,  49, 224
 52, 226,  48, 225
 53, 227,  47, 226
 54, 228,  46, 227
 55,  79,   1,  13
 56, 192,  79,  13
 57, 270, 229,  78
 58, 298, 229, 270
 59, 230,  77, 229
 60, 231,  76, 230
 61, 231,  75,  76
 62, 232,  74,  75
 63, 233,  73,  74
 64, 234,  72,  73
 65, 236,  70,  71
 66, 238,  69, 237
 67, 239,  68, 238
 68, 240,  67, 239
 69, 241,  66, 240
 70, 242,  65, 241
 71, 297,  15, 279
 72, 384, 335, 325
 73, 193,  30,  31
 74, 496, 349, 350
 75, 194,  31,   3
 76, 212,  32,  33
 77, 196,  18,  19
 78, 263, 234, 233
 79, 197,  19,  20
 80, 250, 245, 214
 81, 198,  20,  21
 82, 245, 215, 214
 83, 199,  21,  22
 84, 251, 215, 245
 85, 200,  22,  23
 86, 252, 216, 251
 87, 201,  23,  24
 88, 328, 282, 327
 89, 202, 201,  24
 90, 334, 280, 278
 91, 203,  25,  26
 92, 278, 203, 204
 93, 204,  26,  27
 94, 288, 209, 287
 95, 206,  27,  28
 96, 346, 273, 206
 97, 205,  29,  30
 98, 432, 273, 346
 99, 206, 204,  27
100, 207, 206,  28
101, 207,  28,   2
102, 207,  29, 205
103, 208,  36,  37
104, 254, 221, 220
105, 432, 346, 349
106, 209,  35,  36
107, 294, 210, 288
108, 210,  34,  35
109, 289, 212, 211
110, 212,  33, 211
111, 347, 194, 212
112, 212, 194,  32
113, 213,  60,  61
114, 243,  61,  62
115, 281, 272, 196
116, 214,  59,  60
117, 303, 302, 251
118, 215,  58,  59
119, 301, 300, 253
120, 216,  57,  58
121, 300, 299, 246
122, 217,  56,  57
123, 246, 219, 218
124, 218,  55,  56
125, 255, 219, 246
126, 219,  54,  55
127, 275, 274, 200
128, 220,  53,  54
129, 256, 222, 221
130, 221,  52,  53
131, 402, 358, 397
132, 222,  51,  52
133, 291, 290,  41
134, 223,  50,  51
135, 340, 295, 313
136, 224,  49,  50
137, 257, 226, 225
138, 225,  48,  49
139, 292, 291,  42
140, 226,  47,  48
141, 295, 227, 247
142, 227,  46,  47
143, 293,  44, 228
144, 228,  44,  45
145, 229,  77,  78
146, 271, 260, 230
147, 271, 230, 229
148, 230,  76,  77
149, 261, 231, 260
150, 232,  75, 231
151, 261, 232, 231
152, 233,  74, 232
153, 262, 232, 261
154, 234,  73, 233
155, 264, 235, 259
156, 235,  72, 234
157, 381, 329, 328
158, 236,  71, 235
159, 265, 236, 264
160, 237,  70, 236
161, 266, 237, 265
162, 237,  69,  70
163, 366, 320, 322
164, 238,  68,  69
165, 267, 238, 266
166, 239,  67,  68
167, 336, 296, 269
168, 240,  66,  67
169, 296, 242, 241
170, 241,  65,  66
171, 258,  63, 242
172, 242,  63,  64
173, 243, 213,  61
174, 258, 243,  62
175, 306, 254, 305
176, 308, 244, 307
177, 250, 214, 213
178, 282, 281, 197
179, 253, 218, 217
180, 305, 255, 299
181, 248, 225, 224
182, 290, 285,  40
183, 249, 248, 224
184, 469, 435, 467
185, 249, 224, 223
186, 339, 286, 285
187, 312, 213, 243
188, 268, 239, 267
189, 283, 199, 274
190, 251, 216, 215
191, 302, 301, 252
192, 252, 217, 216
193, 253, 246, 218
194, 253, 217, 252
195, 255, 254, 220
196, 307, 256, 306
197, 255, 220, 219
198, 330, 326, 274
199, 256, 244, 222
200, 256, 221, 254
201, 257, 247, 226
202, 257, 225, 248
203, 258,  62,  63
204, 296, 258, 242
205, 259, 235, 234
206, 315, 314, 262
207, 260, 231, 230
208, 318, 316, 260
209, 316, 315, 261
210, 262, 233, 232
211, 272, 195, 196
212, 263, 233, 262
213, 315, 262, 261
214, 263, 259, 234
215, 407, 368, 366
216, 264, 236, 235
217, 304, 303, 245
218, 265, 237, 236
219, 320, 319, 267
220, 266, 238, 237
221, 409, 401, 360
222, 267, 239, 238
223, 352, 250, 312
224, 268, 240, 239
225, 269, 241, 240
226, 269, 240, 268
227, 270,  78,  79
228, 298, 270, 192
229, 297,  14,  15
230, 279,  16, 277
231, 281, 196, 197
232, 324, 259, 321
233, 278, 204, 273
234, 294, 289, 211
235, 274, 199, 200
236, 275, 200, 201
237, 276, 201, 202
238, 395, 394, 354
239, 280, 202, 203
240, 356, 305, 354
241, 277,  16,  17
242, 325, 195, 272
243, 386, 334, 333
244, 287, 209, 208
245, 353, 348, 335
246, 279,  15,  16
247, 280, 276, 202
248, 280, 203, 278
249, 282, 197, 198
250, 329, 281, 328
251, 283, 282, 198
252, 327, 283, 326
253, 283, 198, 199
254, 444, 442, 401
255, 284, 208,  37
256, 286,  38,  39
257, 285,  39,  40
258, 309, 257, 248
259, 286, 284,  38
260, 286,  39, 285
261, 345, 208, 284
262, 359, 306, 356
263, 350, 349, 193
264, 288, 210, 209
265, 533, 350, 347
266, 294, 211, 210
267, 291,  41,  42
268, 311, 257, 309
269, 292,  42,  43
270, 433, 398, 428
271, 293, 292,  43
272, 295, 293, 228
273, 293,  43,  44
274, 295, 228, 227
275, 343, 342, 294
276, 342, 289, 294
277, 313, 247, 311
278, 295, 292, 293
279, 296, 243, 258
280, 296, 241, 269
281, 348, 279, 335
282, 297, 192,  14
283, 298, 271, 229
284, 298, 192, 297
285, 299, 255, 246
286, 300, 246, 253
287, 301, 253, 252
288, 383, 326, 378
289, 302, 252, 251
290, 421, 383, 417
291, 303, 251, 245
292, 474, 442, 445
293, 304, 245, 250
294, 405, 304, 352
295, 352, 312, 336
296, 319, 317, 268
297, 396, 356, 394
298, 305, 254, 255
299, 385, 331, 377
300, 306, 256, 254
301, 439, 399, 437
302, 307, 244, 256
303, 398, 355, 365
304, 308, 249, 244
305, 341, 290, 291
306, 310, 309, 248
307, 310, 248, 249
308, 388, 387, 337
309, 351, 341, 340
310, 311, 247, 257
311, 312, 250, 213
312, 312, 243, 296
313, 351, 313, 311
314, 313, 295, 247
315, 321, 263, 314
316, 314, 263, 262
317, 316, 261, 260
318, 372, 316, 367
319, 318, 260, 271
320, 460, 406, 423
321, 317, 269, 268
322, 319, 268, 267
323, 376, 298, 348
324, 335, 279, 277
325, 320, 267, 266
326, 322, 266, 265
327, 323, 265, 264
328, 368, 320, 366
329, 409, 360, 405
330, 321, 259, 263
331, 322, 320, 266
332, 323, 322, 265
333, 324, 264, 259
334, 324, 323, 264
335, 375, 314, 373
336, 370, 366, 322
337, 325, 277, 195
338, 380, 272, 329
339, 326, 283, 274
340, 330, 274, 275
341, 363, 301, 362
342, 327, 282, 283
343, 362, 302, 361
344, 328, 281, 282
345, 367, 318, 353
346, 329, 272, 281
347, 332, 275, 276
348, 498, 467, 497
349, 331, 276, 280
350, 419, 416, 377
351, 332, 330, 275
352, 332, 276, 331
353, 333, 278, 273
354, 386, 377, 334
355, 334, 331, 280
356, 334, 278, 333
357, 376, 348, 353
358, 335, 277, 325
359, 336, 312, 296
360, 336, 269, 317
361, 387, 345, 337
362, 337, 284, 286
363, 338, 285, 290
364, 389, 341, 351
365, 339, 337, 286
366, 339, 285, 338
367, 340, 291, 292
368, 340, 292, 295
369, 341, 338, 290
370, 341, 291, 340
371, 343, 294, 288
372, 344, 288, 287
373, 344, 343, 288
374, 488, 462, 466
375, 393, 287, 345
376, 357, 308, 307
377, 345, 287, 208
378, 345, 284, 337
379, 346, 206, 207
380, 349, 346, 205
381, 347, 193, 194
382, 347, 212, 289
383, 348, 298, 297
384, 348, 297, 279
385, 349, 205, 193
386, 350, 193, 347
387, 533, 347, 289
388, 533, 431, 496
389, 355, 311, 309
390, 355, 351, 311
391, 369, 317, 319
392, 352, 304, 250
393, 423, 384, 380
394, 376, 353, 318
395, 354, 305, 299
396, 364, 299, 300
397, 365, 309, 310
398, 358, 308, 357
399, 379, 378, 330
400, 356, 306, 305
401, 397, 358, 357
402, 359, 357, 307
403, 427, 426, 388
404, 358, 310, 308
405, 359, 307, 306
406, 528, 510, 525
407, 361, 303, 360
408, 360, 303, 304
409, 361, 302, 303
410, 444, 409, 407
411, 382, 381, 328
412, 362, 301, 302
413, 400, 395, 364
414, 363, 300, 301
415, 364, 354, 299
416, 364, 300, 363
417, 365, 355, 309
418, 365, 310, 358
419, 370, 322, 323
420, 371, 323, 324
421, 457, 423, 406
422, 367, 316, 318
423, 409, 405, 369
424, 368, 319, 320
425, 369, 352, 317
426, 369, 319, 368
427, 371, 370, 323
428, 410, 408, 370
429, 374, 324, 321
430, 441, 436, 400
431, 373, 315, 372
432, 372, 315, 316
433, 375, 374, 321
434, 375, 321, 314
435, 412, 375, 373
436, 374, 371, 324
437, 411, 372, 406
438, 532, 527, 509
439, 376, 318, 271
440, 376, 271, 298
441, 377, 331, 334
442, 493, 466, 462
443, 378, 326, 330
444, 379, 330, 332
445, 385, 379, 332
446, 435, 394, 434
447, 380, 325, 272
448, 420, 329, 381
449, 382, 328, 327
450, 414, 413, 374
451, 383, 382, 327
452, 422, 382, 421
453, 383, 327, 326
454, 417, 378, 415
455, 384, 353, 335
456, 384, 325, 380
457, 385, 332, 331
458, 463, 461, 424
459, 429, 386, 333
460, 391, 342, 343
461, 424, 393, 387
462, 388, 337, 339
463, 390, 339, 338
464, 464, 463, 426
465, 389, 338, 341
466, 433, 428, 389
467, 390, 388, 339
468, 390, 338, 389
469, 392, 343, 344
470, 392, 391, 343
471, 430, 344, 393
472, 399, 359, 396
473, 393, 344, 287
474, 393, 345, 387
475, 394, 356, 354
476, 395, 354, 364
477, 400, 364, 363
478, 468, 467, 434
479, 500, 478, 499
480, 396, 359, 356
481, 426, 424, 387
482, 399, 397, 357
483, 433, 389, 351
484, 402, 398, 365
485, 399, 357, 359
486, 437, 396, 435
487, 404, 363, 362
488, 456, 417, 448
489, 403, 361, 401
490, 401, 361, 360
491, 402, 365, 358
492, 440, 397, 439
493, 445, 444, 407
494, 403, 362, 361
495, 404, 400, 363
496, 404, 362, 403
497, 405, 360, 304
498, 405, 352, 369
499, 406, 372, 367
500, 460, 446, 406
501, 408, 366, 370
502, 408, 407, 366
503, 410, 370, 371
504, 413, 371, 374
505, 409, 369, 368
506, 409, 368, 407
507, 414, 375, 412
508, 480, 474, 447
509, 412, 373, 411
510, 411, 373, 372
511, 454, 453, 414
512, 414, 374, 375
513, 504, 501, 470
514, 413, 410, 371
515, 451, 411, 446
516, 454, 414, 412
517, 415, 378, 379
518, 418, 379, 385
519, 416, 385, 377
520, 419, 377, 386
521, 436, 434, 395
522, 417, 383, 378
523, 418, 415, 379
524, 418, 385, 416
525, 462, 386, 429
526, 425, 391, 392
527, 420, 380, 329
528, 458, 381, 422
529, 479, 448, 477
530, 421, 382, 383
531, 481, 446, 460
532, 422, 381, 382
533, 457, 406, 367
534, 423, 380, 420
535, 461, 430, 424
536, 426, 387, 388
537, 455, 450, 416
538, 465, 392, 430
539, 427, 388, 390
540, 490, 428, 398
541, 428, 427, 390
542, 438, 398, 402
543, 428, 390, 389
544, 490, 398, 438
545, 432, 429, 333
546, 496, 431, 493
547, 430, 392, 344
548, 430, 393, 424
549, 431, 342, 391
550, 466, 391, 425
551, 432, 333, 273
552, 432, 349, 429
553, 433, 351, 355
554, 433, 355, 398
555, 434, 394, 395
556, 436, 395, 400
557, 478, 450, 476
558, 435, 396, 394
559, 441, 400, 404
560, 515, 474, 480
561, 489, 485, 461
562, 437, 399, 396
563, 440, 402, 397
564, 439, 397, 399
565, 471, 437, 469
566, 518, 500, 517
567, 473, 439, 471
568, 440, 438, 402
569, 443, 404, 403
570, 474, 445, 447
571, 442, 403, 401
572, 445, 442, 444
573, 443, 441, 404
574, 443, 403, 442
575, 444, 401, 409
576, 445, 407, 408
577, 447, 408, 410
578, 447, 445, 408
579, 446, 411, 406
580, 481, 460, 458
581, 449, 410, 413
582, 449, 447, 410
583, 448, 417, 415
584, 452, 415, 418
585, 453, 413, 414
586, 484, 454, 483
587, 450, 418, 416
588, 455, 416, 419
589, 454, 412, 451
590, 451, 412, 411
591, 452, 448, 415
592, 452, 418, 450
593, 486, 456, 479
594, 453, 449, 413
595, 516, 509, 483
596, 459, 421, 456
597, 494, 466, 425
598, 495, 488, 494
599, 470, 468, 436
600, 456, 421, 417
601, 457, 367, 353
602, 457, 384, 423
603, 458, 420, 381
604, 487, 481, 458
605, 483, 451, 481
606, 459, 422, 421
607, 460, 423, 420
608, 460, 420, 458
609, 485, 465, 461
610, 463, 424, 426
611, 462, 419, 386
612, 493, 462, 429
613, 464, 426, 427
614, 473, 472, 440
615, 490, 464, 427
616, 472, 438, 440
617, 465, 425, 392
618, 465, 430, 461
619, 466, 431, 391
620, 495, 494, 492
621, 467, 435, 434
622, 468, 434, 436
623, 470, 436, 441
624, 503, 477, 500
625, 502, 469, 498
626, 469, 437, 435
627, 475, 441, 443
628, 529, 527, 506
629, 491, 464, 472
630, 471, 439, 437
631, 490, 472, 464
632, 473, 440, 439
633, 505, 471, 502
634, 524, 502, 521
635, 474, 443, 442
636, 480, 447, 449
637, 475, 470, 441
638, 475, 443, 474
639, 476, 450, 455
640, 495, 455, 488
641, 477, 448, 452
642, 478, 477, 452
643, 478, 452, 450
644, 525, 510, 511
645, 501, 497, 468
646, 479, 456, 448
647, 482, 449, 453
648, 482, 480, 449
649, 481, 451, 446
650, 487, 458, 422
651, 484, 453, 454
652, 526, 523, 507
653, 483, 454, 451
654, 516, 487, 512
655, 532, 509, 512
656, 484, 482, 453
657, 489, 461, 463
658, 511, 510, 485
659, 486, 459, 456
660, 522, 503, 518
661, 487, 422, 459
662, 512, 459, 486
663, 488, 455, 419
664, 488, 419, 462
665, 491, 489, 463
666, 514, 513, 491
667, 490, 427, 428
668, 490, 438, 472
669, 491, 463, 464
670, 514, 472, 473
671, 492, 425, 465
672, 492, 465, 485
673, 496, 493, 429
674, 493, 431, 466
675, 494, 488, 466
676, 494, 425, 492
677, 510, 492, 485
678, 495, 476, 455
679, 496, 429, 349
680, 533, 496, 350
681, 497, 467, 468
682, 501, 468, 470
683, 517, 500, 499
684, 498, 469, 467
685, 499, 478, 476
686, 528, 495, 510
687, 531, 521, 519
688, 500, 477, 478
689, 504, 470, 475
690, 506, 479, 503
691, 502, 471, 469
692, 534, 525, 530
693, 531, 520, 529
694, 503, 479, 477
695, 515, 504, 475
696, 507, 480, 482
697, 514, 505, 513
698, 505, 473, 471
699, 523, 520, 501
700, 506, 486, 479
701, 515, 507, 504
702, 508, 507, 482
703, 508, 482, 484
704, 509, 508, 484
705, 509, 484, 483
706, 516, 512, 509
707, 510, 495, 492
708, 511, 485, 489
709, 513, 511, 489
710, 534, 521, 517
711, 512, 487, 459
712, 532, 506, 527
713, 513, 489, 491
714, 524, 513, 505
715, 514, 491, 472
716, 514, 473, 505
717, 515, 475, 474
718, 515, 480, 507
719, 516, 483, 481
720, 516, 481, 487
721, 525, 517, 499
722, 521, 518, 517
723, 520, 519, 497
724, 518, 503, 500
725, 519, 498, 497
726, 520, 497, 501
727, 523, 501, 504
728, 529, 520, 523
729, 521, 502, 498
730, 521, 498, 519
731, 522, 506, 503
732, 531, 522, 518
733, 523, 504, 507
734, 526, 507, 508
735, 530, 513, 524
736, 524, 505, 502
737, 528, 525, 499
738, 530, 525, 511
739, 527, 526, 508
740, 529, 526, 527
741, 529, 506, 522
742, 527, 508, 509
743, 528, 499, 476
744, 528, 476, 495
745, 531, 529, 522
746, 529, 523, 526
747, 530, 511, 513
748, 534, 530, 524
749, 531, 518, 521
750, 531, 519, 520
751, 532, 512, 486
752, 532, 486, 506
753, 533, 289, 342
754, 533, 342, 431
755, 534, 524, 521
756, 534, 517, 525
 757, 559,   2,  28
 758, 651, 607, 650
 759, 668, 559, 572
 760, 588, 109,   7
 761, 582, 535, 536
 762, 570,  25,  24
 763,  13,   1,  80
 764, 578,  80,  81
 765, 700, 629, 621
 766, 605,  15,  14
 767, 566,  16, 565
 768, 566,  17,  16
 769, 619,  86,  87
 770, 681, 641, 677
 771, 568,  20, 567
 772, 652, 650, 614
 773, 591, 590, 549
 774, 592, 547, 589
 775, 571,  25, 570
 776, 593, 589, 546
 777, 564,  27,  26
 778, 572,  28,  27
 779,  91,  90,   6
 780, 558,  91,  92
 781, 644, 602, 640
 782, 640, 602, 595
 783, 643, 601, 641
 784, 597, 596, 552
 785, 662, 573, 619
 786, 574,  85, 573
 787, 576,  83, 575
 788, 577,  82, 576
 789, 578,  81, 577
 790, 588,   7, 110
 791, 588, 541, 109
 792, 598, 541, 583
 793, 537, 115, 116
 794, 544, 106, 543
 795, 545, 105, 544
 796, 546, 104, 545
 797, 547, 103, 546
 798, 548, 102, 547
 799, 549, 101, 548
 800, 550, 100, 549
 801, 551,  99, 550
 802, 552,  98, 551
 803, 553,  97, 552
 804, 554,  96, 553
 805, 555,  95, 554
 806, 556,  94, 555
 807, 557,  93, 556
 808, 558,  92, 557
 809, 583, 111, 112
 810, 584, 113, 535
 811, 535, 113, 114
 812, 536, 114, 115
 813, 761, 579, 669
 814, 536, 535, 114
 815, 537, 536, 115
 816, 539, 538, 117
 817, 540,   8, 119
 818, 543, 107, 542
 819, 542, 108, 541
 820, 538, 116, 117
 821, 600, 542, 598
 822, 538, 537, 116
 823, 717, 708, 673
 824, 539, 117, 118
 825, 580, 540, 119
 826, 540, 539, 118
 827, 580, 120, 579
 828, 540, 118,   8
 829, 580, 119, 120
 830, 541, 108, 109
 831, 588, 583, 541
 832, 630, 583, 584
 833, 542, 107, 108
 834, 543, 106, 107
 835, 600, 599, 543
 836, 586, 537, 585
 837, 544, 105, 106
 838, 579, 121, 559
 839, 545, 104, 105
 840, 570,  24, 560
 841, 546, 103, 104
 842, 569,  22, 563
 843, 547, 102, 103
 844, 637, 636, 590
 845, 548, 101, 102
 846, 567,  20,  19
 847, 549, 100, 101
 848, 567,  19, 562
 849, 550,  99, 100
 850, 562,  18, 561
 851, 551,  98,  99
 852, 641, 596, 639
 853, 552,  97,  98
 854, 622, 619,  87
 855, 553,  96,  97
 856, 663, 623, 628
 857, 554,  95,  96
 858, 595, 555, 554
 859, 555,  94,  95
 860, 623, 622,  88
 861, 556,  93,  94
 862, 628, 557, 594
 863, 557,  92,  93
 864, 624,  90, 558
 865, 558,  90,  91
 866, 559, 121,   2
 867, 572,  27, 564
 868, 560,  24,  23
 869, 569,  23,  22
 870, 561,  18,  17
 871, 611, 606, 561
 872, 603, 550, 590
 873, 562,  19,  18
 874, 563,  22,  21
 875, 568,  21,  20
 876, 571,  26,  25
 877, 705, 671, 631
 878, 565,  16,  15
 879, 698, 618, 661
 880, 575,  84, 574
 881, 566, 561,  17
 882, 612, 562, 606
 883, 613, 567, 612
 884, 695, 653, 691
 885, 568, 563,  21
 886, 609, 569, 607
 887, 569, 560,  23
 888, 615, 560, 609
 889, 616, 570, 615
 890, 658, 615, 657
 891, 571, 564,  26
 892, 774, 669, 668
 893, 572, 559,  28
 894, 573,  85,  86
 895, 667, 622, 663
 896, 618, 611, 566
 897, 574,  84,  85
 898, 625, 574, 620
 899, 575,  83,  84
 900, 661, 605, 629
 901, 576,  82,  83
 902, 629, 578, 577
 903, 577,  81,  82
 904, 610,  13, 578
 905, 578,  13,  80
 906, 604, 544, 599
 907, 579, 120, 121
 908, 581, 539, 540
 909, 581, 540, 580
 910, 587, 538, 539
 911, 587, 539, 581
 912, 586, 536, 537
 913, 585, 537, 538
 914, 584, 112, 113
 915, 584, 583, 112
 916, 634, 535, 582
 917, 630, 598, 583
 918, 587, 585, 538
 919, 632, 585, 631
 920, 671, 670, 632
 921, 586, 582, 536
 922, 627, 581, 580
 923, 631, 587, 627
 924, 588, 110, 111
 925, 588, 111, 583
 926, 589, 547, 546
 927, 593, 546, 545
 928, 590, 550, 549
 929, 591, 549, 548
 930, 592, 591, 548
 931, 642, 638, 592
 932, 592, 548, 547
 933, 657, 609, 651
 934, 604, 545, 544
 935, 749, 723, 748
 936, 594, 557, 556
 937, 602, 556, 555
 938, 601, 554, 553
 939, 767, 766, 753
 940, 596, 553, 552
 941, 597, 552, 551
 942, 603, 597, 551
 943, 712, 679, 711
 944, 674, 634, 672
 945, 598, 542, 541
 946, 599, 544, 543
 947, 670, 633, 632
 948, 600, 543, 542
 949, 648, 598, 630
 950, 601, 595, 554
 951, 601, 553, 596
 952, 602, 594, 556
 953, 602, 555, 595
 954, 603, 551, 550
 955, 636, 635, 603
 956, 633, 586, 632
 957, 604, 593, 545
 958, 605, 565,  15
 959, 610, 605,  14
 960, 606, 562, 561
 961, 611, 561, 566
 962, 607, 569, 563
 963, 614, 563, 568
 964, 608, 572, 564
 965, 617, 564, 571
 966, 638, 637, 591
 967, 609, 560, 569
 968, 610,  14,  13
 969, 629, 610, 578
 970, 618, 566, 565
 971, 626, 575, 625
 972, 639, 597, 635
 973, 612, 567, 562
 974, 653, 652, 613
 975, 613, 568, 567
 976, 614, 607, 563
 977, 614, 568, 613
 978, 646, 593, 645
 979, 615, 570, 560
 980, 659, 616, 658
 981, 616, 571, 570
 982, 617, 608, 564
 983, 617, 571, 616
 984, 661, 565, 605
 985, 625, 575, 574
 986, 619, 573,  86
 987, 622,  87,  88
 988, 620, 574, 573
 989, 678, 644, 640
 990, 621, 577, 576
 991, 626, 576, 575
 992, 623,  88,  89
 993, 715, 678, 683
 994, 624, 623,  89
 995, 628, 623, 624
 996, 624,  89,  90
 997, 628, 624, 558
 998, 733, 728, 697
 999, 665, 664, 626
1000, 726, 664, 701
1001, 626, 621, 576
1002, 627, 587, 581
1003, 669, 579, 668
1004, 628, 558, 557
1005, 686, 663, 628
1006, 629, 605, 610
1007, 629, 577, 621
1008, 634, 630, 584
1009, 674, 648, 634
1010, 647, 604, 599
1011, 631, 585, 587
1012, 647, 645, 604
1013, 632, 586, 585
1014, 649, 600, 648
1015, 633, 582, 586
1016, 634, 584, 535
1017, 672, 582, 633
1018, 635, 597, 603
1019, 636, 603, 590
1020, 637, 590, 591
1021, 680, 637, 679
1022, 638, 591, 592
1023, 694, 693, 650
1024, 642, 592, 589
1025, 711, 675, 708
1026, 654, 653, 612
1027, 639, 596, 597
1028, 643, 595, 601
1029, 716, 681, 710
1030, 641, 601, 596
1031, 677, 639, 676
1032, 646, 589, 593
1033, 764, 749, 748
1034, 697, 692, 656
1035, 643, 640, 595
1036, 734, 732, 715
1037, 644, 594, 602
1038, 660, 617, 659
1039, 645, 593, 604
1040, 765, 748, 750
1041, 646, 642, 589
1042, 649, 599, 600
1043, 685, 649, 674
1044, 648, 600, 598
1045, 648, 630, 634
1046, 706, 672, 633
1047, 649, 647, 599
1048, 650, 607, 614
1049, 652, 614, 613
1050, 679, 638, 675
1051, 651, 609, 607
1052, 653, 613, 612
1053, 713, 709, 676
1054, 654, 612, 606
1055, 770, 756, 768
1056, 656, 606, 611
1057, 754, 753, 725
1058, 655, 611, 618
1059, 733, 726, 701
1060, 656, 654, 606
1061, 656, 611, 655
1062, 675, 642, 673
1063, 657, 615, 609
1064, 690, 657, 689
1065, 658, 616, 615
1066, 684, 673, 646
1067, 659, 617, 616
1068, 774, 668, 608
1069, 660, 608, 617
1070, 700, 664, 698
1071, 661, 618, 565
1072, 662, 620, 573
1073, 703, 663, 686
1074, 663, 622, 623
1075, 686, 628, 594
1076, 664, 621, 626
1077, 665, 626, 625
1078, 666, 625, 620
1079, 666, 665, 625
1080, 699, 620, 662
1081, 746, 716, 745
1082, 667, 662, 619
1083, 667, 619, 622
1084, 668, 579, 559
1085, 668, 572, 608
1086, 760, 736, 735
1087, 761, 736, 627
1088, 687, 647, 685
1089, 671, 632, 631
1090, 705, 631, 627
1091, 688, 660, 659
1092, 672, 634, 582
1093, 706, 633, 670
1094, 673, 642, 646
1095, 684, 646, 645
1096, 706, 685, 674
1097, 674, 649, 648
1098, 750, 748, 721
1099, 675, 638, 642
1100, 676, 639, 635
1101, 682, 635, 636
1102, 692, 691, 654
1103, 677, 641, 639
1104, 704, 667, 703
1105, 683, 640, 643
1106, 693, 689, 651
1107, 679, 637, 638
1108, 714, 680, 712
1109, 680, 636, 637
1110, 681, 643, 641
1111, 710, 677, 709
1112, 682, 676, 635
1113, 682, 636, 680
1114, 683, 678, 640
1115, 683, 643, 681
1116, 687, 645, 647
1117, 707, 670, 671
1118, 722, 685, 706
1119, 685, 647, 649
1120, 686, 594, 644
1121, 703, 686, 644
1122, 722, 720, 687
1123, 687, 684, 645
1124, 718, 707, 671
1125, 696, 659, 658
1126, 689, 657, 651
1127, 693, 651, 650
1128, 739, 738, 708
1129, 690, 658, 657
1130, 691, 653, 654
1131, 692, 654, 656
1132, 697, 656, 655
1133, 767, 753, 754
1134, 694, 650, 652
1135, 742, 711, 738
1136, 695, 694, 652
1137, 770, 769, 752
1138, 695, 652, 653
1139, 727, 691, 725
1140, 696, 688, 659
1141, 696, 658, 690
1142, 726, 698, 664
1143, 702, 701, 665
1144, 698, 655, 618
1145, 700, 698, 661
1146, 699, 666, 620
1147, 732, 703, 678
1148, 700, 661, 629
1149, 700, 621, 664
1150, 701, 664, 665
1151, 702, 665, 666
1152, 731, 666, 699
1153, 773, 763, 762
1154, 703, 667, 663
1155, 703, 644, 678
1156, 704, 699, 662
1157, 704, 662, 667
1158, 736, 705, 627
1159, 774, 735, 669
1160, 706, 674, 672
1161, 747, 722, 706
1162, 722, 687, 685
1163, 718, 671, 705
1164, 708, 675, 673
1165, 717, 673, 684
1166, 709, 677, 676
1167, 713, 676, 682
1168, 728, 725, 692
1169, 710, 681, 677
1170, 724, 721, 689
1171, 711, 679, 675
1172, 729, 724, 693
1173, 712, 680, 679
1174, 714, 713, 682
1175, 730, 695, 727
1176, 714, 682, 680
1177, 743, 712, 742
1178, 734, 704, 732
1179, 716, 715, 683
1180, 716, 683, 681
1181, 745, 710, 740
1182, 720, 717, 684
1183, 758, 737, 718
1184, 760, 735, 758
1185, 772, 758, 719
1186, 719, 688, 696
1187, 723, 696, 690
1188, 720, 684, 687
1189, 759, 737, 751
1190, 721, 690, 689
1191, 724, 689, 693
1192, 747, 706, 670
1193, 759, 722, 747
1194, 723, 719, 696
1195, 723, 690, 721
1196, 729, 693, 694
1197, 765, 764, 748
1198, 725, 691, 692
1199, 728, 692, 697
1200, 726, 697, 655
1201, 726, 655, 698
1202, 741, 740, 709
1203, 727, 695, 691
1204, 733, 697, 726
1205, 763, 746, 745
1206, 730, 729, 694
1207, 769, 765, 750
1208, 730, 694, 695
1209, 755, 727, 753
1210, 731, 702, 666
1211, 734, 699, 704
1212, 732, 704, 703
1213, 732, 678, 715
1214, 733, 701, 702
1215, 757, 702, 731
1216, 773, 715, 746
1217, 734, 731, 699
1218, 735, 660, 688
1219, 758, 735, 688
1220, 761, 627, 580
1221, 736, 669, 735
1222, 759, 720, 722
1223, 737, 707, 718
1224, 738, 711, 708
1225, 739, 708, 717
1226, 751, 739, 717
1227, 772, 749, 771
1228, 740, 710, 709
1229, 741, 709, 713
1230, 744, 713, 714
1231, 766, 755, 753
1232, 752, 750, 724
1233, 742, 712, 711
1234, 768, 756, 755
1235, 743, 714, 712
1236, 744, 741, 713
1237, 744, 714, 743
1238, 773, 762, 757
1239, 745, 716, 710
1240, 773, 734, 715
1241, 746, 715, 716
1242, 747, 670, 707
1243, 759, 751, 720
1244, 748, 723, 721
1245, 750, 721, 724
1246, 771, 751, 737
1247, 749, 719, 723
1248, 752, 724, 729
1249, 769, 750, 752
1250, 751, 717, 720
1251, 772, 771, 737
1252, 756, 729, 730
1253, 770, 752, 756
1254, 753, 727, 725
1255, 754, 725, 728
1256, 762, 733, 757
1257, 767, 740, 766
1258, 768, 755, 766
1259, 755, 730, 727
1260, 756, 752, 729
1261, 756, 730, 755
1262, 757, 733, 702
1263, 773, 757, 731
1264, 760, 758, 718
1265, 758, 688, 719
1266, 759, 747, 707
1267, 759, 707, 737
1268, 760, 718, 705
1269, 760, 705, 736
1270, 761, 580, 579
1271, 761, 669, 736
1272, 762, 754, 728
1273, 762, 728, 733
1274, 767, 745, 740
1275, 763, 754, 762
1276, 764, 738, 739
1277, 771, 764, 739
1278, 765, 742, 738
1279, 765, 738, 764
1280, 766, 740, 741
1281, 768, 766, 741
1282, 767, 754, 763
1283, 767, 763, 745
1284, 768, 741, 744
1285, 770, 768, 744
1286, 769, 743, 742
1287, 769, 742, 765
1288, 770, 744, 743
1289, 770, 743, 769
1290, 771, 749, 764
1291, 771, 739, 751
1292, 772, 737, 758
1293, 772, 719, 749
1294, 773, 731, 734
1295, 773, 746, 763
1296, 774, 608, 660
1297, 774, 660, 735
1298,  817,    9,  122
1299,  860,  817,  786
1300,  790,  140,  789
1301,  922,  882,  920
1302,  776,  163,  775
1303,  935,   44,   43
1304,  132,   10,  133
1305,  777,  132,  133
1306,  795,  135,  794
1307,  778,  130,  131
1308,  779,  129,  130
1309,  780,  128,  129
1310,  781,  127,  128
1311,  782,  126,  127
1312,  784,  125,  783
1313,  785,  124,  784
1314,  786,  122,  123
1315,  148,   11,  149
1316,  804,  149,  150
1317,  869,  868,  834
1318,  981,  953,  950
1319,  833,  146,  147
1320,  870,  869,  827
1321,  826,  143,  144
1322,  788,  142,  787
1323,  865,  864,  818
1324,  789,  141,  788
1325,  863,  820,  821
1326,  791,  139,  790
1327,  873,  830,  829
1328,  829,  791,  828
1329,  967,  943,  936
1330,  880,  133,  134
1331,   44,  161,    4
1332,  796,  161,   44
1333,  805,   43,   42
1334,  842,  839,  158
1335,  899,  844,  887
1336,  958,  957,  933
1337,  798,  156,  797
1338,  799,  155,  798
1339,  800,  154,  799
1340,  801,  153,  800
1341,  802,  152,  801
1342,  803,  151,  802
1343,  804,  150,  803
1344,  806,   42,   41
1345,  935,  805,  887
1346,  808,   40,   39
1347,  807,  806,   41
1348,  808,  807,   40
1349,  809,  808,   39
1350,  810,  809,   38
1351,  811,  810,   37
1352,  813,  812,   35
1353,  814,  813,   34
1354,  816,  815,   32
1355,  898,  816,  776
1356,  816,    3,  162
1357,  775,  163,  164
1358,  832,  789,  788
1359,  878,  787,  826
1360,  776,  162,  163
1361,  778,  131,  777
1362,  777,  131,  132
1363,  794,  136,  793
1364,  779,  130,  778
1365,  793,  137,  792
1366,  780,  129,  779
1367,  792,  138,  791
1368,  781,  128,  780
1369,  820,  782,  781
1370,  782,  127,  781
1371,  820,  819,  782
1372,  783,  126,  782
1373,  824,  784,  783
1374,  783,  125,  126
1375,  818,  785,  784
1376,  784,  124,  125
1377,  825,  785,  818
1378,  785,  123,  124
1379,  817,  775,  164
1380,  786,  123,  785
1381,  787,  142,  143
1382,  886,  797,  839
1383,  832,  788,  831
1384,  788,  141,  142
1385,  986,  944,  903
1386,  789,  140,  141
1387,  821,  820,  781
1388,  790,  139,  140
1389,  822,  821,  780
1390,  791,  138,  139
1391,  823,  822,  779
1392,  792,  137,  138
1393,  880,  858,  777
1394,  793,  136,  137
1395,  835,  793,  830
1396,  794,  135,  136
1397,  880,  795,  858
1398,  795,  134,  135
1399,  844,  160,  796
1400,  796,  160,  161
1401,  797,  156,  157
1402,  839,  157,  158
1403,  885,  882,  845
1404,  798,  155,  156
1405,  909,  869,  870
1406,  799,  154,  155
1407,  869,  834,  827
1408,  800,  153,  154
1409,  841,  801,  800
1410,  801,  152,  153
1411,  833,  827,  146
1412,  802,  151,  152
1413,  884,  847,  883
1414,  803,  150,  151
1415,  837,  148,  804
1416,  804,  148,  149
1417,  806,  805,   42
1418,  929,  899,  887
1419,  807,   41,   40
1420,  850,  849,  806
1421,  809,   39,   38
1422,  890,  850,  889
1423,  810,   38,   37
1424,  851,  850,  807
1425,  811,   37,   36
1426,  852,  809,  848
1427,  812,   36,   35
1428,  927,  925,  891
1429,  812,  811,   36
1430,  877,  838,  872
1431,  813,   35,   34
1432,  857,  813,  814
1433,  814,   34,   33
1434,  874,  873,  829
1435,  815,  814,   33
1436,  854,  853,  812
1437,  815,   33,   32
1438,  898,  855,  815
1439,  816,   32,    3
1440,  816,  162,  776
1441,  817,  164,    9
1442,  817,  122,  786
1443,  864,  825,  818
1444,  824,  783,  819
1445,  819,  783,  782
1446,  828,  791,  790
1447,  821,  781,  780
1448,  862,  822,  823
1449,  822,  780,  779
1450,  830,  792,  829
1451,  823,  779,  778
1452,  904,  901,  861
1453,  858,  823,  778
1454,  836,  795,  794
1455,  866,  865,  824
1456,  824,  818,  784
1457,  903,  825,  864
1458,  825,  786,  785
1459,  826,  787,  143
1460,  834,  144,  145
1461,  827,  145,  146
1462,  840,  803,  802
1463,  838,  790,  789
1464,  905,  864,  865
1465,  862,  861,  822
1466,  829,  792,  791
1467,  916,  915,  875
1468,  830,  793,  792
1469,  831,  788,  787
1470,  881,  841,  846
1471,  856,  811,  853
1472,  838,  789,  832
1473,  837,  833,  147
1474,  859,  804,  803
1475,  834,  826,  144
1476,  834,  145,  827
1477,  875,  830,  873
1478,  835,  794,  793
1479,  908,  858,  836
1480,  836,  794,  835
1481,  837,  147,  148
1482,  859,  837,  804
1483,  872,  832,  871
1484,  838,  828,  790
1485,  839,  797,  157
1486,  842,  158,  159
1487,  847,  802,  801
1488,  847,  801,  841
1489,  846,  800,  799
1490,  845,  798,  843
1491,  844,  159,  160
1492,  844,  842,  159
1493,  843,  798,  797
1494,  889,  851,  888
1495,  887,  805,  849
1496,  849,  805,  806
1497,  969,  942,  954
1498,  845,  799,  798
1499,  846,  841,  800
1500,  846,  799,  845
1501,  883,  841,  881
1502,  847,  840,  802
1503,  848,  809,  810
1504,  856,  810,  811
1505,  929,  887,  849
1506,  850,  806,  807
1507,  851,  807,  808
1508,  928,  888,  925
1509,  852,  851,  808
1510,  959,  931,  928
1511,  852,  808,  809
1512,  953,  922,  950
1513,  853,  811,  812
1514,  854,  812,  813
1515,  857,  814,  855
1516,  962,  898,  900
1517,  855,  814,  815
1518,  962,  855,  898
1519,  895,  853,  894
1520,  856,  848,  810
1521,  893,  857,  892
1522,  857,  854,  813
1523,  858,  778,  777
1524,  858,  795,  836
1525,  859,  833,  837
1526,  859,  803,  840
1527,  860,  775,  817
1528,  860,  786,  825
1529,  863,  821,  861
1530,  861,  821,  822
1531,  908,  862,  823
1532,  876,  836,  835
1533,  904,  861,  862
1534,  867,  820,  863
1535,  903,  860,  825
1536,  865,  818,  824
1537,  866,  824,  819
1538, 1003,  987,  994
1539,  867,  866,  819
1540,  902,  867,  863
1541,  867,  819,  820
1542,  937,  906,  902
1543,  913,  911,  868
1544,  868,  826,  834
1545,  870,  827,  833
1546,  924,  884,  883
1547,  870,  833,  859
1548,  897,  859,  840
1549,  871,  832,  831
1550,  919,  831,  878
1551,  894,  854,  893
1552,  872,  838,  832
1553,  874,  829,  828
1554,  877,  828,  838
1555,  877,  874,  828
1556,  961,  932,  892
1557,  916,  873,  914
1558,  875,  835,  830
1559,  908,  876,  862
1560,  876,  835,  875
1561,  934,  893,  932
1562,  917,  912,  877
1563,  878,  831,  787
1564,  878,  826,  868
1565,  931,  889,  928
1566,  879,  839,  842
1567,  880,  777,  133
1568,  880,  134,  795
1569,  882,  846,  845
1570,  882,  881,  846
1571,  885,  845,  843
1572,  920,  882,  885
1573,  909,  870,  897
1574,  883,  847,  841
1575,  909,  897,  884
1576,  884,  840,  847
1577,  926,  843,  886
1578,  888,  851,  852
1579,  886,  843,  797
1580,  886,  839,  879
1581,  887,  844,  796
1582,  935,  887,  796
1583,  891,  852,  848
1584,  891,  888,  852
1585,  955,  925,  949
1586,  889,  850,  851
1587,  929,  910,  899
1588,  890,  849,  850
1589,  896,  848,  856
1590,  956,  926,  921
1591,  892,  857,  855
1592,  907,  865,  866
1593,  946,  945,  912
1594,  893,  854,  857
1595,  918,  917,  872
1596,  894,  853,  854
1597,  930,  927,  896
1598,  895,  856,  853
1599,  896,  891,  848
1600,  896,  856,  895
1601,  897,  870,  859
1602,  897,  840,  884
1603,  898,  815,  816
1604,  900,  898,  776
1605,  899,  879,  842
1606,  899,  842,  844
1607,  944,  776,  775
1608, 1001,  986,  963
1609,  902,  863,  901
1610,  901,  863,  861
1611,  914,  874,  912
1612,  906,  867,  902
1613,  903,  775,  860
1614,  963,  864,  905
1615,  904,  862,  876
1616,  915,  876,  875
1617,  986,  961,  962
1618,  907,  866,  906
1619,  906,  866,  867
1620,  967,  901,  904
1621,  939,  907,  938
1622,  907,  905,  865
1623,  908,  823,  858
1624,  908,  836,  876
1625,  923,  881,  922
1626,  913,  869,  909
1627,  921,  879,  910
1628,  910,  879,  899
1629,  942,  911,  913
1630,  911,  878,  868
1631,  912,  874,  877
1632,  917,  877,  872
1633,  913,  868,  869
1634,  973,  942,  913
1635,  967,  904,  915
1636,  914,  873,  874
1637,  915,  904,  876
1638,  916,  875,  873
1639,  943,  916,  914
1640,  967,  936,  901
1641,  918,  872,  871
1642,  957,  952,  930
1643,  948,  871,  919
1644,  952,  949,  927
1645,  919,  871,  831
1646,  919,  878,  911
1647,  959,  928,  955
1648,  925,  888,  891
1649,  926,  886,  921
1650,  921,  886,  879
1651,  942,  941,  911
1652,  922,  881,  882
1653,  991,  977,  976
1654,  923,  883,  881
1655,  924,  909,  884
1656,  924,  883,  923
1657,  927,  891,  896
1658,  999,  978,  951
1659,  951,  885,  926
1660,  926,  885,  843
1661,  930,  896,  895
1662, 1011, 1005, 1006
1663,  940,  910,  931
1664,  928,  889,  888
1665,  929,  849,  890
1666,  929,  890,  910
1667,  933,  895,  894
1668,  947,  946,  917
1669,  931,  910,  890
1670,  931,  890,  889
1671,  932,  893,  892
1672,  964,  936,  943
1673,  933,  930,  895
1674,  934,  933,  894
1675,  934,  894,  893
1676,  960,  958,  934
1677,  935,  796,   44
1678,  935,   43,  805
1679,  937,  902,  936
1680,  936,  902,  901
1681,  970,  943,  945
1682,  938,  906,  937
1683,  984,  980,  958
1684,  938,  907,  906
1685, 1001,  985,  961
1686,  939,  905,  907
1687,  956,  921,  940
1688,  940,  921,  910
1689,  969,  968,  941
1690,  941,  919,  911
1691,  973,  913,  909
1692,  954,  924,  923
1693,  945,  914,  912
1694,  945,  943,  914
1695,  944,  900,  776
1696,  944,  775,  903
1697,  946,  912,  917
1698,  972,  970,  945
1699,  947,  917,  918
1700, 1009,  998, 1003
1701,  974,  918,  948
1702,  979,  976,  952
1703,  948,  918,  871
1704,  948,  919,  941
1705,  949,  925,  927
1706,  952,  927,  930
1707,  950,  922,  920
1708,  978,  920,  951
1709,  999,  959,  983
1710,  951,  920,  885
1711,  957,  930,  933
1712,  992,  991,  976
1713, 1000,  990,  968
1714,  953,  923,  922
1715,  973,  954,  942
1716,  954,  923,  953
1717,  955,  928,  925
1718,  977,  949,  976
1719,  956,  951,  926
1720,  959,  956,  940
1721,  958,  933,  934
1722,  975,  972,  946
1723,  960,  934,  932
1724,  987,  964,  970
1725,  959,  940,  931
1726,  983,  955,  977
1727,  989,  971,  939
1728,  966,  938,  965
1729,  962,  961,  892
1730,  971,  963,  905
1731,  962,  892,  855
1732,  986,  962,  900
1733,  963,  903,  864
1734,  971,  905,  939
1735,  965,  937,  964
1736,  964,  937,  936
1737,  994,  987,  972
1738,  965,  938,  937
1739, 1010,  985,  989
1740,  966,  939,  938
1741,  967,  915,  916
1742,  967,  916,  943
1743,  974,  948,  968
1744,  968,  948,  941
1745,  969,  941,  942
1746,  982,  954,  953
1747,  970,  964,  943
1748,  972,  945,  946
1749,  989,  985,  971
1750, 1001,  971,  985
1751,  975,  946,  947
1752, 1004,  998,  984
1753,  973,  909,  924
1754,  973,  924,  954
1755,  993,  974,  990
1756,  974,  947,  918
1757,  993,  947,  974
1758,  980,  979,  957
1759,  976,  949,  952
1760,  979,  952,  957
1761, 1011, 1006, 1002
1762,  977,  955,  949
1763,  978,  950,  920
1764,  999,  983,  995
1765,  980,  957,  958
1766, 1011, 1000,  981
1767,  984,  958,  960
1768, 1007, 1006,  992
1769, 1000,  969,  982
1770,  997,  978,  995
1771,  982,  969,  954
1772,  982,  953,  981
1773,  983,  959,  955
1774,  995,  983,  977
1775, 1010,  989, 1004
1776,  988,  965,  987
1777,  985,  960,  932
1778,  985,  932,  961
1779,  986,  900,  944
1780,  986,  903,  963
1781,  987,  965,  964
1782,  987,  970,  972
1783, 1004,  988,  998
1784,  988,  966,  965
1785,  989,  939,  966
1786, 1004,  989,  966
1787,  990,  974,  968
1788, 1000,  968,  969
1789, 1005,  995,  991
1790,  992,  976,  979
1791,  996,  979,  980
1792, 1012, 1008,  993
1793,  993,  975,  947
1794, 1012,  990, 1002
1795,  994,  972,  975
1796, 1009, 1008, 1007
1797,  999,  995,  978
1798,  995,  977,  991
1799,  996,  992,  979
1800,  998,  996,  980
1801,  997,  981,  950
1802,  997,  950,  978
1803,  998,  980,  984
1804, 1003,  998,  988
1805,  999,  951,  956
1806,  999,  956,  959
1807, 1000,  982,  981
1808, 1011,  997, 1005
1809, 1001,  961,  986
1810, 1001,  963,  971
1811, 1012, 1006, 1007
1812, 1002,  990, 1000
1813, 1003,  988,  987
1814, 1009, 1003,  994
1815, 1010, 1004,  984
1816, 1004,  966,  988
1817, 1005,  997,  995
1818, 1006, 1005,  991
1819, 1006,  991,  992
1820, 1007,  992,  996
1821, 1009, 1007,  996
1822, 1008,  994,  975
1823, 1008,  975,  993
1824, 1012,  993,  990
1825, 1009,  994, 1008
1826, 1009,  996,  998
1827, 1010,  984,  960
1828, 1010,  960,  985
1829, 1011, 1002, 1000
1830, 1011,  981,  997
1831, 1012, 1002, 1006
1832, 1012, 1007, 1008
1833, 1060,  129, 1016
1834, 1064,  191, 1013
1835, 1106, 1076, 1103
1836, 1013,  132,  131
1837, 1015, 1014,  167
1838, 1015,    8,  118
1839, 1136, 1126, 1098
1840, 1045,  186, 1044
1841, 1017, 1016,  128
1842, 1018, 1017,  127
1843, 1019, 1018,  126
1844, 1020, 1019,  125
1845, 1021, 1020,  124
1846, 1061, 1021, 1023
1847, 1022,  166, 1014
1848, 1023, 1021,  123
1849, 1024,    9,  165
1850,  110,    7,  168
1851, 1025,  110,  168
1852, 1042,  170, 1041
1853, 1026,  112,  111
1854, 1027,  113,  112
1855, 1028,  114,  113
1856, 1030,  115, 1029
1857, 1031,  116, 1030
1858, 1031,  117,  116
1859,  181,  180,   12
1860, 1049,  180,  181
1861, 1066, 1045, 1065
1862, 1034,  178, 1033
1863, 1035,  177, 1034
1864, 1036,  176, 1035
1865, 1037,  175, 1036
1866, 1038,  174, 1037
1867, 1039,  173, 1038
1868, 1051, 1028, 1027
1869, 1107, 1071, 1079
1870, 1071, 1041, 1040
1871, 1070,  168,  169
1872,  191,   10,  132
1873, 1013,  191,  132
1874, 1064, 1043,  190
1875, 1136, 1112, 1126
1876, 1067,  189, 1043
1877, 1063, 1044,  187
1878, 1063,  187,  188
1879, 1046,  185, 1045
1880, 1047,  184, 1046
1881, 1048,  183, 1047
1882, 1083, 1077, 1049
1883, 1082,  130, 1060
1884, 1095, 1016, 1057
1885, 1014,  166,  167
1886, 1072, 1039, 1038
1887, 1015,  167,    8
1888, 1032,  118,  117
1889, 1016,  129,  128
1890, 1017,  128,  127
1891, 1018,  127,  126
1892, 1078, 1074, 1034
1893, 1019,  126,  125
1894, 1075, 1035, 1074
1895, 1020,  125,  124
1896, 1127, 1099, 1100
1897, 1021,  124,  123
1898, 1073, 1072, 1038
1899, 1023,  123,  122
1900, 1061, 1056, 1021
1901, 1022,  165,  166
1902, 1180, 1124, 1161
1903, 1024, 1023,  122
1904, 1174, 1024, 1022
1905, 1024,  122,    9
1906, 1024,  165, 1022
1907, 1026,  111, 1025
1908, 1025,  111,  110
1909, 1041,  171, 1040
1910, 1027,  112, 1026
1911, 1040,  172, 1039
1912, 1028,  113, 1027
1913, 1051, 1050, 1028
1914, 1029,  114, 1028
1915, 1087, 1086, 1053
1916, 1029,  115,  114
1917, 1052, 1030, 1029
1918, 1030,  116,  115
1919, 1054, 1031, 1053
1920, 1032,  117, 1031
1921, 1179, 1015, 1032
1922, 1032, 1015,  118
1923, 1033,  178,  179
1924, 1077,  180, 1049
1925, 1091, 1058, 1090
1926, 1034,  177,  178
1927, 1058, 1057, 1017
1928, 1035,  176,  177
1929, 1059, 1058, 1018
1930, 1036,  175,  176
1931, 1062, 1020, 1056
1932, 1037,  174,  175
1933, 1130, 1107, 1109
1934, 1038,  173,  174
1935, 1055, 1051, 1027
1936, 1039,  172,  173
1937, 1122, 1085, 1055
1938, 1040,  171,  172
1939, 1081, 1025, 1070
1940, 1041,  170,  171
1941, 1081, 1070, 1042
1942, 1042,  169,  170
1943, 1043,  189,  190
1944, 1084, 1064, 1013
1945, 1044,  186,  187
1946, 1097, 1044, 1063
1947, 1099, 1069, 1068
1948, 1045,  185,  186
1949, 1068, 1046, 1066
1950, 1046,  184,  185
1951, 1069, 1047, 1068
1952, 1047,  183,  184
1953, 1083, 1049, 1048
1954, 1048,  182,  183
1955, 1049,  181,  182
1956, 1049,  182, 1048
1957, 1052, 1029, 1050
1958, 1050, 1029, 1028
1959, 1055, 1027, 1026
1960, 1108, 1080, 1071
1961, 1088, 1087, 1052
1962, 1053, 1030, 1052
1963, 1087, 1053, 1052
1964, 1053, 1031, 1030
1965, 1179, 1054, 1124
1966, 1054, 1032, 1031
1967, 1081, 1026, 1025
1968, 1080, 1042, 1041
1969, 1056, 1020, 1021
1970, 1094, 1093, 1056
1971, 1057, 1016, 1017
1972, 1058, 1017, 1018
1973, 1059, 1018, 1019
1974, 1103, 1075, 1102
1975, 1062, 1059, 1019
1976, 1092, 1090, 1059
1977, 1096, 1060, 1095
1978, 1060,  130,  129
1979, 1174, 1061, 1023
1980, 1123, 1094, 1061
1981, 1062, 1019, 1020
1982, 1093, 1092, 1062
1983, 1067, 1063,  188
1984, 1136, 1084, 1096
1985, 1064,  190,  191
1986, 1084, 1013, 1082
1987, 1101, 1100, 1066
1988, 1065, 1045, 1044
1989, 1111, 1104, 1078
1990, 1066, 1046, 1045
1991, 1067,  188,  189
1992, 1098, 1043, 1084
1993, 1083, 1078, 1033
1994, 1068, 1047, 1046
1995, 1111, 1083, 1069
1996, 1069, 1048, 1047
1997, 1070, 1025,  168
1998, 1070,  169, 1042
1999, 1079, 1040, 1039
2000, 1149, 1113, 1132
2001, 1073, 1038, 1037
2002, 1173, 1161, 1152
2003, 1076, 1037, 1036
2004, 1139, 1117, 1137
2005, 1141, 1119, 1139
2006, 1074, 1035, 1034
2007, 1104, 1102, 1074
2008, 1075, 1036, 1035
2009, 1076, 1073, 1037
2010, 1076, 1036, 1075
2011, 1077, 1033,  179
2012, 1077,  179,  180
2013, 1078, 1034, 1033
2014, 1111, 1099, 1104
2015, 1079, 1071, 1040
2016, 1079, 1039, 1072
2017, 1122, 1081, 1080
2018, 1080, 1041, 1071
2019, 1081, 1042, 1080
2020, 1081, 1055, 1026
2021, 1082, 1013,  131
2022, 1082,  131,  130
2023, 1083, 1033, 1077
2024, 1083, 1048, 1069
2025, 1171, 1165, 1159
2026, 1084, 1043, 1064
2027, 1089, 1051, 1085
2028, 1085, 1051, 1055
2029, 1124, 1054, 1086
2030, 1086, 1054, 1053
2031, 1088, 1052, 1050
2032, 1109, 1072, 1105
2033, 1089, 1088, 1050
2034, 1109, 1107, 1079
2035, 1089, 1050, 1051
2036, 1132, 1108, 1107
2037, 1090, 1058, 1059
2038, 1092, 1059, 1062
2039, 1155, 1112, 1121
2040, 1091, 1057, 1058
2041, 1093, 1062, 1056
2042, 1133, 1106, 1129
2043, 1094, 1056, 1061
2044, 1158, 1149, 1153
2045, 1174, 1123, 1061
2046, 1114, 1086, 1087
2047, 1095, 1060, 1016
2048, 1121, 1112, 1095
2049, 1096, 1084, 1082
2050, 1096, 1082, 1060
2051, 1097, 1065, 1044
2052, 1110, 1063, 1067
2053, 1098, 1067, 1043
2054, 1112, 1096, 1095
2055, 1100, 1068, 1066
2056, 1100, 1099, 1068
2057, 1101, 1066, 1065
2058, 1145, 1104, 1127
2059, 1125, 1065, 1097
2060, 1120, 1090, 1119
2061, 1148, 1147, 1129
2062, 1102, 1075, 1074
2063, 1119, 1092, 1117
2064, 1103, 1076, 1075
2065, 1104, 1074, 1078
2066, 1127, 1104, 1099
2067, 1105, 1072, 1073
2068, 1106, 1105, 1073
2069, 1106, 1073, 1076
2070, 1154, 1133, 1147
2071, 1113, 1085, 1108
2072, 1109, 1079, 1072
2073, 1122, 1108, 1085
2074, 1108, 1071, 1107
2075, 1135, 1105, 1133
2076, 1149, 1115, 1113
2077, 1110, 1097, 1063
2078, 1110, 1067, 1098
2079, 1111, 1078, 1083
2080, 1111, 1069, 1099
2081, 1121, 1095, 1057
2082, 1177, 1163, 1175
2083, 1115, 1089, 1113
2084, 1113, 1089, 1085
2085, 1118, 1117, 1093
2086, 1116, 1087, 1088
2087, 1115, 1088, 1089
2088, 1149, 1138, 1115
2089, 1116, 1114, 1087
2090, 1116, 1088, 1115
2091, 1117, 1092, 1093
2092, 1118, 1093, 1094
2093, 1143, 1118, 1094
2094, 1140, 1116, 1138
2095, 1131, 1129, 1103
2096, 1119, 1090, 1092
2097, 1165, 1142, 1159
2098, 1120, 1091, 1090
2099, 1121, 1057, 1091
2100, 1142, 1091, 1120
2101, 1122, 1055, 1081
2102, 1122, 1080, 1108
2103, 1180, 1161, 1123
2104, 1161, 1143, 1123
2105, 1179, 1124, 1014
2106, 1152, 1086, 1114
2107, 1125, 1101, 1065
2108, 1134, 1097, 1110
2109, 1126, 1110, 1098
2110, 1155, 1146, 1126
2111, 1128, 1100, 1101
2112, 1128, 1127, 1100
2113, 1144, 1101, 1125
2114, 1157, 1139, 1156
2115, 1129, 1106, 1103
2116, 1131, 1103, 1102
2117, 1135, 1109, 1105
2118, 1133, 1105, 1106
2119, 1145, 1131, 1102
2120, 1150, 1145, 1127
2121, 1132, 1113, 1108
2122, 1132, 1107, 1130
2123, 1166, 1151, 1165
2124, 1176, 1164, 1140
2125, 1134, 1125, 1097
2126, 1134, 1110, 1126
2127, 1158, 1138, 1149
2128, 1135, 1130, 1109
2129, 1136, 1098, 1084
2130, 1136, 1096, 1112
2131, 1137, 1117, 1118
2132, 1160, 1118, 1143
2133, 1138, 1116, 1115
2134, 1153, 1149, 1130
2135, 1170, 1168, 1167
2136, 1139, 1119, 1117
2137, 1173, 1164, 1160
2138, 1140, 1114, 1116
2139, 1177, 1175, 1162
2140, 1141, 1120, 1119
2141, 1142, 1121, 1091
2142, 1159, 1120, 1141
2143, 1143, 1094, 1123
2144, 1173, 1160, 1143
2145, 1144, 1128, 1101
2146, 1151, 1125, 1134
2147, 1145, 1102, 1104
2148, 1150, 1127, 1128
2149, 1146, 1134, 1126
2150, 1155, 1126, 1112
2151, 1147, 1133, 1129
2152, 1148, 1129, 1131
2153, 1150, 1148, 1131
2154, 1162, 1150, 1128
2155, 1149, 1132, 1130
2156, 1153, 1130, 1135
2157, 1150, 1131, 1145
2158, 1162, 1128, 1144
2159, 1151, 1144, 1125
2160, 1151, 1134, 1146
2161, 1152, 1124, 1086
2162, 1164, 1114, 1140
2163, 1154, 1135, 1133
2164, 1154, 1153, 1135
2165, 1178, 1170, 1163
2166, 1170, 1169, 1168
2167, 1155, 1121, 1142
2168, 1165, 1155, 1142
2169, 1156, 1139, 1137
2170, 1172, 1169, 1156
2171, 1170, 1167, 1163
2172, 1157, 1141, 1139
2173, 1158, 1140, 1138
2174, 1168, 1153, 1154
2175, 1159, 1142, 1120
2176, 1171, 1141, 1157
2177, 1176, 1172, 1164
2178, 1160, 1137, 1118
2179, 1180, 1123, 1022
2180, 1161, 1124, 1152
2181, 1175, 1150, 1162
2182, 1166, 1144, 1151
2183, 1163, 1147, 1148
2184, 1175, 1163, 1148
2185, 1164, 1152, 1114
2186, 1176, 1158, 1169
2187, 1165, 1151, 1146
2188, 1165, 1146, 1155
2189, 1171, 1166, 1165
2190, 1166, 1162, 1144
2191, 1167, 1154, 1147
2192, 1167, 1147, 1163
2193, 1168, 1158, 1153
2194, 1168, 1154, 1167
2195, 1172, 1156, 1137
2196, 1169, 1158, 1168
2197, 1170, 1157, 1156
2198, 1170, 1156, 1169
2199, 1171, 1159, 1141
2200, 1178, 1171, 1157
2201, 1172, 1137, 1160
2202, 1172, 1160, 1164
2203, 1173, 1143, 1161
2204, 1173, 1152, 1164
2205, 1174, 1023, 1024
2206, 1174, 1022, 1123
2207, 1175, 1148, 1150
2208, 1177, 1162, 1166
2209, 1176, 1140, 1158
2210, 1176, 1169, 1172
2211, 1177, 1166, 1171
2212, 1178, 1177, 1171
2213, 1178, 1157, 1170
2214, 1178, 1163, 1177
2215, 1179, 1014, 1015
2216, 1179, 1032, 1054
2217, 1180, 1022, 1014
2218, 1180, 1014, 1124
*Orientation, name=Ori-1
1., 0., 0., 0., 1., 0.
3, 0.
** Region: (CompositeLayup-1-1: Generated From Layup)
*Elset, elset=CompositeLayup-1-1, generate
    1,  2218,     1
** Section: CompositeLayup-1-1
*Shell Section, elset=CompositeLayup-1-1, composite, orientation=Ori-1, layup=CompositeLayup-1, symmetric
0.25, 3, CFRP, 0., Ply-1
0.25, 3, CFRP, 45., Ply-2
0.25, 3, CFRP, 90., Ply-3
0.25, 3, CFRP, -45., Ply-4
*End Part
**  
**
** ASSEMBLY
**
*Assembly, name=Assembly
**  
*Instance, name=Plate-1, part=PLATE
*End Instance
**  
*Nset, nset=Set-1, instance=Plate-1
   6,   7,  12,  91,  92,  93,  94,  95,  96,  97,  98,  99, 100, 101, 102, 103
 104, 105, 106, 107, 108, 109, 168, 169, 170, 171, 172, 173, 174, 175, 176, 177
 178, 179, 180
*Elset, elset=Set-1, instance=Plate-1
  760,  779,  780,  830,  833,  834,  837,  839,  841,  843,  845,  847,  849,  851,  853,  855
  857,  859,  861,  863, 1850, 1859, 1871, 1923, 1926, 1928, 1930, 1932, 1934, 1936, 1938, 1940
 1942, 2012
*Nset, nset=Set-2, instance=Plate-1
   4,   5,  11,  45,  46,  47,  48,  49,  50,  51,  52,  53,  54,  55,  56,  57
  58,  59,  60,  61,  62,  63, 149, 150, 151, 152, 153, 154, 155, 156, 157, 158
 159, 160, 161
*Elset, elset=Set-2, instance=Plate-1
   23,   24,   36,  113,  114,  116,  118,  120,  122,  124,  126,  128,  130,  132,  134,  136
  138,  140,  142,  203, 1315, 1316, 1331, 1400, 1401, 1402, 1404, 1406, 1408, 1410, 1412, 1414
 1486, 1491
*End Assembly
** 
** MATERIALS
** 
*Material, name=CFRP
*Elastic, type=ENGINEERING CONSTANTS
150000.,9000.,9000., 0.34, 0.34,  0.4,5000.,5000.
5000.,
** ----------------------------------------------------------------
** 
** STEP: Step-1
** 
*Step, name=Step-1, nlgeom=NO
*Static
1., 1., 1e-05, 1.
** 
** BOUNDARY CONDITIONS
** 
** Name: BC-1 Type: Symmetry/Antisymmetry/Encastre
*Boundary
Set-1, ENCASTRE
** Name: DISPLACEMENT Type: Displacement/Rotation
*Boundary
Set-2, 1, 1, 1.47368
** 
** OUTPUT REQUESTS
** 
*Restart, write, frequency=0
** 
** FIELD OUTPUT: F-Output-1
** 
*Output, field
*Element Output, position=NODES, directions=YES
E, 
** 
** HISTORY OUTPUT: H-Output-1
** 
*Output, history, variable=PRESELECT
*End Step
