*Heading
** Job name: Plate_nonlinear_241 Model name: Model-1
** Generated by: Abaqus/CAE 2024.HF3
*Preprint, echo=NO, model=NO, history=NO, contact=NO
**
** PARTS
**
*Part, name=PLATE
*Node
      1,     65.23069,   109.767212,           0.
      2,     65.23069,   71.7259369,           0.
      3,   82.0730209,    54.883606,           0.
      4,    130.46138,    54.883606,           0.
      5,    130.46138,   109.767212,           0.
      6,           0.,   109.767212,           0.
      7,           0.,    54.883606,           0.
      8,   48.3883591,    54.883606,           0.
      9,     65.23069,    38.041275,           0.
     10,     65.23069,           0.,           0.
     11,    130.46138,           0.,           0.
     12,           0.,           0.,           0.
     13,     65.23069,   105.963081,           0.
     14,     65.23069,   102.158958,           0.
     15,     65.23069,   98.3548279,           0.
     16,     65.23069,    94.550705,           0.
     17,     65.23069,   90.7465744,           0.
     18,     65.23069,   86.9424438,           0.
     19,     65.23069,   83.1383209,           0.
     20,     65.23069,   79.3341904,           0.
     21,     65.23069,   75.5300598,           0.
     22,   68.9784622,   71.3036652,           0.
     23,   72.5382996,   70.0580215,           0.
     24,   75.7317123,   68.0514679,           0.
     25,   78.3985519,   65.3846283,           0.
     26,   80.4051056,   62.1912193,           0.
     27,   81.6507492,   58.6313782,           0.
     28,   85.7951965,    54.883606,           0.
     29,   89.5173798,    54.883606,           0.
     30,    93.239563,    54.883606,           0.
     31,   96.9617462,    54.883606,           0.
     32,   100.683929,    54.883606,           0.
     33,   104.406105,    54.883606,           0.
     34,   108.128288,    54.883606,           0.
     35,   111.850471,    54.883606,           0.
     36,   115.572655,    54.883606,           0.
     37,    119.29483,    54.883606,           0.
     38,   123.017014,    54.883606,           0.
     39,   126.739197,    54.883606,           0.
     40,    130.46138,    58.542511,           0.
     41,    130.46138,   62.2014198,           0.
     42,    130.46138,   65.8603287,           0.
     43,    130.46138,   69.5192337,           0.
     44,    130.46138,   73.1781387,           0.
     45,    130.46138,   76.8370514,           0.
     46,    130.46138,   80.4959564,           0.
     47,    130.46138,   84.1548615,           0.
     48,    130.46138,   87.8137665,           0.
     49,    130.46138,   91.4726791,           0.
     50,    130.46138,   95.1315842,           0.
     51,    130.46138,   98.7904892,           0.
     52,    130.46138,   102.449394,           0.
     53,    130.46138,   106.108307,           0.
     54,   126.837448,   109.767212,           0.
     55,   123.213524,   109.767212,           0.
     56,   119.589592,   109.767212,           0.
     57,   115.965668,   109.767212,           0.
     58,   112.341743,   109.767212,           0.
     59,   108.717812,   109.767212,           0.
     60,   105.093887,   109.767212,           0.
     61,   101.469963,   109.767212,           0.
     62,   97.8460312,   109.767212,           0.
     63,   94.2221069,   109.767212,           0.
     64,    90.598175,   109.767212,           0.
     65,   86.9742508,   109.767212,           0.
     66,   83.3503265,   109.767212,           0.
     67,   79.7263947,   109.767212,           0.
     68,   76.1024704,   109.767212,           0.
     69,   72.4785461,   109.767212,           0.
     70,   68.8546143,   109.767212,           0.
     71,   61.6067619,   109.767212,           0.
     72,   57.9828339,   109.767212,           0.
     73,   54.3589058,   109.767212,           0.
     74,   50.7349815,   109.767212,           0.
     75,   47.1110535,   109.767212,           0.
     76,   43.4871254,   109.767212,           0.
     77,   39.8631973,   109.767212,           0.
     78,   36.2392731,   109.767212,           0.
     79,    32.615345,   109.767212,           0.
     80,   28.9914169,   109.767212,           0.
     81,   25.3674908,   109.767212,           0.
     82,   21.7435627,   109.767212,           0.
     83,   18.1196365,   109.767212,           0.
     84,   14.4957085,   109.767212,           0.
     85,   10.8717813,   109.767212,           0.
     86,   7.24785423,   109.767212,           0.
     87,   3.62392712,   109.767212,           0.
     88,           0.,   106.108307,           0.
     89,           0.,   102.449394,           0.
     90,           0.,   98.7904892,           0.
     91,           0.,   95.1315842,           0.
     92,           0.,   91.4726791,           0.
     93,           0.,   87.8137665,           0.
     94,           0.,   84.1548615,           0.
     95,           0.,   80.4959564,           0.
     96,           0.,   76.8370514,           0.
     97,           0.,   73.1781387,           0.
     98,           0.,   69.5192337,           0.
     99,           0.,   65.8603287,           0.
    100,           0.,   62.2014198,           0.
    101,           0.,    58.542511,           0.
    102,   3.72218132,    54.883606,           0.
    103,   7.44436264,    54.883606,           0.
    104,    11.166544,    54.883606,           0.
    105,   14.8887253,    54.883606,           0.
    106,   18.6109066,    54.883606,           0.
    107,   22.3330879,    54.883606,           0.
    108,   26.0552692,    54.883606,           0.
    109,   29.7774506,    54.883606,           0.
    110,   33.4996338,    54.883606,           0.
    111,   37.2218132,    54.883606,           0.
    112,   40.9439964,    54.883606,           0.
    113,   44.6661758,    54.883606,           0.
    114,   48.8106308,   58.6313782,           0.
    115,   50.0562744,   62.1912193,           0.
    116,   52.0628242,   65.3846283,           0.
    117,   54.7296677,   68.0514679,           0.
    118,   57.9230766,   70.0580215,           0.
    119,   61.4829178,   71.3036652,           0.
    120,     65.23069,   34.2371483,           0.
    121,     65.23069,   30.4330196,           0.
    122,     65.23069,   26.6288929,           0.
    123,     65.23069,   22.8247662,           0.
    124,     65.23069,   19.0206375,           0.
    125,     65.23069,   15.2165098,           0.
    126,     65.23069,   11.4123831,           0.
    127,     65.23069,   7.60825491,           0.
    128,     65.23069,   3.80412745,           0.
    129,   68.8546143,           0.,           0.
    130,   72.4785461,           0.,           0.
    131,   76.1024704,           0.,           0.
    132,   79.7263947,           0.,           0.
    133,   83.3503265,           0.,           0.
    134,   86.9742508,           0.,           0.
    135,    90.598175,           0.,           0.
    136,   94.2221069,           0.,           0.
    137,   97.8460312,           0.,           0.
    138,   101.469963,           0.,           0.
    139,   105.093887,           0.,           0.
    140,   108.717812,           0.,           0.
    141,   112.341743,           0.,           0.
    142,   115.965668,           0.,           0.
    143,   119.589592,           0.,           0.
    144,   123.213524,           0.,           0.
    145,   126.837448,           0.,           0.
    146,    130.46138,   3.65890694,           0.
    147,    130.46138,   7.31781387,           0.
    148,    130.46138,   10.9767208,           0.
    149,    130.46138,   14.6356277,           0.
    150,    130.46138,   18.2945347,           0.
    151,    130.46138,   21.9534416,           0.
    152,    130.46138,   25.6123486,           0.
    153,    130.46138,   29.2712555,           0.
    154,    130.46138,   32.9301643,           0.
    155,    130.46138,   36.5890694,           0.
    156,    130.46138,   40.2479782,           0.
    157,    130.46138,   43.9068832,           0.
    158,    130.46138,   47.5657921,           0.
    159,    130.46138,   51.2246971,           0.
    160,   81.6507492,   51.1358337,           0.
    161,   80.4051056,   47.5759926,           0.
    162,   78.3985519,   44.3825836,           0.
    163,   75.7317123,   41.7157402,           0.
    164,   72.5382996,   39.7091904,           0.
    165,   68.9784622,   38.4635468,           0.
    166,   61.4829178,   38.4635468,           0.
    167,   57.9230766,   39.7091904,           0.
    168,   54.7296677,   41.7157402,           0.
    169,   52.0628242,   44.3825836,           0.
    170,   50.0562744,   47.5759926,           0.
    171,   48.8106308,   51.1358337,           0.
    172,           0.,   51.2246971,           0.
    173,           0.,   47.5657921,           0.
    174,           0.,   43.9068832,           0.
    175,           0.,   40.2479782,           0.
    176,           0.,   36.5890694,           0.
    177,           0.,   32.9301643,           0.
    178,           0.,   29.2712555,           0.
    179,           0.,   25.6123486,           0.
    180,           0.,   21.9534416,           0.
    181,           0.,   18.2945347,           0.
    182,           0.,   14.6356277,           0.
    183,           0.,   10.9767208,           0.
    184,           0.,   7.31781387,           0.
    185,           0.,   3.65890694,           0.
    186,   3.62392712,           0.,           0.
    187,   7.24785423,           0.,           0.
    188,   10.8717813,           0.,           0.
    189,   14.4957085,           0.,           0.
    190,   18.1196365,           0.,           0.
    191,   21.7435627,           0.,           0.
    192,   25.3674908,           0.,           0.
    193,   28.9914169,           0.,           0.
    194,    32.615345,           0.,           0.
    195,   36.2392731,           0.,           0.
    196,   39.8631973,           0.,           0.
    197,   43.4871254,           0.,           0.
    198,   47.1110535,           0.,           0.
    199,   50.7349815,           0.,           0.
    200,   54.3589058,           0.,           0.
    201,   57.9828339,           0.,           0.
    202,   61.6067619,           0.,           0.
    203,   81.8516617,   65.4815903,           0.
    204,   84.1485977,   62.0534401,           0.
    205,     68.51194,   88.8413391,           0.
    206,   79.3226318,   68.7303848,           0.
    207,   68.5376358,   85.0082169,           0.
    208,   76.3938904,   72.0666962,           0.
    209,   68.5803833,   81.0598984,           0.
    210,    68.774437,   76.7991943,           0.
    211,   72.7967224,   74.5270157,           0.
    212,   102.545013,   58.1057434,           0.
    213,   98.8231201,   58.1075897,           0.
    214,   94.9680023,   58.1625023,           0.
    215,   90.9841156,   58.3263054,           0.
    216,   86.7960892,     58.48106,           0.
    217,   127.293236,   89.6433563,           0.
    218,   127.292168,   85.9845352,           0.
    219,   127.290939,   82.3256836,           0.
    220,   127.289574,   78.6668091,           0.
    221,   127.288216,   75.0079193,           0.
    222,   127.282097,   71.3429337,           0.
    223,   127.218781,   67.5988541,           0.
    224,   127.086288,   63.7419815,           0.
    225,   127.062965,   59.7571526,           0.
    226,   70.1964951,   106.371727,           0.
    227,   74.1483841,   106.425919,           0.
    228,    77.898735,   106.566292,           0.
    229,   81.5373001,   106.605774,           0.
    230,   85.1625061,   106.617462,           0.
    231,   88.7865219,   106.620438,           0.
    232,   92.4102936,   106.621841,           0.
    233,   96.0341568,   106.622704,           0.
    234,   99.6581039,   106.623367,           0.
    235,   103.282059,   106.624107,           0.
    236,   106.905983,    106.62455,           0.
    237,     110.5298,   106.624428,           0.
    238,   114.153374,   106.622368,           0.
    239,    117.79557,   106.591537,           0.
    240,   121.566963,   106.488564,           0.
    241,   125.533188,   106.468292,           0.
    242,   119.604385,   103.380104,           0.
    243,   115.960266,   103.449142,           0.
    244,   76.0348282,   103.250107,           0.
    245,   94.2227402,   103.472977,           0.
    246,     83.35466,   103.455826,           0.
    247,   101.470642,   103.476593,           0.
    248,   79.6936722,   103.388412,           0.
    249,   86.9767456,   103.464264,           0.
    250,   90.5995789,   103.468697,           0.
    251,   97.8467712,   103.474129,           0.
    252,   105.094536,   103.477661,           0.
    253,   108.718155,   103.478294,           0.
    254,   112.340767,   103.472862,           0.
    255,   127.230545,   93.3182373,           0.
    256,    123.93119,   65.6214371,           0.
    257,   124.103951,    73.171608,           0.
    258,   124.112457,   76.8372726,           0.
    259,   127.132553,   97.0089722,           0.
    260,   124.117226,   87.8136368,           0.
    261,    124.11985,   84.1560898,           0.
    262,   124.050034,   69.4173813,           0.
    263,   127.458397,   103.727547,           0.
    264,   124.116928,   80.4973602,           0.
    265,   127.165131,   100.628105,           0.
    266,   106.267235,   58.1038437,           0.
    267,   96.8659821,   61.3324242,           0.
    268,   113.711792,   58.0984306,           0.
    269,    109.98951,   58.1017189,           0.
    270,   117.425995,   58.0621567,           0.
    271,   100.667007,     61.32444,           0.
    272,   93.0114594,   61.5370598,           0.
    273,   121.111488,   58.0328026,           0.
    274,   71.7966461,   86.9329834,           0.
    275,   71.8564911,   83.0574265,           0.
    276,   68.5225983,   100.270111,           0.
    277,   68.5104218,   92.6528091,           0.
    278,    68.504837,   96.4770432,           0.
    279,   71.9363403,   102.647209,           0.
    280,   123.703484,   102.878357,           0.
    281,   74.6072693,   100.249207,           0.
    282,   96.0364609,   100.318886,           0.
    283,   92.4134064,   100.313599,           0.
    284,   110.531082,   100.330597,           0.
    285,   114.148033,   100.332298,           0.
    286,   106.907532,   100.328056,           0.
    287,    99.660347,   100.321831,           0.
    288,   103.284035,   100.324722,           0.
    289,   88.7913895,   100.306656,           0.
    290,   117.773407,   100.352234,           0.
    291,    81.494072,   100.240982,           0.
    292,   85.1580811,   100.285965,           0.
    293,   77.8257523,   100.147987,           0.
    294,   120.981049,   100.531403,           0.
    295,   124.011292,   91.4747696,           0.
    296,   123.809662,   98.8957596,           0.
    297,   120.946083,   82.3299408,           0.
    298,   120.939041,   78.6709747,           0.
    299,   120.939499,   85.9855118,           0.
    300,   120.903786,   71.2299805,           0.
    301,   120.927254,   74.9819946,           0.
    302,   120.867416,   67.4268494,           0.
    303,   123.829758,   95.1816711,           0.
    304,    104.40374,   61.3223724,           0.
    305,   111.837448,   61.3201637,           0.
    306,   124.262016,   57.7988129,           0.
    307,   119.343849,   61.3165894,           0.
    308,   115.591972,   61.3981667,           0.
    309,   95.0997314,   64.6123962,           0.
    310,   98.8052139,   64.5538406,           0.
    311,    108.12426,    61.320591,           0.
    312,   72.0712585,   79.0260162,           0.
    313,   71.7791443,   90.7399292,           0.
    314,   71.8083267,   98.4916306,           0.
    315,    75.079216,   85.0415039,           0.
    316,   71.8599243,   94.6143494,           0.
    317,   88.6823502,   62.2980843,           0.
    318,   123.396881,     61.47332,           0.
    319,   75.5481339,   96.7639999,           0.
    320,   120.126556,    97.142746,           0.
    321,   79.5962601,   97.0671692,           0.
    322,   86.9726944,   97.1269379,           0.
    323,   116.105095,   97.1880035,           0.
    324,   112.423553,   97.0928726,           0.
    325,   90.6038513,   97.1422119,           0.
    326,   105.099312,   97.1692352,           0.
    327,   108.744194,   97.1454773,           0.
    328,   94.2285309,   97.1520309,           0.
    329,    101.47509,   97.1653442,           0.
    330,   97.8519897,   97.1587524,           0.
    331,   83.2743683,   97.0975113,           0.
    332,   117.754929,   76.8328018,           0.
    333,   117.684555,   69.2134476,           0.
    334,   117.766098,    80.504509,           0.
    335,   117.645432,   73.0401917,           0.
    336,   120.723015,   93.2311859,           0.
    337,   120.870216,    89.622879,           0.
    338,   117.739441,   84.1575317,           0.
    339,   121.026207,   64.1729584,           0.
    340,   102.541298,    64.541008,           0.
    341,   117.588097,   65.0842667,           0.
    342,   113.625168,   64.5906525,           0.
    343,    109.96283,     64.53685,           0.
    344,   96.9996719,   67.7584686,           0.
    345,   106.262527,   64.5362396,           0.
    346,   75.1861572,   81.2380219,           0.
    347,   75.1536331,   88.8519821,           0.
    348,   75.2237549,   92.6714478,           0.
    349,   68.2233582,   103.482216,           0.
    350,   80.7065125,   72.2167969,           0.
    351,   85.6494141,   65.3559418,           0.
    352,   83.7000427,   69.0051193,           0.
    353,   88.5848541,   65.6494904,           0.
    354,   81.3658066,   94.0251541,           0.
    355,   85.0935669,   94.0015106,           0.
    356,    88.779747,   93.9769058,           0.
    357,      114.403,   93.5623245,           0.
    358,   110.486473,   93.9733124,           0.
    359,   103.289543,   94.0047455,           0.
    360,   92.4195023,   93.9791412,           0.
    361,   106.892548,   94.0051956,           0.
    362,   99.6678543,   93.9972076,           0.
    363,    96.045578,   93.9872589,           0.
    364,   114.580246,   78.6831818,           0.
    365,   114.506187,   75.0267029,           0.
    366,   114.032951,   71.0363312,           0.
    367,   117.668015,   91.3945084,           0.
    368,   114.506622,   82.3574448,           0.
    369,   117.685989,   87.7896881,           0.
    370,   93.3584061,   67.8574371,           0.
    371,   100.694511,   67.7623901,           0.
    372,   108.120712,   67.7726974,           0.
    373,   111.785294,   67.7387009,           0.
    374,   114.943214,   67.5326767,           0.
    375,   104.411362,   67.7848816,           0.
    376,   78.3715973,   83.3572845,           0.
    377,   75.4423599,   77.5260696,           0.
    378,   78.4172745,   86.9594879,           0.
    379,   78.9794769,    90.864296,           0.
    380,    83.099968,   90.8979568,           0.
    381,    86.850235,   90.7650146,           0.
    382,   90.5799408,   90.7849579,           0.
    383,   111.864517,   91.2331009,           0.
    384,   108.856529,   90.8462448,           0.
    385,   105.232841,   90.6855774,           0.
    386,   101.524483,    90.780098,           0.
    387,   94.2344055,   90.8043976,           0.
    388,   97.8724289,   90.8063049,           0.
    389,   117.805138,   94.5037537,           0.
    390,   111.398254,   76.9054184,           0.
    391,    111.62426,   73.7331924,           0.
    392,   114.561852,   89.6801758,           0.
    393,   111.254433,   80.5874786,           0.
    394,   114.488464,    86.069664,           0.
    395,   78.1426849,   94.2784119,           0.
    396,   91.4420395,     64.98629,           0.
    397,   98.8565445,   70.9786682,           0.
    398,   95.1416168,    71.015358,           0.
    399,   106.258568,   71.0873032,           0.
    400,   102.535454,   71.0127029,           0.
    401,   81.4354019,   85.3063278,           0.
    402,   78.5114746,   79.7064743,           0.
    403,   81.3378372,   88.2757492,           0.
    404,   84.6481552,   87.2736511,           0.
    405,   88.7041321,   87.5029831,           0.
    406,   92.4173737,   87.5895691,           0.
    407,   107.526619,   86.9176483,           0.
    408,     96.06427,   87.6202316,           0.
    409,   103.419342,   87.4472809,           0.
    410,   99.7296677,   87.5690536,           0.
    411,   108.139328,   74.6971436,           0.
    412,   108.031029,   78.7914505,           0.
    413,   111.155952,   84.4369125,           0.
    414,   78.7569351,   75.7274704,           0.
    415,   109.993523,   71.0108948,           0.
    416,   91.3106995,   71.0835724,           0.
    417,   96.8640823,   74.3034973,           0.
    418,   100.528549,   74.2891312,           0.
    419,   104.147171,   74.2965698,           0.
    420,    81.503746,   81.9602051,           0.
    421,   82.8967667,   75.0639343,           0.
    422,   86.8852997,   84.1808014,           0.
    423,   90.5679321,    84.287178,           0.
    424,   94.3138199,   84.3466721,           0.
    425,   111.408989,   88.1972885,           0.
    426,   104.923668,     84.41436,           0.
    427,   98.0331116,   84.3100052,           0.
    428,   101.742523,   84.2596512,           0.
    429,   107.853188,   82.6658401,           0.
    430,   98.4509964,   77.6437302,           0.
    431,   102.133995,   77.5336075,           0.
    432,   92.9476776,   74.3453751,           0.
    433,   75.8474731,   74.9618149,           0.
    434,   105.335785,   77.2331924,           0.
    435,   104.306015,   80.8383026,           0.
    436,   84.0929108,   72.2863007,           0.
    437,   88.6255798,   80.9643936,           0.
    438,   92.5518265,   81.0006104,           0.
    439,   96.3678436,   80.9969559,           0.
    440,   100.172417,   80.9303741,           0.
    441,   83.8458939,   83.9617233,           0.
    442,   82.1140976,   78.5095978,           0.
    443,   94.6479797,   77.6556778,           0.
    444,   89.0639725,   74.2883911,           0.
    445,   84.8722305,    81.181427,           0.
    446,   86.2999191,   77.3936081,           0.
    447,    87.292038,   70.9309769,           0.
    448,   90.6894913,   77.6080093,           0.
    449,   87.0283585,   67.7809601,           0.
    450,   89.8360672,   68.0481186,           0.
    451,   85.9291229,   73.9926453,           0.
    452,     23.55439,   106.625183,           0.
    453,    27.178648,   106.624474,           0.
    454,   30.8030033,   106.623451,           0.
    455,    34.427002,   106.622444,           0.
    456,   38.0507202,   106.621063,           0.
    457,   41.6743622,   106.618622,           0.
    458,     45.29813,    106.61515,           0.
    459,   48.9209175,   106.607788,           0.
    460,    52.556263,   106.567871,           0.
    461,   56.3226891,    106.42421,           0.
    462,   60.2888069,   106.365463,           0.
    463,   3.36686206,   59.8729591,           0.
    464,    3.1888721,   71.3482132,           0.
    465,   3.17462707,   75.0072861,           0.
    466,   3.17128086,   78.6666489,           0.
    467,   3.16966939,   82.3256607,           0.
    468,   3.16839647,   85.9845505,           0.
    469,   3.16721082,   89.6434402,           0.
    470,   3.17000699,   93.3092194,           0.
    471,   3.22486162,   97.0628662,           0.
    472,   3.33451128,    100.92791,           0.
    473,   3.33198762,   104.911552,           0.
    474,   9.31072235,    58.212841,           0.
    475,   27.9161243,   58.1063385,           0.
    476,   31.6438007,   58.1134491,           0.
    477,   39.3132286,   58.1798973,           0.
    478,   43.5599403,   58.3193817,           0.
    479,   35.4060516,    58.132618,           0.
    480,   51.3569641,   68.8621063,           0.
    481,   58.2679901,   73.3214417,           0.
    482,    48.443573,   65.5724335,           0.
    483,   46.0663223,   61.9832611,           0.
    484,   54.6996155,    71.506546,           0.
    485,   61.9546776,   88.8530502,           0.
    486,   62.1418686,    81.421257,           0.
    487,   61.9533577,   96.4754562,           0.
    488,   61.9560852,    92.653511,           0.
    489,   62.0008087,   85.0573883,           0.
    490,   19.9306736,   106.624931,           0.
    491,   12.7013798,   106.642456,           0.
    492,    16.310236,   106.627525,           0.
    493,   9.12704086,   106.649185,           0.
    494,   6.05861473,   106.868408,           0.
    495,   25.3643169,     103.4785,           0.
    496,   47.1043358,    103.44487,           0.
    497,    43.482254,   103.457153,           0.
    498,   39.8599052,    103.46524,           0.
    499,   28.9891338,   103.476151,           0.
    500,   36.2373161,   103.470306,           0.
    501,   32.6137848,   103.473045,           0.
    502,   54.4438515,    103.23658,           0.
    503,   50.7678223,   103.375565,           0.
    504,    3.2210989,   67.6798935,           0.
    505,   6.36074734,   73.1907272,           0.
    506,   6.45125771,   99.0378265,           0.
    507,   6.33741331,   91.4830551,           0.
    508,   3.34595871,   63.8769531,           0.
    509,    6.3478775,   76.8396835,           0.
    510,   6.34259176,    80.497612,           0.
    511,   6.33869839,   84.1562805,           0.
    512,   6.33611441,   87.8166885,           0.
    513,   6.36787462,   95.2453918,           0.
    514,   12.9966736,   58.2383156,           0.
    515,   20.4705658,   58.1131287,           0.
    516,   24.1939888,    58.106144,           0.
    517,   29.7774429,   61.3345947,           0.
    518,   37.4297943,   61.4318695,           0.
    519,    33.540184,   61.3600235,           0.
    520,   61.8324356,   74.4691772,           0.
    521,   61.9559822,   100.283401,           0.
    522,   62.2385216,   103.486076,           0.
    523,   58.7085915,   86.8755493,           0.
    524,   58.9498672,   83.0430984,           0.
    525,   58.6944809,   90.7282181,           0.
    526,   58.6119652,   94.6207504,           0.
    527,    58.554245,   102.634964,           0.
    528,   6.93109989,   103.206436,           0.
    529,    58.770092,   76.8956833,           0.
    530,   55.8606529,   100.246452,           0.
    531,   18.1372242,   103.487419,           0.
    532,   14.5231342,   103.387428,           0.
    533,   10.8755932,   103.353828,           0.
    534,   34.4230995,   100.315918,           0.
    535,   30.7978554,   100.320457,           0.
    536,   27.1717587,   100.323639,           0.
    537,    38.044426,   100.308167,           0.
    538,   41.6643028,   100.296265,           0.
    539,    45.283802,   100.278801,           0.
    540,    48.946106,    100.23851,           0.
    541,   52.6142731,   100.165947,           0.
    542,   21.7439823,   103.479965,           0.
    543,   9.50586414,   85.9900131,           0.
    544,   9.49865532,   89.6598587,           0.
    545,   9.53304291,   75.0250244,           0.
    546,   9.51280308,   82.3301315,           0.
    547,   9.48832321,     93.43367,           0.
    548,   9.47220421,   97.2288055,           0.
    549,   9.52126312,   78.6730194,           0.
    550,   6.39285994,   69.5561218,           0.
    551,   11.0717649,   61.6606255,           0.
    552,   26.0541992,   61.3272362,           0.
    553,   16.7321587,    58.190773,           0.
    554,   35.4694977,   64.6388397,           0.
    555,   31.6562042,   64.5760956,           0.
    556,   22.3302078,   61.3350983,           0.
    557,   41.6237602,   61.7299995,           0.
    558,   58.6394691,   98.5084152,           0.
    559,    55.550808,   84.7604218,           0.
    560,   55.4532166,   88.8104019,           0.
    561,   55.3824196,   92.6734695,           0.
    562,   6.48999596,   65.8938828,           0.
    563,   7.01783037,   61.7300529,           0.
    564,   46.9783096,   69.7810745,           0.
    565,   50.7666931,   73.4374924,           0.
    566,   43.7789497,   65.8284225,           0.
    567,   55.0507431,   75.5810394,           0.
    568,   54.9061813,   96.7828903,           0.
    569,   9.57815647,   67.7529144,           0.
    570,   19.9509163,   100.315567,           0.
    571,   39.8446465,   97.1323242,           0.
    572,   47.1316414,   96.9952621,           0.
    573,   36.2271004,   97.1458054,           0.
    574,   16.4228077,   100.188004,           0.
    575,   50.8560028,   96.9411697,           0.
    576,   43.4703712,   97.0948486,           0.
    577,   12.6106739,   99.6142349,           0.
    578,   32.6036339,   97.1557159,           0.
    579,   28.9770718,   97.1603928,           0.
    580,    23.549696,   100.318321,           0.
    581,   9.26816559,   100.488228,           0.
    582,    12.692626,   80.5048599,           0.
    583,   12.6819324,   84.1665573,           0.
    584,   12.5728903,   95.4403915,           0.
    585,   12.6903925,   91.6107178,           0.
    586,   12.6730452,   87.8445053,           0.
    587,   12.7215929,    76.846817,           0.
    588,   9.55924225,   71.3838959,           0.
    589,   14.8648291,   61.6203041,           0.
    590,   18.6264687,   61.4359131,           0.
    591,   27.9144955,   64.5534286,           0.
    592,   33.5264893,   67.8182297,           0.
    593,   24.1902657,   64.5463867,           0.
    594,   39.3957062,   64.8565826,           0.
    595,   55.9963188,   80.1542435,           0.
    596,   6.17239189,   57.9166145,           0.
    597,   52.2131691,   86.9100189,           0.
    598,   52.2949791,    90.812088,           0.
    599,   9.41063023,   64.4965439,           0.
    600,   12.8571806,   65.3872681,           0.
    601,   12.7599192,   69.4363403,           0.
    602,   21.7527542,   97.1271362,           0.
    603,   38.0234985,     93.96418,           0.
    604,   41.6545334,   93.9250107,           0.
    605,   45.2312431,    93.796257,           0.
    606,     49.10149,   93.2149734,           0.
    607,   34.4038811,   93.9801941,           0.
    608,   18.2226505,   97.0660172,           0.
    609,   15.1859732,   97.1943436,           0.
    610,    30.779953,   93.9946365,           0.
    611,    25.356823,   97.1476822,           0.
    612,   15.8642931,   82.3431778,           0.
    613,   15.9373436,   86.0380096,           0.
    614,   15.8931246,   78.6938095,           0.
    615,   16.1600266,   93.7365112,           0.
    616,   15.9441442,   89.7599487,           0.
    617,    12.830039,   73.1263657,           0.
    618,   20.5058708,   64.6179276,           0.
    619,   29.7740765,   67.7840576,           0.
    620,   26.0455742,   67.7908707,           0.
    621,   37.4008827,   67.8285217,           0.
    622,   16.8230495,   64.7816315,           0.
    623,    52.508213,   94.0849228,           0.
    624,   59.5919876,   79.8987427,           0.
    625,   49.1023178,   89.1242371,           0.
    626,   15.5065413,   67.7019653,           0.
    627,   16.4350071,   71.1310959,           0.
    628,   39.8844185,   90.7142487,           0.
    629,   23.5645447,   94.0523376,           0.
    630,   43.4837608,   90.7316666,           0.
    631,   36.2171898,   90.7774277,           0.
    632,   20.0192719,   94.0624771,           0.
    633,   32.5845108,   90.8188171,           0.
    634,   27.1668682,    94.035347,           0.
    635,   19.0921078,   84.1265564,           0.
    636,   19.0456581,   80.5223618,           0.
    637,    19.542469,   87.9874573,           0.
    638,   62.1329613,   77.9248505,           0.
    639,   15.9618988,   75.0915833,           0.
    640,   40.7277794,   67.7527466,           0.
    641,   35.5194702,   71.0331955,           0.
    642,   22.3394909,   67.8252106,           0.
    643,   27.9203377,   71.0351868,           0.
    644,   31.6537495,   71.0198441,           0.
    645,   18.6773109,   67.8511276,           0.
    646,   48.7684212,   85.1431046,           0.
    647,   18.8361378,   73.7905426,           0.
    648,   41.9609146,   87.3932495,           0.
    649,   38.1021957,   87.4877777,           0.
    650,   25.3476562,   90.9942856,           0.
    651,   34.3941269,   87.5952454,           0.
    652,   28.9706707,   90.8933792,           0.
    653,   21.8315392,   85.4760284,           0.
    654,    22.157074,   82.4417953,           0.
    655,   46.5271111,   90.9328384,           0.
    656,    19.035677,   76.9245911,           0.
    657,   33.5921593,   74.3154144,           0.
    658,   24.2048206,   71.1196442,           0.
    659,   29.9090881,   74.3146362,           0.
    660,   39.8425484,   71.1090164,           0.
    661,   45.7508698,   87.8031311,           0.
    662,   21.7619209,   91.0746155,           0.
    663,    52.197216,   82.6518021,           0.
    664,   18.6855659,   91.3242035,           0.
    665,   43.0389824,   69.3551712,           0.
    666,   43.7904015,   72.5123749,           0.
    667,   40.0630112,   83.8391724,           0.
    668,   22.2427578,    74.721138,           0.
    669,   36.1153107,   84.1940613,           0.
    670,   27.0023689,   87.8346634,           0.
    671,   24.8200951,   84.8612671,           0.
    672,   30.6724625,   87.6734848,           0.
    673,   22.1936817,   78.7729187,           0.
    674,   20.4559212,   71.0731277,           0.
    675,   26.2120895,   74.3180771,           0.
    676,   31.9103851,    77.649437,           0.
    677,   37.3406448,   74.4938889,           0.
    678,   48.5777245,    80.931427,           0.
    679,   44.6552353,    83.420784,           0.
    680,   37.6811104,   80.6311264,           0.
    681,   28.5192623,   84.4572296,           0.
    682,   24.9494419,   77.2554321,           0.
    683,   23.3843422,   88.0380554,           0.
    684,   32.3216133,   84.3258591,           0.
    685,   25.8682556,   80.9156189,           0.
    686,   35.5143242,   77.6163101,           0.
    687,   28.1801414,   77.5827103,           0.
    688,   41.0161591,   75.2184296,           0.
    689,   51.8099327,   78.2642212,           0.
    690,   46.9088287,   73.7295761,           0.
    691,   44.5753365,   76.1875153,           0.
    692,   30.1327629,   80.9871521,           0.
    693,   48.0472374,   76.9823151,           0.
    694,   38.6746063,   77.4902954,           0.
    695,    33.945919,   80.9006577,           0.
    696,    41.758625,   79.4472885,           0.
    697,    45.522831,   79.3938675,           0.
    698,    106.90699,   3.14202547,           0.
    699,    103.28273,   3.14273763,           0.
    700,    99.658371,   3.14375997,           0.
    701,   96.0343781,   3.14476681,           0.
    702,   92.4106598,   3.14614058,           0.
    703,   88.7870331,   3.14859629,           0.
    704,    85.163353,   3.15227342,           0.
    705,   81.5395584,   3.15684485,           0.
    706,   77.9040527,   3.19642639,           0.
    707,   74.1481018,   3.33067179,           0.
    708,     70.18573,   3.38482189,           0.
    709,   127.094513,    49.894249,           0.
    710,   127.272507,   38.4189987,           0.
    711,   127.286751,    34.759922,           0.
    712,   127.290092,    31.100563,           0.
    713,    127.29171,   27.4415512,           0.
    714,   127.292984,   23.7826614,           0.
    715,   127.294167,   20.1237679,           0.
    716,   127.291367,   16.4579906,           0.
    717,   127.236519,   12.7043419,           0.
    718,   127.126869,   8.83930492,           0.
    719,   127.129387,    4.8556571,           0.
    720,   102.545311,   51.6608429,           0.
    721,   98.8233566,   51.6587181,           0.
    722,   95.0713348,   51.6311264,           0.
    723,   91.1495056,   51.5858917,           0.
    724,   86.9099274,   51.4421959,           0.
    725,   121.150658,   51.5543709,           0.
    726,   79.1044312,   40.9354134,           0.
    727,   72.1934052,   36.4902611,           0.
    728,   84.3929138,    47.806591,           0.
    729,   75.7508698,    38.358799,           0.
    730,   82.0184402,   44.1701088,           0.
    731,   68.5128403,   20.9258881,           0.
    732,   68.4730682,   24.7050438,           0.
    733,   68.3329697,   28.3579559,           0.
    734,   110.530701,   3.14227772,           0.
    735,   105.097061,   6.28871298,           0.
    736,   79.7605286,    6.3497591,           0.
    737,   83.3609467,   6.32298183,           0.
    738,   86.9797668,   6.30996132,           0.
    739,   90.6015701,   6.30186939,           0.
    740,   117.759995,   3.12475872,           0.
    741,   114.151138,   3.13968754,           0.
    742,   101.472244,   6.29105616,           0.
    743,   94.2240753,   6.29687595,           0.
    744,   97.8475952,   6.29415607,           0.
    745,   76.1396942,   6.46469831,           0.
    746,   121.334335,   3.11802983,           0.
    747,   124.402763,   2.89880133,           0.
    748,    127.24028,   42.0873184,           0.
    749,   124.100632,   36.5764809,           0.
    750,   124.010117,   10.7293882,           0.
    751,   124.123962,   18.2841568,           0.
    752,   127.115417,   45.8902588,           0.
    753,   124.113503,   32.9275246,           0.
    754,    124.11879,   29.2696018,           0.
    755,   124.122681,   25.6109352,           0.
    756,   124.125259,   21.9505234,           0.
    757,   124.093506,    14.521821,           0.
    758,   117.464706,   51.5288963,           0.
    759,   96.9562454,   48.4165688,           0.
    760,   109.990822,   51.6540718,           0.
    761,   106.267418,   51.6610413,           0.
    762,     100.6856,   48.4332619,           0.
    763,   93.0371933,   48.3332977,           0.
    764,   68.6312561,    35.306469,           0.
    765,   68.5646591,   17.0880013,           0.
    766,   71.7579117,   22.9036808,           0.
    767,   68.6282959,   13.2242012,           0.
    768,   68.5907974,   9.43201447,           0.
    769,   71.5995178,   26.7666359,           0.
    770,   68.2539673,   6.25279379,           0.
    771,   72.0410309,   7.05692196,           0.
    772,   123.530273,   6.56077766,           0.
    773,   71.7767715,   32.9605789,           0.
    774,   74.8158875,   9.43905735,           0.
    775,    112.32415,   6.27978945,           0.
    776,    115.93824,   6.37978315,           0.
    777,   119.585785,   6.41338015,           0.
    778,   96.0382538,   9.45123863,           0.
    779,   99.6635132,   9.44673157,           0.
    780,   103.289612,   9.44356728,           0.
    781,   92.4168701,   9.45877171,           0.
    782,   88.7969818,   9.47020531,           0.
    783,    85.178093,   9.48691463,           0.
    784,    81.594368,   9.51601791,           0.
    785,    77.981308,     9.583601,           0.
    786,   108.717392,   6.28724432,           0.
    787,   120.955513,   23.7771988,           0.
    788,   120.962723,   20.1073494,           0.
    789,   120.928337,   34.7421837,           0.
    790,   120.948578,   27.4370842,           0.
    791,   120.973053,   16.3335381,           0.
    792,   120.989174,   12.5384073,           0.
    793,   120.940117,   31.0941887,           0.
    794,    124.06852,   40.2110939,           0.
    795,   119.389618,   48.1065826,           0.
    796,   104.407562,    48.440094,           0.
    797,   113.729225,   51.5764313,           0.
    798,   95.0000229,   45.1296768,           0.
    799,   98.8128738,   45.1931915,           0.
    800,   108.131279,    48.432106,           0.
    801,   88.8433533,   48.0367889,           0.
    802,   71.8618927,   19.0256081,           0.
    803,   71.9836121,   11.2032537,           0.
    804,    75.005127,   25.0533447,           0.
    805,   72.0072708,   15.1162491,           0.
    806,   123.971382,   43.8733292,           0.
    807,    123.44355,    48.037159,           0.
    808,   83.4677582,   39.9201851,           0.
    809,   86.6829681,   43.9274979,           0.
    810,   75.4235992,   34.4161186,           0.
    811,   79.5038605,   36.3852348,           0.
    812,   75.7265167,   12.9769001,           0.
    813,   120.883224,   42.0142937,           0.
    814,    110.51046,   9.45164299,           0.
    815,   90.6160965,   12.6337118,           0.
    816,   83.3665085,   12.6877289,           0.
    817,   94.2339706,   12.6209764,           0.
    818,   114.038567,   9.57920361,           0.
    819,   79.7258072,   12.7033157,           0.
    820,   86.9943695,   12.6574354,           0.
    821,     117.8507,    10.152977,           0.
    822,   97.8576431,   12.6113634,           0.
    823,   101.484268,   12.6067772,           0.
    824,   106.911682,   9.44888878,           0.
    825,   121.193214,   9.27898598,           0.
    826,   117.768753,   29.2623501,           0.
    827,   117.779449,   25.6006546,           0.
    828,   117.888489,   14.3268213,           0.
    829,   117.770988,   18.1564903,           0.
    830,   117.788338,   21.9227085,           0.
    831,   117.739792,   32.9203949,           0.
    832,   120.902138,   38.3833122,           0.
    833,   115.596558,   48.1468964,           0.
    834,   111.834946,   48.3312759,           0.
    835,   102.548645,   45.2143021,           0.
    836,   106.271561,   45.2209015,           0.
    837,   96.9378204,   41.9495888,           0.
    838,   91.0698853,   44.9080086,           0.
    839,   74.9586868,   29.7228012,           0.
    840,   75.1947021,    21.053278,           0.
    841,   124.288986,   51.8505974,           0.
    842,   75.3429108,   17.1409607,           0.
    843,   121.050751,   45.2706642,           0.
    844,   117.604202,   44.3799324,           0.
    845,   117.701469,   40.3308525,           0.
    846,   108.708618,     12.64007,           0.
    847,   81.4559708,   15.8101292,           0.
    848,   92.4366531,    15.801774,           0.
    849,   88.8201675,   15.8262224,           0.
    850,   85.1447983,   15.8257113,           0.
    851,   96.0569687,   15.7865734,           0.
    852,   112.238724,   12.7011919,           0.
    853,   115.275406,   12.5728645,           0.
    854,   99.6812515,    15.772439,           0.
    855,   105.104538,   12.6195116,           0.
    856,   114.597092,   27.4240322,           0.
    857,    114.52404,   23.7292004,           0.
    858,    114.56826,   31.0734024,           0.
    859,   114.301353,   16.0306988,           0.
    860,   114.517235,   20.0072632,           0.
    861,   117.631348,   36.6408348,           0.
    862,   109.955643,   45.1492577,           0.
    863,   100.689453,   41.9836655,           0.
    864,   104.416595,   41.9764709,           0.
    865,    93.063858,   41.9379158,           0.
    866,   113.638374,   44.9855461,           0.
    867,    71.008255,   29.9203701,           0.
    868,   78.5564499,   23.1498337,           0.
    869,   79.0632858,   19.0481052,           0.
    870,   78.2629013,    15.535882,           0.
    871,   114.954872,   42.0652122,           0.
    872,   114.026413,   38.6360779,           0.
    873,    106.89682,   15.7148609,           0.
    874,   90.6495972,   18.9987011,           0.
    875,   86.9267731,   18.9755459,           0.
    876,   83.1536713,   18.8952923,           0.
    877,   94.2645721,   18.9739017,           0.
    878,   110.442101,   15.7047262,           0.
    879,   97.8814163,   18.9445763,           0.
    880,   103.294456,   15.7318249,           0.
    881,    111.36927,   25.6406593,           0.
    882,   111.415726,   29.2448425,           0.
    883,   110.918907,   21.7797527,           0.
    884,   68.3684387,    31.869257,           0.
    885,   114.499496,   34.6756096,           0.
    886,   89.7364807,   42.0103798,           0.
    887,    94.914032,   38.7248573,           0.
    888,   108.122162,   41.9419899,           0.
    889,   102.541611,    38.732048,           0.
    890,   98.8039246,   38.7459488,           0.
    891,   111.784172,     41.91605,           0.
    892,    111.62529,   35.9766197,           0.
    893,   88.7212448,   22.1491108,           0.
    894,   84.8900528,   22.0309467,           0.
    895,   92.4457626,   22.1618309,           0.
    896,   105.113693,   18.7729149,           0.
    897,   96.0928497,   22.1365147,           0.
    898,    101.49157,   18.8730278,           0.
    899,   108.629837,   24.2911835,           0.
    900,   108.304314,   27.3254147,           0.
    901,   111.425735,   32.8425865,           0.
    902,   96.7967529,   35.4216309,           0.
    903,   106.256874,   38.6475296,           0.
    904,    100.53965,   35.4472923,           0.
    905,   90.5354691,   38.6783333,           0.
    906,   108.699448,   18.6925926,           0.
    907,   81.5991135,   21.6599102,           0.
    908,    111.77581,   18.4430065,           0.
    909,   87.4038544,   40.3992729,           0.
    910,   86.6298676,   37.2570267,           0.
    911,   86.7713318,   25.3209972,           0.
    912,   90.6472855,   25.3539848,           0.
    913,   108.218712,   35.0459938,           0.
    914,   103.459305,    21.932291,           0.
    915,   94.3728561,   25.3821316,           0.
    916,    105.64135,   24.9059277,           0.
    917,   99.7952576,   22.0851307,           0.
    918,   108.267738,   30.9942551,           0.
    919,     110.0056,   38.6940422,           0.
    920,    104.24736,   35.4482231,           0.
    921,    98.489418,   32.0779228,           0.
    922,    92.846077,   35.2248192,           0.
    923,   82.3170547,   25.3550434,           0.
    924,   88.9333191,    28.578186,           0.
    925,   92.6875839,   28.6299591,           0.
    926,   101.944481,   25.3063259,           0.
    927,   105.511589,   32.5115852,           0.
    928,   107.077087,   21.7291107,           0.
    929,   98.1406784,   25.3869839,           0.
    930,   104.593536,     28.85079,           0.
    931,   102.268677,   32.1763687,           0.
    932,   94.7141953,   31.9704323,           0.
    933,   89.0845566,    34.808567,           0.
    934,   78.3330841,   27.1171665,           0.
    935,   83.4840088,   35.5357094,           0.
    936,   86.1296616,   34.2881889,           0.
    937,   100.307487,   28.7479649,           0.
    938,   81.2801895,   33.2148209,           0.
    939,   90.9412231,   31.8161926,           0.
    940,    96.452034,   28.6992321,           0.
    941,   81.0849075,     29.77281,           0.
    942,   85.0927505,   28.8111115,           0.
    943,   78.4036789,   32.1936378,           0.
    944,   84.0755234,   32.2179718,           0.
    945,   78.1950912,   29.7016029,           0.
    946,   87.3761749,   31.7533703,           0.
    947,   48.6096764,   44.2855873,           0.
    948,   46.3127289,   47.7137032,           0.
    949,   61.9495201,   20.9258556,           0.
    950,   51.1387215,   41.0368118,           0.
    951,   61.9237709,   24.7589855,           0.
    952,    54.067482,   37.7005119,           0.
    953,   61.8809967,   28.7073135,           0.
    954,   61.6869431,   32.9680138,           0.
    955,   57.6646538,   35.2401924,           0.
    956,   27.9164219,   51.6614723,           0.
    957,     31.64851,   51.6575356,           0.
    958,   35.5053024,    51.602211,           0.
    959,   39.4792442,   51.4403687,           0.
    960,   43.6655846,   51.2860069,           0.
    961,   3.16808295,   20.1238632,           0.
    962,     3.169137,   23.7826862,           0.
    963,   3.17037058,   27.4415474,           0.
    964,   3.17176342,   31.1004047,           0.
    965,   3.17314863,   34.7592926,           0.
    966,   3.17928123,   38.4242744,           0.
    967,    3.2425952,    42.168354,           0.
    968,     3.375247,   46.0222282,           0.
    969,    3.3985939,   50.0065536,           0.
    970,   60.2648926,   3.39548635,           0.
    971,   56.3129997,   3.34128928,           0.
    972,   52.5626411,   3.20091701,           0.
    973,   48.9240761,   3.16144013,           0.
    974,   45.2988739,    3.1497488,           0.
    975,   41.6748543,   3.14677429,           0.
    976,   38.0510864,   3.14536977,           0.
    977,   34.4272232,   3.14450741,           0.
    978,   30.8032703,   3.14384127,           0.
    979,   27.1793156,   3.14310384,           0.
    980,   23.5553951,    3.1426599,           0.
    981,   19.9315777,   3.14278221,           0.
    982,   16.3080044,   3.14484191,           0.
    983,   12.6658058,   3.17567015,           0.
    984,    8.8937397,   3.27911782,           0.
    985,   4.93190241,   3.29714632,           0.
    986,   10.8560638,   6.38773251,           0.
    987,   14.5009518,   6.31815815,           0.
    988,   54.4266014,   6.51711226,           0.
    989,    36.238636,   6.29420996,           0.
    990,     47.10672,   6.31138182,           0.
    991,    28.990736,   6.29059315,           0.
    992,   50.7677307,   6.37879944,           0.
    993,   43.4846306,   6.30293703,           0.
    994,   39.8617973,   6.29848909,           0.
    995,   32.6146049,   6.29303885,           0.
    996,   25.3668423,   6.28952408,           0.
    997,   21.7432213,   6.28890276,           0.
    998,   18.1205864,   6.29434633,           0.
    999,   3.23497725,   16.4468365,           0.
   1000,   6.53019619,   44.1401901,           0.
   1001,   6.35740137,   36.5956001,           0.
   1002,    6.3488307,    32.929924,           0.
   1003,    6.3401823,   25.6110191,           0.
   1004,   6.41133308,   40.3489075,           0.
   1005,   3.29600286,    9.1265316,           0.
   1006,   2.99038434,   6.05648518,           0.
   1007,   3.31846404,   12.7722282,           0.
   1008,   6.33710814,   21.9520149,           0.
   1009,   6.34408665,   29.2698193,           0.
   1010,   24.1941757,   51.6634026,           0.
   1011,   16.7494144,   51.6675568,           0.
   1012,   20.4718533,   51.6653214,           0.
   1013,   29.7923679,   48.4395676,           0.
   1014,   37.4481735,   48.2265015,           0.
   1015,    13.034174,   51.6961212,           0.
   1016,   9.34883118,   51.7224236,           0.
   1017,   6.19937801,   51.9616966,           0.
   1018,   33.5817413,   48.4117584,           0.
   1019,    61.951107,   17.1143761,           0.
   1020,   58.6648445,   22.8341675,           0.
   1021,   58.6049194,   26.7097664,           0.
   1022,   61.9388657,   9.49710751,           0.
   1023,   61.9566765,   13.2901621,           0.
   1024,    58.525116,   7.12001514,           0.
   1025,   6.75535059,   6.89004374,           0.
   1026,   7.06942797,   48.2987862,           0.
   1027,   55.8542557,   9.51800537,           0.
   1028,   34.4249153,   9.44821167,           0.
   1029,   38.0479584,   9.45351696,           0.
   1030,   19.9302845,   9.43656254,           0.
   1031,   16.3132725,    9.4349041,           0.
   1032,   23.5538425,   9.43908691,           0.
   1033,   30.8010387,   9.44526482,           0.
   1034,   27.1773548,   9.44239235,           0.
   1035,   41.6699791,   9.46049404,           0.
   1036,   12.6874809,   9.41527271,           0.
   1037,   48.9673386,    9.5262146,           0.
   1038,   45.3033028,   9.48121166,           0.
   1039,   52.6357079,   9.61920547,           0.
   1040,   9.47813892,   9.23719215,           0.
   1041,   6.44303894,   18.2901001,           0.
   1042,   6.64947367,   10.8720026,           0.
   1043,   9.51469994,   27.4372063,           0.
   1044,   9.52200222,   31.0961475,           0.
   1045,   9.51182842,   23.7796612,           0.
   1046,   9.55753613,   38.5370827,           0.
   1047,    9.5339632,   34.7851372,           0.
   1048,   9.59357452,   42.3356476,           0.
   1049,   6.62890577,   14.5872574,           0.
   1050,   26.0577011,   48.4442863,           0.
   1051,   18.6236763,   48.4451103,           0.
   1052,   11.1145258,    48.437027,           0.
   1053,   14.8683701,   48.3627892,           0.
   1054,   35.3619347,   45.1489067,           0.
   1055,   31.6547108,   45.2074318,           0.
   1056,   22.3371544,   48.4461479,           0.
   1057,   58.3901253,   30.7411919,           0.
   1058,   58.6824341,   19.0271854,           0.
   1059,   58.6532173,   11.2755632,           0.
   1060,    55.382267,   24.7255917,           0.
   1061,   58.6016388,   15.1527929,           0.
   1062,   41.7792358,   47.4681931,           0.
   1063,   54.9133911,   13.0031471,           0.
   1064,   10.3334551,   12.6249599,           0.
   1065,   50.8652039,   12.6999674,           0.
   1066,   43.4886627,   12.6401701,           0.
   1067,   14.3556242,   12.5792933,           0.
   1068,   18.0376396,   12.6742973,           0.
   1069,   39.8574867,   12.6248426,           0.
   1070,   25.3620834,   12.5978146,           0.
   1071,   21.7171459,   12.6216116,           0.
   1072,   36.2328186,   12.6149836,           0.
   1073,    28.986311,   12.6016741,           0.
   1074,   32.6093941,   12.6082478,           0.
   1075,   47.1870346,   12.6696119,           0.
   1076,   12.7061043,   32.9342308,           0.
   1077,   12.7764463,   40.5510178,           0.
   1078,   12.6947231,   29.2625294,           0.
   1079,   9.58590603,   20.1396255,           0.
   1080,   12.8157101,   36.7264633,           0.
   1081,   9.74189377,   16.5374069,           0.
   1082,   12.7180882,   25.6088829,           0.
   1083,   9.43524075,   45.5886192,           0.
   1084,    27.920042,   45.2244034,           0.
   1085,   12.8724966,   44.6775131,           0.
   1086,   16.8357983,   45.1737785,           0.
   1087,   20.4985237,   45.2294731,           0.
   1088,   33.4618683,   42.0054703,           0.
   1089,    24.198988,   45.2303581,           0.
   1090,   55.2752571,   28.5291481,           0.
   1091,   55.3079147,   20.9150524,           0.
   1092,   55.2377892,   17.0956326,           0.
   1093,   62.2380486,   6.28499842,           0.
   1094,    44.811821,    44.410881,           0.
   1095,   49.7548294,   37.5503387,           0.
   1096,   46.7611618,   40.7617455,           0.
   1097,   41.8767815,   44.1167374,           0.
   1098,   49.0956421,   15.7418957,           0.
   1099,    45.367794,   15.7655306,           0.
   1100,   41.6815529,    15.790103,           0.
   1101,   16.0564899,   16.2045403,           0.
   1102,   19.9745102,   15.7937155,           0.
   1103,   27.1718864,   15.7622194,           0.
   1104,   38.0418015,   15.7878189,           0.
   1105,   23.5687714,   15.7618093,           0.
   1106,   30.7935505,   15.7697258,           0.
   1107,   34.4157753,   15.7796822,           0.
   1108,   15.8805752,   31.0836964,           0.
   1109,   15.9548502,   34.7402153,           0.
   1110,   16.4281769,   38.7299232,           0.
   1111,   12.7905264,   18.3716831,           0.
   1112,    15.953248,   27.4092617,           0.
   1113,   12.7708311,   21.9759026,           0.
   1114,   37.1030769,   41.9068375,           0.
   1115,   29.7666073,   42.0025978,           0.
   1116,   22.3407421,   41.9941597,           0.
   1117,   18.6759052,   42.0272598,           0.
   1118,    15.517765,   42.2318993,           0.
   1119,   26.0499496,   41.9813843,           0.
   1120,   52.0898399,   26.4097919,           0.
   1121,   55.0190277,   32.2411194,           0.
   1122,   52.0442009,   22.8075256,           0.
   1123,   51.4820137,    18.902729,           0.
   1124,   47.3614159,   18.8690586,           0.
   1125,   43.6110497,   19.0019798,           0.
   1126,   39.8813095,    18.981987,           0.
   1127,   18.5955772,   18.5337524,           0.
   1128,   21.6043377,   18.9206543,           0.
   1129,   25.2284355,   19.0813217,           0.
   1130,    28.936924,   18.9868031,           0.
   1131,   36.2268982,    18.962513,           0.
   1132,   32.5889549,   18.9605961,           0.
   1133,   12.6555977,   15.2635765,           0.
   1134,   19.0626469,   32.8614235,           0.
   1135,   18.8368187,   36.0336151,           0.
   1136,   15.8971758,   20.0863113,           0.
   1137,   19.2061749,    29.179285,           0.
   1138,   15.9705362,   23.6967793,           0.
   1139,   52.3188095,   15.4886742,           0.
   1140,    39.019207,   44.7782784,           0.
   1141,   31.6040592,   38.7862015,           0.
   1142,   35.3187637,   38.7490158,           0.
   1143,   24.2025852,   38.6794205,           0.
   1144,   27.9254265,   38.7530251,           0.
   1145,   49.0259857,   24.4607162,           0.
   1146,   51.9499092,   30.0606785,           0.
   1147,   49.1235619,   21.4912663,           0.
   1148,   45.8131409,   22.4933681,           0.
   1149,   41.7570801,   22.2640018,           0.
   1150,    38.043869,   22.1773834,           0.
   1151,   22.9342613,   22.8491631,           0.
   1152,   34.3970757,    22.146698,           0.
   1153,   27.0418892,   22.3195858,           0.
   1154,   30.7316742,   22.1978645,           0.
   1155,   22.3216171,   35.0696411,           0.
   1156,   22.4298077,   30.9753208,           0.
   1157,   19.3042793,   25.3298035,           0.
   1158,   51.7044296,   34.0396843,           0.
   1159,   20.4676418,   38.7556686,           0.
   1160,   29.9075222,   35.4938393,           0.
   1161,    39.150074,   38.6816254,           0.
   1162,   26.3095856,   35.4726334,           0.
   1163,   33.6239243,   35.4471054,           0.
   1164,   48.9576035,   27.8068943,           0.
   1165,   47.5645027,   34.7030678,           0.
   1166,   43.5759201,   25.5862598,           0.
   1167,   39.8931541,   25.4797726,           0.
   1168,   36.1471481,   25.4200821,           0.
   1169,   19.0510273,   21.5694103,           0.
   1170,    25.537365,   25.3524647,           0.
   1171,   32.4278717,   25.4566879,           0.
   1172,   28.7185287,    25.507103,           0.
   1173,   22.6075802,   27.1009331,           0.
   1174,   32.0099487,    32.122654,           0.
   1175,    28.322052,    32.236145,           0.
   1176,   37.5173836,   35.4176674,           0.
   1177,   54.6138992,    34.805378,           0.
   1178,   25.1233311,   32.5346603,           0.
   1179,   26.1539211,   28.9290123,           0.
   1180,   46.3682594,   37.4804802,           0.
   1181,   41.8353767,   28.8023987,           0.
   1182,   37.9087868,   28.7658119,           0.
   1183,   34.0928535,   28.7694607,           0.
   1184,    30.287529,   28.8368435,           0.
   1185,   46.6154099,   25.8053474,           0.
   1186,   48.3472061,   31.2574806,           0.
   1187,   35.8179932,   32.1074905,           0.
   1188,   41.3976173,   35.4773102,           0.
   1189,   45.5889854,   28.5855732,           0.
   1190,   44.1612129,   32.3730202,           0.
   1191,   43.1691437,    38.835228,           0.
   1192,   39.7730637,   32.1572838,           0.
   1193,   43.4329872,   41.9854164,           0.
   1194,   40.6252098,   41.7173538,           0.
   1195,   44.5321465,   35.7738228,           0.
*Element, type=S3
  1, 316, 277, 313
  2, 314, 276, 278
  3, 218,  48, 217
  4, 204, 203,  26
  5, 404, 380, 403
  6, 349,  13,  14
  7, 277,  17, 205
  8, 205,  17,  18
  9, 206,  25, 203
 10, 229,  66,  67
 11, 207, 205,  18
 12, 208,  24, 206
 13, 210, 209,  20
 14, 210,  21,  22
 15,  21,   2,  22
 16,  27,   3,  28
 17, 234,  62, 233
 18, 211, 210,  22
 19,  39,   4,  40
 20, 225,  40,  41
 21, 256, 224, 223
 22, 257, 222, 221
 23, 258, 221, 220
 24, 270, 268,  36
 25, 269,  35, 268
 26, 266,  33,  34
 27, 213,  32, 212
 28, 271, 267, 213
 29, 214,  31, 213
 30, 216,  28,  29
 31,  54,  53,   5
 32, 241,  54,  55
 33, 242, 240, 239
 34, 254, 238, 237
 35, 280, 265, 263
 36, 255,  49,  50
 37, 425, 392, 383
 38, 219,  47, 218
 39, 220,  46, 219
 40, 221,  45, 220
 41, 222,  44, 221
 42, 223,  43, 222
 43, 224,  42, 223
 44, 225,  41, 224
 45,  70,   1,  13
 46, 226,  70,  13
 47, 227,  69, 226
 48, 227,  68,  69
 49, 244, 228, 227
 50, 229,  67, 228
 51, 245, 233, 232
 52, 231,  65, 230
 53, 232,  64, 231
 54, 233,  63, 232
 55, 235,  61, 234
 56, 236,  60, 235
 57, 237,  59, 236
 58, 238,  58, 237
 59, 239,  57, 238
 60, 240,  56, 239
 61, 241,  55, 240
 62, 203,  25,  26
 63, 204,  26,  27
 64, 216,  27,  28
 65, 215,  30, 214
 66, 207,  18,  19
 67, 293, 291, 248
 68, 283, 282, 245
 69, 206,  24,  25
 70, 209,  19,  20
 71, 275, 274, 207
 72, 208,  23,  24
 73, 246, 230, 229
 74, 209, 207,  19
 75, 210,  20,  21
 76, 211,  22,  23
 77, 312, 210, 211
 78, 211,  23, 208
 79, 331, 322, 292
 80, 212,  32,  33
 81, 285, 254, 284
 82, 267, 214, 213
 83, 213,  31,  32
 84, 272, 214, 267
 85, 214,  30,  31
 86, 317, 215, 272
 87, 215,  29,  30
 88, 216, 204,  27
 89, 216,  29, 215
 90, 217,  48,  49
 91, 247, 235, 234
 92, 295, 217, 255
 93, 218,  47,  48
 94, 258, 257, 221
 95, 219,  46,  47
 96, 308, 270, 307
 97, 220,  45,  46
 98, 339, 307, 318
 99, 221,  44,  45
100, 262, 223, 222
101, 222,  43,  44
102, 273, 270,  37
103, 223,  42,  43
104, 318, 224, 256
105, 224,  41,  42
106, 306,  39, 225
107, 225,  39,  40
108, 226,  69,  70
109, 276,  14,  15
110, 278,  16, 277
111, 228,  68, 227
112, 248, 228, 244
113, 228,  67,  68
114, 274, 205, 207
115, 230,  66, 229
116, 249, 230, 246
117, 230,  65,  66
118, 379, 348, 347
119, 231,  64,  65
120, 396, 317, 272
121, 232,  63,  64
122, 251, 233, 245
123, 233,  62,  63
124, 251, 247, 234
125, 234,  61,  62
126, 252, 235, 247
127, 235,  60,  61
128, 448, 444, 432
129, 236,  59,  60
130, 243, 242, 239
131, 237,  58,  59
132, 259, 255,  50
133, 238,  57,  58
134, 265,  51,  52
135, 239,  56,  57
136, 280, 240, 242
137, 240,  55,  56
138, 263,  53, 241
139, 241,  53,  54
140, 243, 239, 238
141, 290, 243, 285
142, 253, 236, 252
143, 320, 296, 294
144, 279, 227, 226
145, 293, 244, 281
146, 250, 232, 231
147, 449, 447, 352
148, 248, 246, 229
149, 325, 289, 322
150, 251, 234, 233
151, 365, 332, 364
152, 248, 229, 228
153, 319, 314, 316
154, 289, 283, 250
155, 249, 231, 230
156, 250, 245, 232
157, 250, 231, 249
158, 310, 309, 267
159, 287, 251, 282
160, 298, 264, 297
161, 252, 236, 235
162, 284, 254, 253
163, 253, 237, 236
164, 254, 243, 238
165, 254, 237, 253
166, 255, 217,  49
167, 259,  50,  51
168, 301, 258, 298
169, 270,  36,  37
170, 264, 220, 219
171, 332, 301, 298
172, 261, 219, 218
173, 394, 369, 392
174, 265,  52, 263
175, 389, 367, 336
176, 261, 218, 260
177, 260, 218, 217
178, 299, 297, 261
179, 299, 261, 260
180, 262, 256, 223
181, 262, 222, 257
182, 263,  52,  53
183, 280, 241, 240
184, 264, 258, 220
185, 264, 219, 261
186, 296, 280, 294
187, 265, 259,  51
188, 266, 212,  33
189, 269,  34,  35
190, 396, 353, 317
191, 271, 213, 212
192, 268,  35,  36
193, 302, 262, 300
194, 300, 262, 257
195, 269, 266,  34
196, 273,  37,  38
197, 335, 301, 332
198, 304, 212, 266
199, 419, 399, 411
200, 317, 216, 215
201, 272, 215, 214
202, 306, 273,  38
203, 318, 273, 306
204, 275, 207, 209
205, 315, 274, 275
206, 312, 209, 210
207, 312, 275, 209
208, 349, 276, 279
209, 278,  15,  16
210, 277,  16,  17
211, 313, 205, 274
212, 314, 279, 276
213, 278, 276,  15
214, 279, 244, 227
215, 349, 279, 226
216, 280, 263, 241
217, 294, 242, 290
218, 321, 293, 319
219, 281, 244, 279
220, 282, 251, 245
221, 283, 245, 250
222, 289, 250, 249
223, 328, 283, 325
224, 286, 253, 252
225, 286, 284, 253
226, 320, 303, 296
227, 285, 243, 254
228, 288, 252, 247
229, 338, 334, 297
230, 287, 247, 251
231, 330, 282, 328
232, 288, 286, 252
233, 288, 247, 287
234, 292, 249, 246
235, 356, 322, 355
236, 323, 320, 290
237, 290, 242, 243
238, 291, 246, 248
239, 331, 291, 321
240, 292, 289, 249
241, 292, 246, 291
242, 293, 248, 244
243, 319, 281, 314
244, 320, 294, 290
245, 294, 280, 242
246, 295, 260, 217
247, 303, 255, 259
248, 296, 259, 265
249, 296, 265, 280
250, 373, 372, 343
251, 297, 264, 261
252, 366, 335, 365
253, 298, 258, 264
254, 337, 260, 295
255, 324, 323, 285
256, 341, 307, 339
257, 301, 300, 257
258, 301, 257, 258
259, 390, 365, 364
260, 374, 341, 333
261, 302, 256, 262
262, 303, 295, 255
263, 303, 259, 296
264, 304, 271, 212
265, 311, 266, 269
266, 305, 269, 268
267, 333, 302, 300
268, 306,  38,  39
269, 318, 306, 225
270, 307, 270, 273
271, 318, 307, 273
272, 308, 305, 268
273, 308, 268, 270
274, 309, 272, 267
275, 310, 267, 271
276, 340, 271, 304
277, 409, 407, 385
278, 311, 304, 266
279, 311, 269, 305
280, 433, 377, 211
281, 346, 315, 275
282, 313, 277, 205
283, 347, 274, 315
284, 314, 281, 279
285, 316, 314, 278
286, 346, 275, 312
287, 401, 378, 376
288, 316, 278, 277
289, 348, 316, 313
290, 351, 204, 317
291, 317, 204, 216
292, 318, 225, 224
293, 339, 318, 256
294, 347, 313, 274
295, 319, 293, 281
296, 336, 303, 320
297, 323, 290, 285
298, 354, 331, 321
299, 321, 291, 293
300, 414, 402, 377
301, 322, 289, 292
302, 324, 285, 284
303, 389, 357, 367
304, 327, 284, 286
305, 368, 364, 334
306, 352, 203, 351
307, 325, 283, 289
308, 326, 286, 288
309, 329, 288, 287
310, 327, 324, 284
311, 327, 286, 326
312, 360, 325, 356
313, 328, 282, 283
314, 329, 326, 288
315, 330, 329, 287
316, 330, 287, 282
317, 363, 328, 360
318, 331, 292, 291
319, 395, 354, 321
320, 334, 298, 297
321, 334, 332, 298
322, 342, 308, 341
323, 335, 333, 300
324, 338, 297, 299
325, 425, 407, 413
326, 335, 300, 301
327, 364, 332, 334
328, 337, 295, 336
329, 336, 295, 303
330, 357, 323, 324
331, 337, 299, 260
332, 369, 299, 337
333, 358, 357, 324
334, 339, 256, 302
335, 341, 339, 302
336, 340, 310, 271
337, 345, 304, 311
338, 341, 308, 307
339, 341, 302, 333
340, 343, 305, 342
341, 342, 305, 308
342, 415, 411, 399
343, 343, 311, 305
344, 344, 309, 310
345, 371, 310, 340
346, 345, 340, 304
347, 345, 311, 343
348, 377, 346, 312
349, 350, 208, 206
350, 348, 313, 347
351, 378, 315, 376
352, 395, 319, 348
353, 348, 319, 316
354, 349, 226,  13
355, 349,  14, 276
356, 352, 206, 203
357, 380, 354, 379
358, 353, 351, 317
359, 351, 203, 204
360, 404, 403, 401
361, 352, 350, 206
362, 370, 309, 344
363, 450, 396, 370
364, 376, 315, 346
365, 355, 331, 354
366, 416, 370, 398
367, 355, 322, 331
368, 382, 356, 381
369, 356, 325, 322
370, 389, 336, 320
371, 358, 324, 327
372, 361, 327, 326
373, 386, 385, 359
374, 359, 326, 329
375, 362, 329, 330
376, 410, 388, 408
377, 360, 328, 325
378, 361, 358, 327
379, 361, 326, 359
380, 362, 359, 329
381, 363, 362, 330
382, 363, 330, 328
383, 387, 360, 382
384, 415, 399, 372
385, 368, 334, 338
386, 374, 373, 342
387, 365, 335, 332
388, 374, 366, 373
389, 366, 333, 335
390, 369, 337, 367
391, 367, 337, 336
392, 394, 338, 369
393, 384, 383, 358
394, 369, 338, 299
395, 392, 357, 383
396, 408, 387, 406
397, 450, 416, 447
398, 371, 344, 310
399, 375, 340, 345
400, 372, 345, 343
401, 391, 365, 390
402, 373, 343, 342
403, 415, 366, 391
404, 374, 342, 341
405, 374, 333, 366
406, 375, 371, 340
407, 375, 345, 372
408, 402, 346, 377
409, 446, 445, 442
410, 377, 312, 211
411, 414, 208, 350
412, 403, 379, 378
413, 378, 347, 315
414, 395, 379, 354
415, 379, 347, 378
416, 381, 355, 380
417, 380, 355, 354
418, 441, 422, 404
419, 381, 356, 355
420, 398, 344, 397
421, 382, 360, 356
422, 383, 357, 358
423, 384, 358, 361
424, 385, 361, 359
425, 385, 384, 361
426, 386, 359, 362
427, 440, 430, 431
428, 388, 362, 363
429, 418, 417, 397
430, 387, 363, 360
431, 405, 381, 404
432, 388, 386, 362
433, 388, 363, 387
434, 389, 320, 323
435, 389, 323, 357
436, 393, 364, 368
437, 393, 390, 364
438, 415, 373, 366
439, 391, 366, 365
440, 392, 369, 367
441, 392, 367, 357
442, 413, 368, 394
443, 407, 384, 385
444, 425, 413, 394
445, 394, 368, 338
446, 395, 321, 319
447, 395, 348, 379
448, 396, 272, 309
449, 396, 309, 370
450, 397, 344, 371
451, 400, 371, 375
452, 406, 382, 405
453, 398, 370, 344
454, 399, 375, 372
455, 411, 391, 390
456, 400, 397, 371
457, 400, 375, 399
458, 420, 376, 402
459, 436, 421, 350
460, 442, 402, 414
461, 402, 376, 346
462, 403, 380, 379
463, 403, 378, 401
464, 437, 423, 422
465, 404, 381, 380
466, 423, 405, 422
467, 405, 382, 381
468, 424, 406, 423
469, 406, 387, 382
470, 429, 407, 426
471, 409, 385, 386
472, 431, 430, 418
473, 408, 388, 387
474, 410, 409, 386
475, 435, 429, 426
476, 410, 386, 388
477, 427, 408, 424
478, 412, 390, 393
479, 412, 411, 390
480, 429, 393, 413
481, 435, 434, 412
482, 413, 393, 368
483, 425, 394, 392
484, 433, 414, 377
485, 436, 350, 352
486, 415, 372, 373
487, 415, 391, 411
488, 450, 447, 449
489, 432, 398, 417
490, 417, 398, 397
491, 418, 397, 400
492, 419, 418, 400
493, 440, 435, 428
494, 419, 400, 399
495, 434, 411, 412
496, 420, 401, 376
497, 442, 414, 421
498, 421, 414, 350
499, 446, 437, 445
500, 422, 405, 404
501, 441, 404, 401
502, 438, 423, 437
503, 423, 406, 405
504, 448, 443, 438
505, 424, 408, 406
506, 425, 383, 384
507, 425, 384, 407
508, 426, 407, 409
509, 428, 409, 410
510, 439, 427, 424
511, 427, 410, 408
512, 428, 426, 409
513, 428, 410, 427
514, 429, 412, 393
515, 429, 413, 407
516, 430, 417, 418
517, 431, 418, 419
518, 434, 431, 419
519, 440, 431, 435
520, 432, 416, 398
521, 443, 417, 430
522, 433, 211, 208
523, 433, 208, 414
524, 434, 419, 411
525, 435, 412, 429
526, 435, 426, 428
527, 435, 431, 434
528, 447, 436, 352
529, 444, 416, 432
530, 445, 422, 441
531, 451, 446, 421
532, 443, 439, 438
533, 438, 424, 423
534, 440, 439, 430
535, 439, 424, 438
536, 440, 428, 427
537, 440, 427, 439
538, 441, 401, 420
539, 445, 441, 420
540, 442, 420, 402
541, 451, 421, 436
542, 443, 432, 417
543, 443, 430, 439
544, 451, 447, 444
545, 448, 432, 443
546, 445, 437, 422
547, 445, 420, 442
548, 446, 442, 421
549, 448, 446, 444
550, 449, 352, 351
551, 447, 416, 444
552, 448, 438, 437
553, 448, 437, 446
554, 449, 351, 353
555, 450, 449, 353
556, 450, 353, 396
557, 450, 370, 416
558, 451, 436, 447
559, 451, 444, 446
 560, 520, 481, 119
 561, 484, 118, 481
 562, 488,  17,  16
 563, 550, 464, 504
 564, 596, 102, 103
 565, 542, 452, 490
 566,  13,   1,  71
 567, 462,  71,  72
 568, 496, 459, 458
 569, 526, 525, 488
 570, 497, 496, 458
 571, 498, 497, 457
 572, 489, 486,  19
 573, 486,  20,  19
 574, 520, 119,   2
 575,  87,   6,  88
 576, 473,  88,  89
 577, 532, 531, 492
 578, 683, 670, 650
 579, 493,  85,  86
 580, 533, 493, 528
 581, 490,  82,  83
 582, 453,  81, 452
 583, 454,  80, 453
 584, 455,  79, 454
 585, 456,  78, 455
 586, 457,  77, 456
 587, 458,  76, 457
 588, 459,  75, 458
 589, 460,  74, 459
 590, 461,  73, 460
 591, 462,  72, 461
 592, 102, 101,   7
 593, 463, 101, 102
 594, 474, 103, 104
 595, 504, 464,  98
 596, 504,  98,  99
 597, 465,  97, 464
 598, 466,  96, 465
 599, 467,  95, 466
 600, 468,  94, 467
 601, 469,  93, 468
 602, 470,  92, 469
 603, 471,  91, 470
 604, 472,  90, 471
 605, 473,  89, 472
 606, 599, 569, 562
 607, 550, 505, 464
 608, 590, 515, 556
 609, 515, 106, 107
 610, 516, 108, 475
 611, 475, 108, 109
 612, 464,  97,  98
 613, 479, 110, 111
 614, 476, 475, 109
 615, 478, 112, 113
 616, 478, 113, 114
 617, 113,   8, 114
 618, 520,   2,  21
 619, 499, 453, 495
 620, 478, 477, 112
 621, 452,  81,  82
 622, 588, 550, 569
 623, 536, 535, 499
 624, 453,  80,  81
 625, 501, 500, 455
 626, 454,  79,  80
 627, 501, 454, 499
 628, 455,  78,  79
 629, 595, 567, 529
 630, 456,  77,  78
 631, 488,  16, 487
 632, 457,  76,  77
 633, 521,  15,  14
 634, 458,  75,  76
 635, 521, 487,  15
 636, 459,  74,  75
 637, 598, 597, 560
 638, 460,  73,  74
 639, 527, 461, 502
 640, 461,  72,  73
 641, 522,  13, 462
 642, 462,  13,  71
 643, 508, 100, 463
 644, 463, 100, 101
 645, 590, 589, 553
 646, 482, 116, 480
 647, 509, 465, 505
 648, 465,  96,  97
 649, 510, 466, 509
 650, 466,  95,  96
 651, 549, 509, 545
 652, 467,  94,  95
 653, 586, 543, 583
 654, 468,  93,  94
 655, 532, 492, 491
 656, 469,  92,  93
 657, 507, 470, 469
 658, 470,  91,  92
 659, 493, 491,  85
 660, 471,  90,  91
 661, 533, 532, 491
 662, 472,  89,  90
 663, 494,  87, 473
 664, 473,  87,  88
 665, 596, 474, 563
 666, 514, 104, 105
 667, 476, 109, 110
 668, 517, 475, 476
 669, 594, 518, 557
 670, 519, 479, 518
 671, 477, 111, 112
 672, 557, 477, 478
 673, 483, 114, 115
 674, 482, 115, 116
 675, 479, 476, 110
 676, 479, 111, 477
 677, 480, 116, 117
 678, 484, 117, 118
 679, 481, 118, 119
 680, 489,  18, 485
 681, 557, 478, 483
 682, 557, 518, 477
 683, 483, 478, 114
 684, 483, 115, 482
 685, 539, 497, 538
 686, 484, 480, 117
 687, 485,  18,  17
 688, 525, 485, 488
 689, 638, 624, 529
 690, 489,  19,  18
 691, 487,  16,  15
 692, 502, 461, 460
 693, 503, 459, 496
 694, 488, 485,  17
 695, 525, 523, 485
 696, 524, 489, 523
 697, 490, 452,  82
 698, 492,  83,  84
 699, 491,  84,  85
 700, 506, 472, 471
 701, 492, 490,  83
 702, 492,  84, 491
 703, 494, 493,  86
 704, 528, 473, 472
 705, 494,  86,  87
 706, 528, 494, 473
 707, 495, 453, 452
 708, 608, 602, 570
 709, 497, 458, 457
 710, 560, 523, 525
 711, 498, 457, 456
 712, 679, 648, 667
 713, 500, 456, 455
 714, 538, 498, 537
 715, 537, 500, 534
 716, 499, 454, 453
 717, 500, 498, 456
 718, 501, 455, 454
 719, 535, 534, 501
 720, 535, 501, 499
 721, 558, 527, 530
 722, 503, 502, 460
 723, 503, 460, 459
 724, 561, 560, 525
 725, 508,  99, 100
 726, 508, 504,  99
 727, 505, 465, 464
 728, 659, 644, 657
 729, 513, 471, 470
 730, 513, 470, 507
 731, 512, 469, 468
 732, 511, 467, 510
 733, 563, 474, 551
 734, 599, 563, 551
 735, 578, 573, 534
 736, 509, 466, 465
 737, 579, 578, 535
 738, 510, 467, 466
 739, 512, 468, 511
 740, 511, 468, 467
 741, 544, 512, 543
 742, 512, 507, 469
 743, 547, 507, 544
 744, 513, 506, 471
 745, 514, 474, 104
 746, 553, 105, 106
 747, 516, 515, 107
 748, 556, 516, 552
 749, 516, 107, 108
 750, 552, 475, 517
 751, 519, 476, 479
 752, 555, 519, 554
 753, 518, 479, 477
 754, 564, 482, 480
 755, 592, 555, 554
 756, 519, 517, 476
 757, 638,  21,  20
 758, 638, 520,  21
 759, 522, 521,  14
 760, 527, 522, 462
 761, 522,  14,  13
 762, 527, 462, 461
 763, 560, 559, 523
 764, 523, 489, 485
 765, 638, 529, 520
 766, 524, 486, 489
 767, 526, 488, 487
 768, 568, 561, 526
 769, 558, 521, 527
 770, 568, 558, 530
 771, 530, 527, 502
 772, 527, 521, 522
 773, 528, 493, 494
 774, 528, 472, 506
 775, 567, 481, 529
 776, 529, 481, 520
 777, 541, 502, 503
 778, 540, 496, 539
 779, 570, 542, 531
 780, 531, 490, 492
 781, 533, 491, 493
 782, 548, 513, 547
 783, 581, 528, 506
 784, 609, 577, 584
 785, 573, 571, 537
 786, 534, 500, 501
 787, 536, 499, 495
 788, 610, 607, 578
 789, 580, 495, 542
 790, 543, 512, 511
 791, 625, 598, 606
 792, 537, 498, 500
 793, 598, 560, 561
 794, 538, 497, 498
 795, 576, 538, 571
 796, 539, 496, 497
 797, 572, 540, 539
 798, 540, 503, 496
 799, 541, 530, 502
 800, 541, 503, 540
 801, 542, 495, 452
 802, 542, 490, 531
 803, 546, 511, 510
 804, 549, 546, 510
 805, 574, 570, 531
 806, 544, 507, 512
 807, 607, 603, 573
 808, 545, 509, 505
 809, 546, 543, 511
 810, 549, 510, 509
 811, 581, 577, 533
 812, 547, 513, 507
 813, 581, 548, 577
 814, 548, 506, 513
 815, 587, 582, 549
 816, 633, 631, 607
 817, 562, 504, 508
 818, 551, 474, 514
 819, 589, 514, 553
 820, 600, 599, 551
 821, 552, 516, 475
 822, 591, 517, 555
 823, 553, 514, 105
 824, 553, 106, 515
 825, 554, 519, 518
 826, 640, 621, 594
 827, 654, 653, 635
 828, 555, 517, 519
 829, 601, 569, 600
 830, 556, 515, 516
 831, 566, 483, 482
 832, 640, 594, 566
 833, 558, 526, 487
 834, 558, 487, 521
 835, 567, 565, 484
 836, 559, 524, 523
 837, 561, 525, 526
 838, 628, 604, 603
 839, 568, 526, 558
 840, 605, 576, 604
 841, 562, 550, 504
 842, 563, 562, 508
 843, 563, 508, 463
 844, 596, 563, 463
 845, 565, 564, 480
 846, 614, 612, 582
 847, 565, 480, 484
 848, 567, 484, 481
 849, 566, 557, 483
 850, 566, 482, 564
 851, 624, 595, 529
 852, 689, 595, 663
 853, 568, 530, 541
 854, 575, 540, 572
 855, 675, 658, 643
 856, 569, 550, 562
 857, 608, 570, 574
 858, 574, 531, 532
 859, 571, 538, 537
 860, 573, 537, 534
 861, 623, 568, 575
 862, 576, 572, 539
 863, 578, 534, 535
 864, 649, 648, 628
 865, 577, 574, 532
 866, 584, 548, 547
 867, 575, 568, 541
 868, 575, 541, 540
 869, 576, 539, 538
 870, 604, 571, 603
 871, 577, 532, 533
 872, 584, 577, 548
 873, 579, 535, 536
 874, 637, 613, 635
 875, 611, 536, 580
 876, 583, 546, 582
 877, 580, 536, 495
 878, 580, 542, 570
 879, 581, 533, 528
 880, 581, 506, 548
 881, 582, 546, 549
 882, 587, 549, 545
 883, 616, 586, 613
 884, 583, 543, 546
 885, 585, 547, 544
 886, 585, 584, 547
 887, 586, 585, 544
 888, 653, 637, 635
 889, 586, 544, 543
 890, 613, 583, 612
 891, 617, 588, 601
 892, 593, 552, 591
 893, 588, 545, 505
 894, 588, 505, 550
 895, 589, 551, 514
 896, 590, 553, 515
 897, 618, 556, 593
 898, 622, 589, 590
 899, 591, 552, 517
 900, 619, 555, 592
 901, 621, 554, 594
 902, 631, 603, 607
 903, 626, 600, 622
 904, 593, 556, 552
 905, 594, 554, 518
 906, 594, 557, 566
 907, 595, 524, 559
 908, 663, 597, 646
 909, 596, 463, 102
 910, 596, 103, 474
 911, 678, 663, 646
 912, 597, 559, 560
 913, 623, 598, 561
 914, 606, 575, 572
 915, 599, 562, 563
 916, 600, 551, 589
 917, 600, 569, 599
 918, 645, 622, 618
 919, 674, 645, 642
 920, 601, 588, 569
 921, 632, 602, 608
 922, 602, 580, 570
 923, 603, 571, 573
 924, 607, 573, 578
 925, 630, 604, 628
 926, 604, 576, 571
 927, 655, 606, 605
 928, 605, 572, 576
 929, 623, 606, 598
 930, 606, 572, 605
 931, 610, 578, 579
 932, 631, 628, 603
 933, 609, 608, 574
 934, 615, 584, 585
 935, 609, 574, 577
 936, 615, 609, 584
 937, 634, 579, 611
 938, 612, 583, 582
 939, 611, 579, 536
 940, 611, 580, 602
 941, 614, 582, 587
 942, 636, 635, 612
 943, 632, 629, 602
 944, 613, 586, 583
 945, 639, 617, 627
 946, 620, 591, 619
 947, 615, 608, 609
 948, 616, 615, 585
 949, 616, 585, 586
 950, 664, 662, 632
 951, 617, 587, 545
 952, 617, 545, 588
 953, 618, 590, 556
 954, 642, 593, 620
 955, 619, 591, 555
 956, 683, 671, 670
 957, 645, 627, 626
 958, 620, 593, 591
 959, 696, 694, 688
 960, 621, 592, 554
 961, 622, 600, 589
 962, 622, 590, 618
 963, 623, 561, 568
 964, 623, 575, 606
 965, 624, 486, 524
 966, 624, 524, 595
 967, 646, 597, 625
 968, 625, 597, 598
 969, 627, 601, 626
 970, 626, 601, 600
 971, 674, 627, 645
 972, 627, 617, 601
 973, 649, 628, 631
 974, 648, 630, 628
 975, 662, 650, 629
 976, 629, 611, 602
 977, 661, 630, 648
 978, 630, 605, 604
 979, 633, 607, 610
 980, 651, 649, 631
 981, 632, 608, 615
 982, 664, 615, 616
 983, 652, 610, 634
 984, 644, 592, 641
 985, 634, 610, 579
 986, 634, 611, 629
 987, 635, 613, 612
 988, 636, 612, 614
 989, 656, 614, 639
 990, 643, 620, 619
 991, 664, 637, 662
 992, 637, 616, 613
 993, 638,  20, 486
 994, 638, 486, 624
 995, 639, 614, 587
 996, 639, 587, 617
 997, 665, 566, 564
 998, 666, 660, 665
 999, 641, 592, 621
1000, 660, 621, 640
1001, 642, 618, 593
1002, 658, 620, 643
1003, 674, 668, 647
1004, 644, 643, 619
1005, 644, 619, 592
1006, 684, 672, 681
1007, 645, 626, 622
1008, 645, 618, 642
1009, 689, 663, 678
1010, 661, 655, 630
1011, 647, 639, 627
1012, 674, 658, 668
1013, 697, 693, 678
1014, 679, 678, 646
1015, 651, 631, 633
1016, 669, 649, 651
1017, 683, 662, 637
1018, 650, 634, 629
1019, 672, 633, 652
1020, 669, 667, 649
1021, 652, 633, 610
1022, 652, 634, 650
1023, 654, 635, 636
1024, 671, 653, 654
1025, 673, 636, 656
1026, 686, 657, 677
1027, 655, 625, 606
1028, 655, 605, 630
1029, 656, 636, 614
1030, 656, 639, 647
1031, 657, 644, 641
1032, 677, 641, 660
1033, 658, 642, 620
1034, 675, 668, 658
1035, 687, 675, 659
1036, 659, 643, 644
1037, 660, 641, 621
1038, 665, 660, 640
1039, 661, 646, 625
1040, 661, 625, 655
1041, 662, 629, 632
1042, 683, 637, 653
1043, 663, 595, 559
1044, 663, 559, 597
1045, 664, 632, 615
1046, 664, 616, 637
1047, 665, 640, 566
1048, 666, 665, 564
1049, 690, 564, 565
1050, 696, 680, 694
1051, 667, 648, 649
1052, 696, 688, 691
1053, 682, 668, 675
1054, 668, 656, 647
1055, 695, 692, 676
1056, 695, 680, 669
1057, 681, 670, 671
1058, 670, 652, 650
1059, 685, 673, 682
1060, 692, 685, 687
1061, 672, 651, 633
1062, 672, 652, 670
1063, 673, 654, 636
1064, 673, 656, 668
1065, 674, 647, 627
1066, 674, 642, 658
1067, 675, 643, 659
1068, 687, 659, 676
1069, 676, 659, 657
1070, 692, 684, 681
1071, 677, 657, 641
1072, 688, 660, 666
1073, 693, 691, 690
1074, 679, 646, 661
1075, 679, 661, 648
1076, 696, 667, 680
1077, 680, 667, 669
1078, 695, 686, 680
1079, 681, 672, 670
1080, 687, 685, 682
1081, 685, 654, 673
1082, 682, 673, 668
1083, 683, 653, 671
1084, 683, 650, 662
1085, 684, 669, 651
1086, 684, 651, 672
1087, 685, 681, 671
1088, 685, 671, 654
1089, 686, 676, 657
1090, 694, 686, 677
1091, 687, 682, 675
1092, 692, 687, 676
1093, 688, 677, 660
1094, 691, 688, 666
1095, 689, 565, 567
1096, 689, 567, 595
1097, 690, 666, 564
1098, 693, 565, 689
1099, 691, 666, 690
1100, 697, 691, 693
1101, 692, 681, 685
1102, 695, 676, 686
1103, 693, 690, 565
1104, 693, 689, 678
1105, 694, 680, 686
1106, 694, 677, 688
1107, 695, 669, 684
1108, 695, 684, 692
1109, 697, 696, 691
1110, 696, 679, 667
1111, 697, 678, 679
1112, 697, 679, 696
1113, 764, 727, 165
1114, 729, 164, 727
1115, 765, 124, 125
1116, 794, 710, 748
1117, 841,  39,  38
1118, 786, 698, 734
1119, 128,  10, 129
1120, 708, 129, 130
1121, 736, 706, 705
1122, 816, 784, 783
1123, 738, 737, 704
1124, 739, 738, 703
1125, 802, 731, 765
1126, 733, 122, 732
1127, 764, 165,   9
1128, 145,  11, 146
1129, 719, 146, 147
1130, 776, 775, 741
1131, 928, 914, 896
1132, 746, 143, 144
1133, 777, 746, 772
1134, 734, 140, 141
1135, 699, 139, 698
1136, 700, 138, 699
1137, 701, 137, 700
1138, 702, 136, 701
1139, 703, 135, 702
1140, 704, 134, 703
1141, 705, 133, 704
1142, 706, 132, 705
1143, 707, 131, 706
1144, 708, 130, 707
1145,  39, 159,   4
1146, 709, 159,  39
1147, 725,  38,  37
1148, 748, 710, 156
1149, 748, 156, 157
1150, 711, 155, 710
1151, 712, 154, 711
1152, 713, 153, 712
1153, 714, 152, 713
1154, 715, 151, 714
1155, 716, 150, 715
1156, 717, 149, 716
1157, 718, 148, 717
1158, 719, 147, 718
1159, 843, 813, 806
1160, 794, 749, 710
1161, 834, 760, 800
1162, 760,  35,  34
1163, 761,  33, 720
1164, 720,  33,  32
1165, 710, 155, 156
1166, 722,  31,  30
1167, 721, 720,  32
1168, 723, 722,  30
1169, 724,  28, 160
1170,  28,   3, 160
1171, 764,   9, 120
1172, 742, 699, 735
1173, 724, 723,  29
1174, 698, 139, 140
1175, 832, 794, 813
1176, 780, 779, 742
1177, 699, 138, 139
1178, 744, 743, 701
1179, 700, 137, 138
1180, 744, 700, 742
1181, 701, 136, 137
1182, 839, 810, 773
1183, 702, 135, 136
1184, 767, 765, 125
1185, 703, 134, 135
1186, 812, 805, 803
1187, 704, 133, 134
1188, 768, 767, 126
1189, 705, 132, 133
1190, 745, 706, 736
1191, 706, 131, 132
1192, 771, 707, 745
1193, 707, 130, 131
1194, 770, 128, 708
1195, 708, 128, 129
1196, 752, 158, 709
1197, 709, 158, 159
1198, 834, 833, 797
1199, 730, 162, 726
1200, 753, 711, 749
1201, 711, 154, 155
1202, 754, 712, 753
1203, 712, 153, 154
1204, 793, 753, 789
1205, 713, 152, 153
1206, 830, 787, 827
1207, 714, 151, 152
1208, 776, 741, 740
1209, 715, 150, 151
1210, 751, 716, 715
1211, 716, 149, 150
1212, 746, 740, 143
1213, 717, 148, 149
1214, 777, 776, 740
1215, 718, 147, 148
1216, 747, 145, 719
1217, 719, 145, 146
1218, 721,  32,  31
1219, 762, 721, 759
1220, 722, 721,  31
1221, 763, 722, 723
1222, 723,  30,  29
1223, 763, 759, 722
1224, 724,  29,  28
1225, 801, 724, 728
1226, 728, 160, 161
1227, 730, 728, 161
1228, 841, 725, 807
1229, 758,  37,  36
1230, 726, 162, 163
1231, 729, 163, 164
1232, 727, 164, 165
1233, 732, 123, 731
1234, 728, 724, 160
1235, 730, 161, 162
1236, 783, 738, 782
1237, 729, 726, 163
1238, 838, 763, 801
1239, 808, 730, 726
1240, 731, 123, 124
1241, 784, 737, 783
1242, 769, 732, 766
1243, 732, 122, 123
1244, 884, 867, 773
1245, 733, 121, 122
1246, 734, 698, 140
1247, 741, 141, 142
1248, 735, 699, 698
1249, 852, 846, 814
1250, 737, 705, 704
1251, 737, 736, 705
1252, 738, 704, 703
1253, 840, 766, 802
1254, 739, 703, 702
1255, 893, 875, 874
1256, 743, 702, 701
1257, 782, 739, 781
1258, 740, 142, 143
1259, 750, 718, 717
1260, 741, 734, 141
1261, 741, 142, 740
1262, 781, 743, 778
1263, 742, 700, 699
1264, 743, 739, 702
1265, 744, 701, 700
1266, 779, 778, 744
1267, 779, 744, 742
1268, 803, 771, 774
1269, 745, 707, 706
1270, 747, 746, 144
1271, 772, 719, 718
1272, 747, 144, 145
1273, 772, 747, 719
1274, 752, 157, 158
1275, 752, 748, 157
1276, 749, 711, 710
1277, 799, 759, 798
1278, 757, 717, 716
1279, 757, 716, 751
1280, 756, 715, 714
1281, 755, 713, 754
1282, 807, 725, 795
1283, 843, 807, 795
1284, 822, 817, 778
1285, 753, 712, 711
1286, 823, 822, 779
1287, 754, 713, 712
1288, 756, 714, 755
1289, 755, 714, 713
1290, 788, 756, 787
1291, 756, 751, 715
1292, 791, 751, 788
1293, 757, 750, 717
1294, 758, 725,  37
1295, 797,  36,  35
1296, 759, 721, 722
1297, 851, 848, 817
1298, 761, 760,  34
1299, 800, 761, 796
1300, 761,  34,  33
1301, 796, 720, 762
1302, 904, 890, 902
1303, 762, 720, 721
1304, 801, 723, 724
1305, 801, 763, 723
1306, 884, 120, 121
1307, 884, 764, 120
1308, 765, 731, 124
1309, 767, 125, 126
1310, 820, 782, 815
1311, 766, 732, 731
1312, 768, 126, 127
1313, 812, 774, 785
1314, 770, 768, 127
1315, 771, 770, 708
1316, 884, 773, 764
1317, 769, 733, 732
1318, 770, 127, 128
1319, 771, 708, 707
1320, 774, 771, 745
1321, 771, 768, 770
1322, 772, 746, 747
1323, 772, 718, 750
1324, 810, 727, 773
1325, 773, 727, 764
1326, 812, 803, 774
1327, 785, 745, 736
1328, 814, 786, 775
1329, 775, 734, 741
1330, 777, 740, 746
1331, 792, 757, 791
1332, 825, 772, 750
1333, 853, 821, 828
1334, 817, 815, 781
1335, 778, 743, 744
1336, 780, 742, 735
1337, 854, 851, 822
1338, 824, 735, 786
1339, 787, 756, 755
1340, 811, 729, 810
1341, 781, 739, 743
1342, 943, 938, 811
1343, 782, 738, 739
1344, 842, 805, 812
1345, 783, 737, 738
1346, 870, 847, 869
1347, 784, 736, 737
1348, 785, 774, 745
1349, 785, 736, 784
1350, 786, 735, 698
1351, 786, 734, 775
1352, 790, 755, 754
1353, 793, 790, 754
1354, 818, 814, 775
1355, 788, 751, 756
1356, 837, 799, 798
1357, 789, 753, 749
1358, 790, 787, 755
1359, 793, 754, 753
1360, 825, 821, 777
1361, 791, 757, 751
1362, 825, 792, 821
1363, 792, 750, 757
1364, 831, 826, 793
1365, 879, 877, 851
1366, 806, 748, 752
1367, 795, 725, 758
1368, 833, 758, 797
1369, 844, 843, 795
1370, 796, 761, 720
1371, 835, 762, 799
1372, 797, 758,  36
1373, 797,  35, 760
1374, 798, 759, 763
1375, 886, 865, 838
1376, 900, 899, 881
1377, 799, 762, 759
1378, 845, 813, 844
1379, 800, 760, 761
1380, 809, 728, 730
1381, 886, 838, 809
1382, 802, 766, 731
1383, 805, 765, 767
1384, 803, 767, 768
1385, 803, 768, 771
1386, 849, 815, 848
1387, 804, 769, 766
1388, 805, 802, 765
1389, 805, 767, 803
1390, 806, 794, 748
1391, 807, 806, 752
1392, 807, 752, 709
1393, 841, 807, 709
1394, 811, 726, 729
1395, 858, 856, 826
1396, 809, 801, 728
1397, 809, 730, 808
1398, 810, 729, 727
1399, 867, 839, 773
1400, 876, 850, 875
1401, 811, 808, 726
1402, 819, 785, 784
1403, 870, 842, 812
1404, 920, 903, 889
1405, 813, 794, 806
1406, 852, 814, 818
1407, 818, 775, 776
1408, 815, 782, 781
1409, 817, 781, 778
1410, 847, 819, 816
1411, 820, 816, 783
1412, 822, 778, 779
1413, 895, 893, 874
1414, 821, 818, 776
1415, 828, 792, 791
1416, 819, 812, 785
1417, 819, 784, 816
1418, 820, 783, 782
1419, 874, 849, 848
1420, 821, 776, 777
1421, 828, 821, 792
1422, 823, 779, 780
1423, 883, 857, 881
1424, 855, 780, 824
1425, 827, 790, 826
1426, 824, 780, 735
1427, 824, 786, 814
1428, 825, 777, 772
1429, 825, 750, 792
1430, 826, 790, 793
1431, 831, 793, 789
1432, 860, 830, 857
1433, 827, 787, 790
1434, 829, 791, 788
1435, 829, 828, 791
1436, 830, 829, 788
1437, 899, 883, 881
1438, 830, 788, 787
1439, 857, 827, 856
1440, 861, 832, 845
1441, 836, 796, 835
1442, 832, 789, 749
1443, 832, 749, 794
1444, 833, 795, 758
1445, 834, 797, 760
1446, 862, 800, 836
1447, 866, 833, 834
1448, 835, 796, 762
1449, 863, 799, 837
1450, 871, 844, 866
1451, 836, 800, 796
1452, 865, 798, 838
1453, 877, 848, 851
1454, 838, 798, 763
1455, 838, 801, 809
1456, 839, 769, 804
1457, 934, 868, 923
1458, 840, 804, 766
1459, 842, 840, 802
1460, 841, 709,  39
1461, 841,  38, 725
1462, 842, 802, 805
1463, 870, 869, 842
1464, 843, 806, 807
1465, 844, 795, 833
1466, 844, 813, 843
1467, 891, 866, 862
1468, 919, 891, 888
1469, 845, 832, 813
1470, 878, 846, 852
1471, 846, 824, 814
1472, 869, 868, 840
1473, 850, 816, 820
1474, 848, 815, 817
1475, 851, 817, 822
1476, 875, 849, 874
1477, 849, 820, 815
1478, 850, 847, 816
1479, 850, 820, 849
1480, 854, 822, 823
1481, 877, 874, 848
1482, 853, 852, 818
1483, 859, 828, 829
1484, 853, 818, 821
1485, 859, 853, 828
1486, 880, 823, 855
1487, 856, 827, 826
1488, 855, 823, 780
1489, 855, 824, 846
1490, 858, 826, 831
1491, 882, 881, 856
1492, 878, 873, 846
1493, 857, 830, 827
1494, 885, 861, 872
1495, 864, 835, 863
1496, 859, 852, 853
1497, 860, 859, 829
1498, 860, 829, 830
1499, 908, 906, 878
1500, 861, 831, 789
1501, 861, 789, 832
1502, 862, 834, 800
1503, 888, 836, 864
1504, 863, 835, 799
1505, 928, 916, 914
1506, 891, 872, 871
1507, 864, 836, 835
1508, 946, 933, 936
1509, 865, 837, 798
1510, 866, 844, 833
1511, 866, 834, 862
1512, 867, 733, 769
1513, 867, 769, 839
1514, 923, 868, 907
1515, 868, 804, 840
1516, 869, 840, 842
1517, 876, 847, 850
1518, 870, 812, 819
1519, 870, 819, 847
1520, 872, 845, 871
1521, 871, 845, 844
1522, 919, 872, 891
1523, 872, 861, 845
1524, 906, 896, 873
1525, 873, 855, 846
1526, 895, 874, 877
1527, 946, 944, 942
1528, 894, 875, 893
1529, 875, 850, 849
1530, 907, 869, 876
1531, 876, 869, 847
1532, 879, 851, 854
1533, 897, 895, 877
1534, 878, 852, 859
1535, 908, 859, 860
1536, 898, 854, 880
1537, 890, 837, 887
1538, 880, 854, 823
1539, 880, 855, 873
1540, 881, 857, 856
1541, 882, 856, 858
1542, 901, 858, 885
1543, 889, 864, 863
1544, 908, 883, 906
1545, 883, 860, 857
1546, 884, 121, 733
1547, 884, 733, 867
1548, 885, 858, 831
1549, 885, 831, 861
1550, 909, 809, 808
1551, 910, 905, 909
1552, 887, 837, 865
1553, 905, 865, 886
1554, 888, 862, 836
1555, 903, 864, 889
1556, 919, 913, 892
1557, 890, 889, 863
1558, 890, 863, 837
1559, 929, 917, 926
1560, 891, 871, 866
1561, 891, 862, 888
1562, 892, 885, 872
1563, 919, 903, 913
1564, 945, 941, 943
1565, 942, 941, 923
1566, 923, 907, 894
1567, 894, 876, 875
1568, 897, 877, 879
1569, 912, 911, 893
1570, 928, 906, 883
1571, 896, 880, 873
1572, 917, 879, 898
1573, 915, 912, 895
1574, 898, 879, 854
1575, 898, 880, 896
1576, 900, 881, 882
1577, 916, 899, 900
1578, 918, 882, 901
1579, 932, 902, 922
1580, 901, 882, 858
1581, 901, 885, 892
1582, 902, 890, 887
1583, 922, 887, 905
1584, 903, 888, 864
1585, 920, 913, 903
1586, 931, 920, 904
1587, 904, 889, 890
1588, 905, 887, 865
1589, 909, 905, 886
1590, 906, 873, 878
1591, 928, 883, 899
1592, 907, 868, 869
1593, 907, 876, 894
1594, 908, 878, 859
1595, 908, 860, 883
1596, 909, 886, 809
1597, 910, 909, 808
1598, 935, 808, 811
1599, 925, 912, 915
1600, 911, 894, 893
1601, 912, 893, 895
1602, 915, 895, 897
1603, 925, 924, 912
1604, 927, 913, 920
1605, 913, 901, 892
1606, 926, 914, 916
1607, 914, 898, 896
1608, 940, 937, 921
1609, 940, 925, 915
1610, 930, 918, 927
1611, 937, 930, 931
1612, 917, 897, 879
1613, 917, 898, 914
1614, 918, 900, 882
1615, 918, 901, 913
1616, 919, 892, 872
1617, 919, 888, 903
1618, 920, 889, 904
1619, 931, 904, 921
1620, 921, 904, 902
1621, 937, 929, 926
1622, 922, 902, 887
1623, 933, 905, 910
1624, 944, 941, 942
1625, 923, 894, 911
1626, 944, 935, 938
1627, 924, 911, 912
1628, 940, 932, 925
1629, 939, 922, 933
1630, 926, 917, 914
1631, 931, 930, 927
1632, 930, 900, 918
1633, 927, 918, 913
1634, 928, 899, 916
1635, 928, 896, 906
1636, 929, 915, 897
1637, 929, 897, 917
1638, 930, 926, 916
1639, 930, 916, 900
1640, 931, 927, 920
1641, 937, 931, 921
1642, 932, 921, 902
1643, 939, 932, 922
1644, 933, 922, 905
1645, 936, 933, 910
1646, 934, 839, 804
1647, 934, 804, 868
1648, 935, 910, 808
1649, 938, 935, 811
1650, 946, 939, 933
1651, 936, 910, 935
1652, 937, 926, 930
1653, 940, 921, 932
1654, 943, 811, 810
1655, 943, 941, 938
1656, 939, 924, 925
1657, 939, 925, 932
1658, 940, 915, 929
1659, 940, 929, 937
1660, 941, 934, 923
1661, 942, 923, 911
1662, 942, 911, 924
1663, 946, 942, 924
1664, 943, 810, 839
1665, 945, 943, 839
1666, 944, 936, 935
1667, 944, 938, 941
1668, 945, 839, 934
1669, 945, 934, 941
1670, 946, 936, 944
1671, 946, 924, 939
1672, 1023, 1022,  126
1673, 1059, 1022, 1023
1674,  962,  180,  961
1675,  948,  947,  170
1676, 1062,  960,  959
1677, 1093,  128,  127
1678, 1019,  124,  949
1679,  949,  124,  123
1680,  950,  169,  947
1681,  973,  198,  199
1682,  951,  949,  123
1683,  952,  168,  950
1684,  954,  953,  121
1685,  954,  120,  166
1686,  120,    9,  166
1687,  171,    8,  113
1688,  978,  194,  977
1689,  955,  954,  166
1690,  102,    7,  172
1691,  969,  172,  173
1692, 1000,  968,  967
1693, 1001,  966,  965
1694, 1002,  965,  964
1695, 1015, 1011,  105
1696, 1012,  106, 1011
1697, 1010,  108,  107
1698,  957,  109,  956
1699, 1033,  995, 1028
1700,  958,  110,  957
1701,  960,  113,  112
1702,  186,  185,   12
1703,  985,  186,  187
1704,  986,  984,  983
1705,  998,  982,  981
1706, 1042, 1025, 1040
1707,  999,  181,  182
1708, 1008,  962,  961
1709,  963,  179,  962
1710,  964,  178,  963
1711,  965,  177,  964
1712,  966,  176,  965
1713,  967,  175,  966
1714,  968,  174,  967
1715,  969,  173,  968
1716,  202,   10,  128
1717,  970,  202,  128
1718,  971,  201,  970
1719,  971,  200,  201
1720,  988,  972,  971
1721,  973,  199,  972
1722,  989,  977,  976
1723,  975,  197,  974
1724,  976,  196,  975
1725,  977,  195,  976
1726,  979,  193,  978
1727,  980,  192,  979
1728,  981,  191,  980
1729,  982,  190,  981
1730,  983,  189,  982
1731,  984,  188,  983
1732,  985,  187,  984
1733,  947,  169,  170
1734,  948,  170,  171
1735,  960,  171,  113
1736,  959,  111,  958
1737,  951,  123,  122
1738, 1039, 1037,  992
1739, 1029, 1028,  989
1740,  950,  168,  169
1741,  953,  122,  121
1742, 1021, 1020,  951
1743,  952,  167,  168
1744,  990,  974,  973
1745,  953,  951,  122
1746,  954,  121,  120
1747,  955,  166,  167
1748, 1057,  954,  955
1749,  955,  167,  952
1750, 1075, 1066, 1038
1751,  956,  109,  108
1752, 1030,  998,  997
1753, 1018,  957, 1013
1754,  957,  110,  109
1755, 1014,  959,  958
1756,  958,  111,  110
1757, 1062,  959, 1014
1758,  959,  112,  111
1759,  960,  948,  171
1760,  960,  112,  959
1761,  961,  180,  181
1762,  991,  979,  978
1763, 1008, 1003,  962
1764,  962,  179,  180
1765, 1002, 1001,  965
1766,  963,  178,  179
1767, 1053, 1015, 1052
1768,  964,  177,  178
1769, 1052, 1016, 1026
1770,  965,  176,  177
1771, 1004,  967,  966
1772,  966,  175,  176
1773, 1016, 1015,  104
1774,  967,  174,  175
1775, 1026,  968, 1000
1776,  968,  173,  174
1777, 1017,  102,  969
1778,  969,  102,  172
1779,  970,  201,  202
1780, 1022,  127,  126
1781, 1023,  125, 1019
1782,  972,  200,  971
1783,  992,  972,  988
1784,  972,  199,  200
1785, 1020,  949,  951
1786,  974,  198,  973
1787,  993,  974,  990
1788,  974,  197,  198
1789, 1123, 1092, 1091
1790,  975,  196,  197
1791, 1018, 1014,  958
1792,  976,  195,  196
1793,  995,  977,  989
1794,  977,  194,  195
1795,  995,  991,  978
1796,  978,  193,  194
1797,  996,  979,  991
1798,  979,  192,  193
1799, 1192, 1188, 1176
1800,  980,  191,  192
1801,  987,  986,  983
1802,  981,  190,  191
1803, 1007,  183, 1005
1804,  982,  189,  190
1805, 1006, 1005,  184
1806,  983,  188,  189
1807, 1025,  984,  986
1808,  984,  187,  188
1809, 1006,  185,  985
1810,  985,  185,  186
1811,  987,  983,  982
1812, 1036,  987, 1031
1813,  997,  980,  996
1814, 1064, 1042, 1040
1815, 1024,  971,  970
1816, 1039,  988, 1027
1817,  994,  976,  975
1818, 1096, 1095,  950
1819,  992,  990,  973
1820, 1069, 1035, 1066
1821,  995,  978,  977
1822, 1109, 1076, 1108
1823,  992,  973,  972
1824, 1065, 1039, 1063
1825, 1035, 1029,  994
1826,  993,  975,  974
1827,  994,  989,  976
1828,  994,  975,  993
1829, 1140, 1062, 1014
1830, 1162, 1143, 1155
1831, 1044, 1009, 1043
1832,  996,  980,  979
1833, 1169, 1136, 1127
1834,  997,  981,  980
1835,  998,  987,  982
1836,  998,  981,  997
1837,  999,  961,  181
1838, 1007,  182,  183
1839, 1047, 1002, 1044
1840, 1015,  105,  104
1841, 1009,  964,  963
1842, 1076, 1047, 1044
1843, 1045, 1003, 1008
1844, 1138, 1113, 1136
1845, 1003,  963,  962
1846, 1045, 1043, 1003
1847, 1004, 1000,  967
1848, 1004,  966, 1001
1849, 1005,  183,  184
1850, 1025, 1005, 1006
1851, 1006,  184,  185
1852, 1025, 1006,  985
1853, 1133, 1101, 1111
1854, 1007,  999,  182
1855, 1041,  961,  999
1856, 1031,  998, 1030
1857, 1009, 1002,  964
1858, 1009,  963, 1003
1859, 1010,  956,  108
1860, 1012,  107,  106
1861, 1011,  106,  105
1862, 1048, 1004, 1046
1863, 1046, 1004, 1001
1864, 1012, 1010,  107
1865, 1013,  957,  956
1866, 1050,  956, 1010
1867, 1140, 1097, 1062
1868, 1018,  958,  957
1869, 1016,  104,  103
1870, 1080, 1047, 1076
1871, 1017, 1016,  103
1872, 1026, 1016, 1017
1873, 1017,  103,  102
1874, 1026, 1017,  969
1875, 1055, 1054, 1018
1876, 1148, 1124, 1147
1877, 1019,  125,  124
1878, 1058,  949, 1020
1879, 1021,  951,  953
1880, 1060, 1020, 1021
1881, 1057,  953,  954
1882, 1057, 1021,  953
1883, 1093, 1022, 1024
1884, 1023,  126,  125
1885, 1061, 1019, 1058
1886, 1059, 1024, 1022
1887, 1024,  988,  971
1888, 1093, 1024,  970
1889, 1025,  985,  984
1890, 1040,  986, 1036
1891, 1026,  969,  968
1892, 1083, 1052, 1026
1893, 1027,  988, 1024
1894, 1063, 1059, 1061
1895, 1028,  995,  989
1896, 1029,  989,  994
1897, 1035,  994,  993
1898, 1072, 1029, 1069
1899, 1032,  997,  996
1900, 1032, 1030,  997
1901, 1064, 1049, 1042
1902, 1031,  987,  998
1903, 1034,  996,  991
1904, 1082, 1078, 1043
1905, 1033,  991,  995
1906, 1074, 1028, 1072
1907, 1034, 1032,  996
1908, 1034,  991, 1033
1909, 1038,  993,  990
1910, 1100, 1066, 1099
1911, 1067, 1064, 1036
1912, 1036,  986,  987
1913, 1037,  990,  992
1914, 1075, 1037, 1065
1915, 1038, 1035,  993
1916, 1038,  990, 1037
1917, 1039,  992,  988
1918, 1063, 1027, 1059
1919, 1064, 1040, 1036
1920, 1040, 1025,  986
1921, 1041, 1008,  961
1922, 1049,  999, 1007
1923, 1042, 1007, 1005
1924, 1042, 1005, 1025
1925, 1117, 1116, 1087
1926, 1043, 1009, 1003
1927, 1110, 1080, 1109
1928, 1044, 1002, 1009
1929, 1079, 1008, 1041
1930, 1068, 1067, 1031
1931, 1085, 1052, 1083
1932, 1047, 1046, 1001
1933, 1047, 1001, 1002
1934, 1134, 1109, 1108
1935, 1118, 1085, 1077
1936, 1048, 1000, 1004
1937, 1049, 1041,  999
1938, 1049, 1007, 1042
1939, 1050, 1013,  956
1940, 1056, 1010, 1012
1941, 1051, 1012, 1011
1942, 1077, 1048, 1046
1943, 1052, 1015, 1016
1944, 1083, 1026, 1000
1945, 1053, 1051, 1011
1946, 1053, 1011, 1015
1947, 1054, 1014, 1018
1948, 1055, 1018, 1013
1949, 1084, 1013, 1050
1950, 1153, 1151, 1129
1951, 1056, 1050, 1010
1952, 1056, 1012, 1051
1953, 1177, 1121,  955
1954, 1090, 1060, 1021
1955, 1058, 1019,  949
1956, 1091, 1020, 1060
1957, 1059, 1027, 1024
1958, 1061, 1059, 1023
1959, 1090, 1021, 1057
1960, 1145, 1122, 1120
1961, 1061, 1023, 1019
1962, 1092, 1061, 1058
1963, 1094,  948, 1062
1964, 1062,  948,  960
1965, 1091, 1058, 1020
1966, 1063, 1039, 1027
1967, 1081, 1049, 1064
1968, 1067, 1036, 1031
1969, 1098, 1075, 1065
1970, 1065, 1037, 1039
1971, 1158, 1146, 1121
1972, 1066, 1035, 1038
1973, 1068, 1031, 1030
1974, 1101, 1067, 1068
1975, 1071, 1030, 1032
1976, 1112, 1108, 1078
1977, 1096,  947, 1094
1978, 1069, 1029, 1035
1979, 1070, 1032, 1034
1980, 1073, 1034, 1033
1981, 1071, 1068, 1030
1982, 1071, 1032, 1070
1983, 1104, 1069, 1100
1984, 1072, 1028, 1029
1985, 1073, 1070, 1034
1986, 1074, 1073, 1033
1987, 1074, 1033, 1028
1988, 1107, 1072, 1104
1989, 1075, 1038, 1037
1990, 1139, 1098, 1065
1991, 1078, 1044, 1043
1992, 1078, 1076, 1044
1993, 1086, 1053, 1085
1994, 1080, 1077, 1046
1995, 1082, 1043, 1045
1996, 1169, 1151, 1157
1997, 1079, 1045, 1008
1998, 1081, 1079, 1041
1999, 1080, 1046, 1047
2000, 1108, 1076, 1078
2001, 1081, 1041, 1049
2002, 1133, 1111, 1081
2003, 1113, 1045, 1079
2004, 1102, 1101, 1068
2005, 1083, 1000, 1048
2006, 1085, 1083, 1048
2007, 1084, 1055, 1013
2008, 1089, 1050, 1056
2009, 1085, 1053, 1052
2010, 1085, 1048, 1077
2011, 1087, 1051, 1086
2012, 1086, 1051, 1053
2013, 1159, 1155, 1143
2014, 1087, 1056, 1051
2015, 1088, 1054, 1055
2016, 1115, 1055, 1084
2017, 1089, 1084, 1050
2018, 1089, 1056, 1087
2019, 1121, 1090, 1057
2020, 1095,  952,  950
2021, 1092, 1058, 1091
2022, 1122, 1060, 1120
2023, 1139, 1063, 1092
2024, 1092, 1063, 1061
2025, 1093,  970,  128
2026, 1093,  127, 1022
2027, 1097, 1094, 1062
2028, 1094,  947,  948
2029, 1096,  950,  947
2030, 1124, 1098, 1123
2031, 1193, 1191, 1096
2032, 1148, 1147, 1145
2033, 1114, 1054, 1088
2034, 1194, 1140, 1114
2035, 1120, 1060, 1090
2036, 1099, 1075, 1098
2037, 1161, 1114, 1142
2038, 1099, 1066, 1075
2039, 1126, 1100, 1125
2040, 1100, 1069, 1066
2041, 1133, 1081, 1064
2042, 1102, 1068, 1071
2043, 1105, 1071, 1070
2044, 1130, 1129, 1103
2045, 1103, 1070, 1073
2046, 1106, 1073, 1074
2047, 1154, 1132, 1152
2048, 1104, 1072, 1069
2049, 1105, 1102, 1071
2050, 1105, 1070, 1103
2051, 1106, 1103, 1073
2052, 1107, 1106, 1074
2053, 1107, 1074, 1072
2054, 1131, 1104, 1126
2055, 1159, 1143, 1116
2056, 1112, 1078, 1082
2057, 1118, 1117, 1086
2058, 1109, 1080, 1076
2059, 1118, 1110, 1117
2060, 1110, 1077, 1080
2061, 1113, 1079, 1111
2062, 1111, 1079, 1081
2063, 1138, 1082, 1113
2064, 1128, 1127, 1102
2065, 1113, 1082, 1045
2066, 1136, 1101, 1127
2067, 1152, 1131, 1150
2068, 1194, 1161, 1191
2069, 1115, 1088, 1055
2070, 1119, 1084, 1089
2071, 1116, 1089, 1087
2072, 1135, 1109, 1134
2073, 1117, 1087, 1086
2074, 1159, 1110, 1135
2075, 1118, 1086, 1085
2076, 1118, 1077, 1110
2077, 1119, 1115, 1084
2078, 1119, 1089, 1116
2079, 1146, 1090, 1121
2080, 1190, 1189, 1186
2081, 1121, 1057,  955
2082, 1158,  952, 1095
2083, 1147, 1123, 1122
2084, 1122, 1091, 1060
2085, 1139, 1123, 1098
2086, 1123, 1091, 1122
2087, 1125, 1099, 1124
2088, 1124, 1099, 1098
2089, 1185, 1166, 1148
2090, 1125, 1100, 1099
2091, 1142, 1088, 1141
2092, 1126, 1104, 1100
2093, 1127, 1101, 1102
2094, 1128, 1102, 1105
2095, 1129, 1105, 1103
2096, 1129, 1128, 1105
2097, 1130, 1103, 1106
2098, 1184, 1179, 1172
2099, 1132, 1106, 1107
2100, 1184, 1174, 1175
2101, 1131, 1107, 1104
2102, 1149, 1125, 1148
2103, 1132, 1130, 1106
2104, 1132, 1107, 1131
2105, 1133, 1064, 1067
2106, 1133, 1067, 1101
2107, 1137, 1108, 1112
2108, 1137, 1134, 1108
2109, 1159, 1117, 1110
2110, 1135, 1110, 1109
2111, 1136, 1113, 1111
2112, 1136, 1111, 1101
2113, 1157, 1112, 1138
2114, 1151, 1128, 1129
2115, 1169, 1157, 1138
2116, 1138, 1112, 1082
2117, 1139, 1065, 1063
2118, 1139, 1092, 1123
2119, 1140, 1014, 1054
2120, 1140, 1054, 1114
2121, 1141, 1088, 1115
2122, 1144, 1115, 1119
2123, 1150, 1126, 1149
2124, 1142, 1114, 1088
2125, 1143, 1119, 1116
2126, 1155, 1135, 1134
2127, 1144, 1141, 1115
2128, 1144, 1119, 1143
2129, 1164, 1120, 1146
2130, 1180, 1165, 1095
2131, 1186, 1146, 1158
2132, 1146, 1120, 1090
2133, 1147, 1124, 1123
2134, 1147, 1122, 1145
2135, 1181, 1167, 1166
2136, 1148, 1125, 1124
2137, 1167, 1149, 1166
2138, 1149, 1126, 1125
2139, 1163, 1141, 1160
2140, 1150, 1131, 1126
2141, 1173, 1151, 1170
2142, 1153, 1129, 1130
2143, 1171, 1152, 1168
2144, 1152, 1132, 1131
2145, 1154, 1153, 1130
2146, 1179, 1173, 1170
2147, 1154, 1130, 1132
2148, 1175, 1174, 1160
2149, 1156, 1134, 1137
2150, 1156, 1155, 1134
2151, 1173, 1137, 1157
2152, 1179, 1178, 1156
2153, 1157, 1137, 1112
2154, 1169, 1138, 1136
2155, 1177, 1158, 1121
2156, 1180, 1095, 1096
2157, 1159, 1116, 1117
2158, 1159, 1135, 1155
2159, 1160, 1141, 1144
2160, 1162, 1160, 1144
2161, 1194, 1191, 1193
2162, 1176, 1142, 1163
2163, 1162, 1144, 1143
2164, 1178, 1155, 1156
2165, 1168, 1150, 1167
2166, 1163, 1142, 1141
2167, 1164, 1145, 1120
2168, 1186, 1158, 1165
2169, 1165, 1158, 1095
2170, 1190, 1181, 1189
2171, 1166, 1149, 1148
2172, 1185, 1148, 1145
2173, 1182, 1167, 1181
2174, 1167, 1150, 1149
2175, 1192, 1187, 1182
2176, 1168, 1152, 1150
2177, 1169, 1127, 1128
2178, 1169, 1128, 1151
2179, 1170, 1151, 1153
2180, 1172, 1153, 1154
2181, 1183, 1171, 1168
2182, 1171, 1154, 1152
2183, 1172, 1170, 1153
2184, 1172, 1154, 1171
2185, 1173, 1156, 1137
2186, 1173, 1157, 1151
2187, 1174, 1163, 1160
2188, 1175, 1160, 1162
2189, 1178, 1175, 1162
2190, 1184, 1175, 1179
2191, 1176, 1161, 1142
2192, 1187, 1163, 1174
2193, 1177,  955,  952
2194, 1177,  952, 1158
2195, 1178, 1162, 1155
2196, 1179, 1156, 1173
2197, 1179, 1170, 1172
2198, 1179, 1175, 1178
2199, 1191, 1180, 1096
2200, 1188, 1161, 1176
2201, 1189, 1166, 1185
2202, 1195, 1190, 1165
2203, 1187, 1183, 1182
2204, 1182, 1168, 1167
2205, 1184, 1183, 1174
2206, 1183, 1168, 1182
2207, 1184, 1172, 1171
2208, 1184, 1171, 1183
2209, 1185, 1145, 1164
2210, 1189, 1185, 1164
2211, 1186, 1164, 1146
2212, 1195, 1165, 1180
2213, 1187, 1176, 1163
2214, 1187, 1174, 1183
2215, 1195, 1191, 1188
2216, 1192, 1176, 1187
2217, 1189, 1181, 1166
2218, 1189, 1164, 1186
2219, 1190, 1186, 1165
2220, 1192, 1190, 1188
2221, 1193, 1096, 1094
2222, 1191, 1161, 1188
2223, 1192, 1182, 1181
2224, 1192, 1181, 1190
2225, 1193, 1094, 1097
2226, 1194, 1193, 1097
2227, 1194, 1097, 1140
2228, 1194, 1114, 1161
2229, 1195, 1180, 1191
2230, 1195, 1188, 1190
*Orientation, name=Ori-1
1., 0., 0., 0., 1., 0.
3, 0.
** Region: (CompositeLayup-1-1: Generated From Layup)
*Elset, elset=CompositeLayup-1-1, generate
    1,  2230,     1
** Section: CompositeLayup-1-1
*Shell Section, elset=CompositeLayup-1-1, composite, orientation=Ori-1, layup=CompositeLayup-1
0.25, 1, ABQ_PLY_FABRIC, 45., Ply-1
0.25, 1, ABQ_PLY_FABRIC, -45., Ply-2
0.25, 1, ABQ_PLY_FABRIC, -45., Ply-3
0.25, 1, ABQ_PLY_FABRIC, 45., Ply-4
*End Part
**  
**
** ASSEMBLY
**
*Assembly, name=Assembly
**  
*Instance, name=Plate-1, part=PLATE
*End Instance
**  
*Nset, nset=Set-1, instance=Plate-1
   6,   7,  12,  88,  89,  90,  91,  92,  93,  94,  95,  96,  97,  98,  99, 100
 101, 172, 173, 174, 175, 176, 177, 178, 179, 180, 181, 182, 183, 184, 185
*Elset, elset=Set-1, instance=Plate-1
  575,  576,  592,  596,  612,  644,  648,  650,  652,  654,  656,  658,  660,  662,  725, 1690
 1691, 1702, 1707, 1761, 1764, 1766, 1768, 1770, 1772, 1774, 1776, 1838, 1849, 1851
*Nset, nset=Set-2, instance=Plate-1
   4,   5,  11,  40,  41,  42,  43,  44,  45,  46,  47,  48,  49,  50,  51,  52
  53, 146, 147, 148, 149, 150, 151, 152, 153, 154, 155, 156, 157, 158, 159
*Elset, elset=Set-2, instance=Plate-1
   19,   20,   31,   36,   90,   93,   95,   97,   99,  101,  103,  105,  134,  167,  182, 1128
 1129, 1145, 1149, 1165, 1197, 1201, 1203, 1205, 1207, 1209, 1211, 1213, 1215, 1274
*End Assembly
*Amplitude, name=Ramp, time=TOTAL TIME
             0.,              0.,            0.01,              1.
** 
** MATERIALS
** 
*Material, name=ABQ_PLY_FABRIC
*Density
 1.594e-09,
*Depvar, delete=16
     16,
*User Material, constants=40
27500., 27500.,   0.11,  2900., 27500., 27500.,   0.11,     0.
   604.,   291.,   604.,   291.,    75.,     0.,     0.,     0.
 20.438, 4.6257, 20.438, 4.6257, 0.3221,     1.,     0.,     0.
    75., 0.0008,  0.552,     0.,     0.,     0.,     0.,     0.
     0.,     1.,  1e+09,  1e+09, -1e+09,     0.,     0.,     0.
** ----------------------------------------------------------------
** 
** STEP: Step-1
** 
*Step, name=Step-1, nlgeom=NO
*Dynamic, Explicit
, 0.01
*Bulk Viscosity
0.06, 1.2
** 
** BOUNDARY CONDITIONS
** 
** Name: BC-1 Type: Symmetry/Antisymmetry/Encastre
*Boundary
Set-1, ENCASTRE
** Name: BC-2 Type: Displacement/Rotation
*Boundary, amplitude=Ramp
Set-2, 1, 1, 1.10526
** 
** OUTPUT REQUESTS
** 
*Restart, write, number interval=1, time marks=NO
** 
** FIELD OUTPUT: F-Output-1
** 
*Output, field, number interval=1
*Element Output, position=NODES, directions=YES
LE, PEEQ, SDV
** 
** HISTORY OUTPUT: H-Output-1
** 
*Output, history, variable=PRESELECT
*End Step
