*Heading
** Job name: Plate_nonlinear_127 Model name: Model-1
** Generated by: Abaqus/CAE 2024.HF3
*Preprint, echo=NO, model=NO, history=NO, contact=NO
**
** PARTS
**
*Part, name=PLATE
*Node
      1,   57.2778015,    129.12291,           0.
      2,   57.2778015,   67.7676926,           0.
      3,   73.3963318,   51.6491661,           0.
      4,   143.194504,   51.6491661,           0.
      5,   143.194504,    129.12291,           0.
      6,           0.,    129.12291,           0.
      7,           0.,   51.6491661,           0.
      8,   41.1592712,   51.6491661,           0.
      9,   57.2778015,   35.5306358,           0.
     10,   57.2778015,           0.,           0.
     11,   143.194504,           0.,           0.
     12,           0.,           0.,           0.
     13,   57.2778015,   125.032562,           0.
     14,   57.2778015,   120.942215,           0.
     15,   57.2778015,   116.851868,           0.
     16,   57.2778015,    112.76152,           0.
     17,   57.2778015,   108.671173,           0.
     18,   57.2778015,   104.580826,           0.
     19,   57.2778015,   100.490479,           0.
     20,   57.2778015,   96.4001312,           0.
     21,   57.2778015,   92.3097839,           0.
     22,   57.2778015,   88.2194366,           0.
     23,   57.2778015,   84.1290894,           0.
     24,   57.2778015,   80.0387421,           0.
     25,   57.2778015,   75.9483871,           0.
     26,   57.2778015,   71.8580399,           0.
     27,   61.4495811,   67.2184677,           0.
     28,   65.3370667,    65.608223,           0.
     29,   68.6753235,   63.0466881,           0.
     30,   71.2368546,   59.7084312,           0.
     31,   72.8471069,   55.8209496,           0.
     32,   77.5021057,   51.6491661,           0.
     33,   81.6078796,   51.6491661,           0.
     34,   85.7136536,   51.6491661,           0.
     35,   89.8194275,   51.6491661,           0.
     36,   93.9252014,   51.6491661,           0.
     37,   98.0309753,   51.6491661,           0.
     38,   102.136757,   51.6491661,           0.
     39,   106.242531,   51.6491661,           0.
     40,   110.348305,   51.6491661,           0.
     41,   114.454079,   51.6491661,           0.
     42,   118.559853,   51.6491661,           0.
     43,   122.665627,   51.6491661,           0.
     44,     126.7714,   51.6491661,           0.
     45,   130.877182,   51.6491661,           0.
     46,   134.982956,   51.6491661,           0.
     47,    139.08873,   51.6491661,           0.
     48,   143.194504,   55.9532623,           0.
     49,   143.194504,   60.2573586,           0.
     50,   143.194504,   64.5614548,           0.
     51,   143.194504,   68.8655548,           0.
     52,   143.194504,   73.1696548,           0.
     53,   143.194504,   77.4737473,           0.
     54,   143.194504,   81.7778473,           0.
     55,   143.194504,   86.0819397,           0.
     56,   143.194504,   90.3860397,           0.
     57,   143.194504,   94.6901398,           0.
     58,   143.194504,   98.9942322,           0.
     59,   143.194504,   103.298332,           0.
     60,   143.194504,   107.602425,           0.
     61,   143.194504,   111.906525,           0.
     62,   143.194504,   116.210625,           0.
     63,   143.194504,   120.514717,           0.
     64,   143.194504,   124.818817,           0.
     65,   138.898666,    129.12291,           0.
     66,   134.602829,    129.12291,           0.
     67,   130.306992,    129.12291,           0.
     68,   126.011162,    129.12291,           0.
     69,   121.715324,    129.12291,           0.
     70,   117.419495,    129.12291,           0.
     71,   113.123657,    129.12291,           0.
     72,    108.82782,    129.12291,           0.
     73,    104.53199,    129.12291,           0.
     74,   100.236153,    129.12291,           0.
     75,   95.9403152,    129.12291,           0.
     76,   91.6444778,    129.12291,           0.
     77,   87.3486481,    129.12291,           0.
     78,   83.0528107,    129.12291,           0.
     79,   78.7569733,    129.12291,           0.
     80,   74.4611435,    129.12291,           0.
     81,   70.1653061,    129.12291,           0.
     82,   65.8694687,    129.12291,           0.
     83,   61.5736351,    129.12291,           0.
     84,   53.1865311,    129.12291,           0.
     85,   49.0952568,    129.12291,           0.
     86,   45.0039864,    129.12291,           0.
     87,   40.9127159,    129.12291,           0.
     88,   36.8214417,    129.12291,           0.
     89,   32.7301712,    129.12291,           0.
     90,   28.6389008,    129.12291,           0.
     91,   24.5476284,    129.12291,           0.
     92,    20.456358,    129.12291,           0.
     93,   16.3650856,    129.12291,           0.
     94,   12.2738142,    129.12291,           0.
     95,    8.1825428,    129.12291,           0.
     96,    4.0912714,    129.12291,           0.
     97,           0.,   124.818817,           0.
     98,           0.,   120.514717,           0.
     99,           0.,   116.210625,           0.
    100,           0.,   111.906525,           0.
    101,           0.,   107.602425,           0.
    102,           0.,   103.298332,           0.
    103,           0.,   98.9942322,           0.
    104,           0.,   94.6901398,           0.
    105,           0.,   90.3860397,           0.
    106,           0.,   86.0819397,           0.
    107,           0.,   81.7778473,           0.
    108,           0.,   77.4737473,           0.
    109,           0.,   73.1696548,           0.
    110,           0.,   68.8655548,           0.
    111,           0.,   64.5614548,           0.
    112,           0.,   60.2573586,           0.
    113,           0.,   55.9532623,           0.
    114,   4.11592722,   51.6491661,           0.
    115,   8.23185444,   51.6491661,           0.
    116,   12.3477812,   51.6491661,           0.
    117,   16.4637089,   51.6491661,           0.
    118,   20.5796356,   51.6491661,           0.
    119,   24.6955624,   51.6491661,           0.
    120,    28.811491,   51.6491661,           0.
    121,   32.9274178,   51.6491661,           0.
    122,   37.0433464,   51.6491661,           0.
    123,   41.7084961,   55.8209496,           0.
    124,   43.3187447,   59.7084312,           0.
    125,   45.8802795,   63.0466881,           0.
    126,   49.2185364,    65.608223,           0.
    127,   53.1060181,   67.2184677,           0.
    128,   57.2778015,   31.0893078,           0.
    129,   57.2778015,   26.6479778,           0.
    130,   57.2778015,   22.2066479,           0.
    131,   57.2778015,   17.7653179,           0.
    132,   57.2778015,   13.3239889,           0.
    133,   57.2778015,   8.88265896,           0.
    134,   57.2778015,   4.44132948,           0.
    135,   61.5736351,           0.,           0.
    136,   65.8694687,           0.,           0.
    137,   70.1653061,           0.,           0.
    138,   74.4611435,           0.,           0.
    139,   78.7569733,           0.,           0.
    140,   83.0528107,           0.,           0.
    141,   87.3486481,           0.,           0.
    142,   91.6444778,           0.,           0.
    143,   95.9403152,           0.,           0.
    144,   100.236153,           0.,           0.
    145,    104.53199,           0.,           0.
    146,    108.82782,           0.,           0.
    147,   113.123657,           0.,           0.
    148,   117.419495,           0.,           0.
    149,   121.715324,           0.,           0.
    150,   126.011162,           0.,           0.
    151,   130.306992,           0.,           0.
    152,   134.602829,           0.,           0.
    153,   138.898666,           0.,           0.
    154,   143.194504,   4.30409718,           0.
    155,   143.194504,   8.60819435,           0.
    156,   143.194504,   12.9122915,           0.
    157,   143.194504,   17.2163887,           0.
    158,   143.194504,   21.5204849,           0.
    159,   143.194504,   25.8245831,           0.
    160,   143.194504,   30.1286793,           0.
    161,   143.194504,   34.4327774,           0.
    162,   143.194504,   38.7368736,           0.
    163,   143.194504,   43.0409698,           0.
    164,   143.194504,   47.3450699,           0.
    165,   72.8471069,   47.4773827,           0.
    166,   71.2368546,    43.589901,           0.
    167,   68.6753235,   40.2516441,           0.
    168,   65.3370667,   37.6901093,           0.
    169,   61.4495811,   36.0798607,           0.
    170,   53.1060181,   36.0798607,           0.
    171,   49.2185364,   37.6901093,           0.
    172,   45.8802795,   40.2516441,           0.
    173,   43.3187447,    43.589901,           0.
    174,   41.7084961,   47.4773827,           0.
    175,           0.,   47.3450699,           0.
    176,           0.,   43.0409698,           0.
    177,           0.,   38.7368736,           0.
    178,           0.,   34.4327774,           0.
    179,           0.,   30.1286793,           0.
    180,           0.,   25.8245831,           0.
    181,           0.,   21.5204849,           0.
    182,           0.,   17.2163887,           0.
    183,           0.,   12.9122915,           0.
    184,           0.,   8.60819435,           0.
    185,           0.,   4.30409718,           0.
    186,    4.0912714,           0.,           0.
    187,    8.1825428,           0.,           0.
    188,   12.2738142,           0.,           0.
    189,   16.3650856,           0.,           0.
    190,    20.456358,           0.,           0.
    191,   24.5476284,           0.,           0.
    192,   28.6389008,           0.,           0.
    193,   32.7301712,           0.,           0.
    194,   36.8214417,           0.,           0.
    195,   40.9127159,           0.,           0.
    196,   45.0039864,           0.,           0.
    197,   49.0952568,           0.,           0.
    198,   53.1865311,           0.,           0.
    199,   72.5658417,   63.4254036,           0.
    200,   61.0831795,   123.511513,           0.
    201,   75.7920227,   54.7592201,           0.
    202,   60.8282471,   98.4470901,           0.
    203,   60.8282852,   94.3562775,           0.
    204,   60.8304787,   90.2653427,           0.
    205,   60.8339272,   86.1751862,           0.
    206,   60.8792763,   82.0274048,           0.
    207,   69.3377686,   67.4815826,           0.
    208,   61.0189514,   77.6993713,           0.
    209,    60.924427,   73.3889923,           0.
    210,    60.273983,    70.037941,           0.
    211,   76.0362167,   59.3825874,           0.
    212,   64.3771515,   70.0322113,           0.
    213,   137.580612,   55.4828033,           0.
    214,   133.112839,   55.4215355,           0.
    215,   128.856903,   55.2720413,           0.
    216,   124.723427,    55.234417,           0.
    217,   120.612938,   55.2247925,           0.
    218,   116.506577,   55.2202339,           0.
    219,   112.400909,   55.2177429,           0.
    220,   108.295395,   55.2173309,           0.
    221,   104.189857,   55.2181625,           0.
    222,   100.084152,   55.2188377,           0.
    223,   95.9783859,   55.2200966,           0.
    224,    91.872612,   55.2217216,           0.
    225,   87.7163239,   55.2564697,           0.
    226,   83.5024567,   55.3187294,           0.
    227,   79.2787704,   55.3123207,           0.
    228,   139.526138,   118.294312,           0.
    229,   139.501083,   114.041908,           0.
    230,   139.477127,    109.75116,           0.
    231,   139.472717,    105.44973,           0.
    232,    139.47258,   101.146065,           0.
    233,   139.473541,   96.8418884,           0.
    234,   139.474854,   92.5376892,           0.
    235,   139.476761,   88.2335587,           0.
    236,   139.479095,   83.9294205,           0.
    237,   139.481842,   79.6252136,           0.
    238,   139.484512,   75.3209991,           0.
    239,   139.487823,   71.0167236,           0.
    240,   139.457733,    66.664299,           0.
    241,   139.475616,   62.3637619,           0.
    242,   102.385674,   125.409813,           0.
    243,    106.68058,   125.408737,           0.
    244,   110.975632,   125.407303,           0.
    245,   115.271362,   125.405693,           0.
    246,   119.567261,   125.404488,           0.
    247,   123.863152,   125.403702,           0.
    248,   128.264282,   125.335381,           0.
    249,   132.807007,   125.189041,           0.
    250,   137.486328,   125.177422,           0.
    251,   60.8353767,   106.626999,           0.
    252,   60.8318062,   102.537514,           0.
    253,   64.4457703,    84.082428,           0.
    254,   65.2465057,   74.9712448,           0.
    255,    60.873436,   114.795021,           0.
    256,   64.3879395,   92.3145676,           0.
    257,   64.4034042,   88.2155838,           0.
    258,   64.6639099,   79.7760391,           0.
    259,   64.3874817,   96.4059677,           0.
    260,   110.347794,   58.7954521,           0.
    261,   98.0323563,   58.7996063,           0.
    262,   93.9257126,   58.8048058,           0.
    263,   89.7779694,   58.8394966,           0.
    264,   114.452179,    58.799839,           0.
    265,   118.556725,   58.8069839,           0.
    266,   126.813087,   58.8590927,           0.
    267,   130.981369,   59.0125732,           0.
    268,   102.138206,   58.7983932,           0.
    269,   106.243309,   58.7979813,           0.
    270,   85.5951614,    58.940712,           0.
    271,   81.2452011,    59.104641,           0.
    272,   122.669609,    58.824131,           0.
    273,   98.0896683,   125.412247,           0.
    274,   126.139061,   121.631653,           0.
    275,   104.533623,   121.700844,           0.
    276,   121.746773,   121.675598,           0.
    277,    80.907608,   125.414925,           0.
    278,   85.2024231,   125.414177,           0.
    279,   89.4973526,   125.414215,           0.
    280,   93.7933044,   125.414261,           0.
    281,   117.425461,   121.687103,           0.
    282,   113.123528,   121.692795,           0.
    283,    108.82769,   121.697662,           0.
    284,      130.597,   121.515793,           0.
    285,    135.76355,   90.3837814,           0.
    286,   135.789902,   73.1656647,           0.
    287,   135.752655,   107.601059,           0.
    288,    139.78656,   121.938232,           0.
    289,   135.759766,   94.6881561,           0.
    290,   135.769424,   86.0794525,           0.
    291,    135.77597,   81.7750931,           0.
    292,   135.784271,    77.470108,           0.
    293,   135.695389,    68.750267,           0.
    294,   135.753372,   103.297424,           0.
    295,   135.756424,   98.9928131,           0.
    296,   135.708878,   64.3418503,           0.
    297,   135.650162,   111.932915,           0.
    298,   135.638519,   116.261665,           0.
    299,   135.590668,    59.668045,           0.
    300,   135.455795,    120.93219,           0.
    301,   64.3986206,   104.583473,           0.
    302,   60.8502808,   110.710617,           0.
    303,   61.0395813,   119.040909,           0.
    304,   67.9625931,   90.2761459,           0.
    305,   67.9575043,   94.3678284,           0.
    306,   67.9925232,   86.1693039,           0.
    307,   68.1227646,   82.0159454,           0.
    308,   64.3921585,   100.495766,           0.
    309,   108.295479,   62.3866081,           0.
    310,   87.7415619,   62.4951477,           0.
    311,    91.862854,   62.4200058,           0.
    312,   100.087456,   62.3889809,           0.
    313,   95.9795761,   62.3974342,           0.
    314,   104.192154,   62.3892593,           0.
    315,   112.397354,   62.3914185,           0.
    316,   116.499207,   62.4003372,           0.
    317,   120.602409,   62.4067421,           0.
    318,   124.765137,   62.4261627,           0.
    319,   128.916519,   62.4786911,           0.
    320,   100.237953,   121.706024,           0.
    321,   76.6027756,   125.414391,           0.
    322,   67.9581909,   125.375938,           0.
    323,   72.2628708,   125.389908,           0.
    324,   83.0574036,   121.715729,           0.
    325,   87.3518448,    121.71389,           0.
    326,   91.6460419,   121.712898,           0.
    327,   128.431763,   117.997429,           0.
    328,   124.005524,   118.003975,           0.
    329,   119.617828,   117.982895,           0.
    330,   115.281403,   117.982422,           0.
    331,   110.975899,   117.988197,           0.
    332,   106.679832,   117.995514,           0.
    333,   95.9415817,   121.711075,           0.
    334,   131.899658,   109.699203,           0.
    335,   132.003845,   105.444679,           0.
    336,   132.033859,   101.143196,           0.
    337,    131.24382,    114.26049,           0.
    338,    132.04631,   96.8372726,           0.
    339,   132.074936,   83.9223099,           0.
    340,   132.065048,   88.2266617,           0.
    341,   132.056107,   92.5314407,           0.
    342,   132.088013,   79.6167755,           0.
    343,   132.103012,   75.2790756,           0.
    344,   132.047089,   70.9379883,           0.
    345,   131.492676,   66.2808914,           0.
    346,   139.807175,   58.7450447,           0.
    347,   64.4176788,     108.6642,           0.
    348,   71.6141586,   84.1469498,           0.
    349,   67.9757996,   102.541008,           0.
    350,   71.5581894,   88.2392197,           0.
    351,   71.5403366,   92.3329468,           0.
    352,   67.9625549,   98.4562225,           0.
    353,   64.6216965,   116.902405,           0.
    354,   126.889832,   66.1020203,           0.
    355,   110.343178,   65.9923477,           0.
    356,   118.520203,   66.0132217,           0.
    357,   106.243469,   65.9889603,           0.
    358,   122.680046,   66.1460419,           0.
    359,   114.434555,   66.0053024,           0.
    360,   98.0367889,   65.9883652,           0.
    361,   102.141029,   65.9886398,           0.
    362,   93.9270172,    65.997467,           0.
    363,   89.8337021,   66.0398178,           0.
    364,   64.4863434,   112.780983,           0.
    365,    68.539093,   77.9105072,           0.
    366,   132.538025,   62.3564072,           0.
    367,   78.7392883,   121.701569,           0.
    368,   102.383934,   118.004059,           0.
    369,   132.273376,   118.193512,           0.
    370,   64.3432007,   125.708786,           0.
    371,   69.9622269,   121.635086,           0.
    372,   85.2062607,   118.025581,           0.
    373,   89.5001602,    118.02198,           0.
    374,   126.375572,   114.332863,           0.
    375,   121.889603,   114.213463,           0.
    376,   117.457619,   114.264038,           0.
    377,   113.126747,   114.279205,           0.
    378,   108.824425,   114.291428,           0.
    379,   93.7930603,   118.018341,           0.
    380,   74.3310928,   121.581055,           0.
    381,   98.0877304,   118.012848,           0.
    382,   128.362747,    90.371254,           0.
    383,   128.379105,   86.0653076,           0.
    384,   128.421555,   111.210571,           0.
    385,   128.263275,   107.539688,           0.
    386,   128.312286,   103.283684,           0.
    387,   128.396988,   81.7592468,           0.
    388,   128.440674,     77.38311,           0.
    389,    128.73909,   69.3084717,           0.
    390,   128.349457,   94.6773987,           0.
    391,   128.334412,   98.9832535,           0.
    392,   128.507675,   73.0439453,           0.
    393,   65.2875977,   121.527679,           0.
    394,   83.6000671,   62.6777267,           0.
    395,   124.361778,   110.060539,           0.
    396,   67.9816284,   118.477585,           0.
    397,   71.5650253,   100.498848,           0.
    398,   75.1547089,   86.2159119,           0.
    399,   68.1280899,   110.746819,           0.
    400,   75.1328583,   90.2997818,           0.
    401,   68.1707993,   114.859894,           0.
    402,   68.0563278,   106.629166,           0.
    403,   108.289062,   69.6014252,           0.
    404,   112.382118,    69.620842,           0.
    405,    124.87664,   70.3568039,           0.
    406,   120.497971,   69.7754288,           0.
    407,   116.460533,   69.6762314,           0.
    408,   104.190666,   69.5958481,           0.
    409,   71.5434952,   96.4196167,           0.
    410,   100.088928,   69.5921631,           0.
    411,   95.9815598,   69.5913315,           0.
    412,   91.8868179,    69.606163,           0.
    413,   71.8310623,   80.1152725,           0.
    414,   85.7765121,   66.1719208,           0.
    415,   69.2508163,   74.4676743,           0.
    416,   80.9051819,   118.019333,           0.
    417,   79.4281464,   63.0482635,           0.
    418,   104.526894,   114.304741,           0.
    419,   87.3532944,   114.343391,           0.
    420,   95.9361267,   114.328056,           0.
    421,    115.24707,   110.441956,           0.
    422,   91.6451111,   114.337334,           0.
    423,   119.619942,   110.366013,           0.
    424,   110.936462,   110.563545,           0.
    425,   71.9953384,    117.42263,           0.
    426,   124.683922,   88.2049637,           0.
    427,   124.723915,   83.9159927,           0.
    428,   100.230392,   114.318253,           0.
    429,    76.647316,   117.957878,           0.
    430,   124.658646,   105.411407,           0.
    431,   124.735336,   79.5294418,           0.
    432,   124.651344,   101.134819,           0.
    433,   124.663986,   92.5120316,           0.
    434,   124.652199,    96.822319,           0.
    435,   124.889183,   75.1071472,           0.
    436,    121.91555,   73.1591187,           0.
    437,   75.1537933,   98.4609299,           0.
    438,   71.8907471,   108.692413,           0.
    439,   78.7288895,   88.2648468,           0.
    440,   72.3180084,   76.0146255,           0.
    441,   110.329865,   73.2457428,           0.
    442,   114.403679,   73.2924118,           0.
    443,   87.8063812,   69.7155228,           0.
    444,   118.415016,   73.3367233,           0.
    445,   106.233871,   73.2202454,           0.
    446,    93.931076,   73.1959763,           0.
    447,   102.135216,     73.20681,           0.
    448,    98.030777,   73.1990814,           0.
    449,    71.696991,   104.568237,           0.
    450,   75.1324692,   94.3854523,           0.
    451,   75.2542267,   82.1898499,           0.
    452,   81.7322235,   66.4267883,           0.
    453,   83.0666275,   114.391472,           0.
    454,   106.656837,    110.60215,           0.
    455,   98.0745926,    110.64151,           0.
    456,   93.7871552,   110.654877,           0.
    457,   75.1107101,   114.689262,           0.
    458,   89.4973373,   110.667168,           0.
    459,   112.928947,   106.734947,           0.
    460,   117.427048,   106.072006,           0.
    461,   121.077309,    86.044136,           0.
    462,   121.157555,   81.7768097,           0.
    463,   121.007881,   90.3406982,           0.
    464,   102.366493,   110.624954,           0.
    465,   121.084671,   103.318108,           0.
    466,   120.789619,   77.1446915,           0.
    467,   120.979721,   94.6547546,           0.
    468,   121.017349,   98.9894638,           0.
    469,   78.7957458,   114.464333,           0.
    470,   121.430412,   107.045616,           0.
    471,   83.6534348,   69.9253311,           0.
    472,   72.2667236,   71.4804535,           0.
    473,   77.8351669,   66.7477188,           0.
    474,    78.823555,   96.5317154,           0.
    475,    75.461586,   106.507713,           0.
    476,   112.282211,   76.9742889,           0.
    477,   108.218224,   76.8555603,           0.
    478,   116.350563,   77.0063324,           0.
    479,   75.6408234,   78.1911392,           0.
    480,   104.160034,   76.8313599,           0.
    481,   71.9082947,   112.874077,           0.
    482,   95.9710007,   76.8035736,           0.
    483,   100.068771,   76.8166122,           0.
    484,   89.7850571,    73.317894,           0.
    485,   75.2727356,   102.509308,           0.
    486,    78.741188,   92.3689728,           0.
    487,   78.7717896,   84.2278595,           0.
    488,   85.1456604,   110.670265,           0.
    489,   108.750023,   106.856712,           0.
    490,   95.9231262,   106.975273,           0.
    491,   100.207771,   106.956146,           0.
    492,   91.6405334,   106.991753,           0.
    493,   76.1290436,   110.860374,           0.
    494,   117.635262,   83.8503876,           0.
    495,   117.453957,   88.1350098,           0.
    496,   104.489014,   106.921158,           0.
    497,   117.343925,   92.4675751,           0.
    498,   117.398033,   101.298393,           0.
    499,   117.258224,    96.884758,           0.
    500,   80.7833557,   110.834335,           0.
    501,   76.5999756,   73.7393951,           0.
    502,   85.4949417,   73.5641098,           0.
    503,   78.7788239,   104.474846,           0.
    504,   82.3774338,   94.4445343,           0.
    505,   110.021233,   80.5692596,           0.
    506,   106.087669,   80.4780884,           0.
    507,   79.5194092,   70.0651093,           0.
    508,   102.065536,   80.4436874,           0.
    509,   97.9726181,   80.4337463,           0.
    510,   78.9759369,   80.2314606,           0.
    511,   82.3385391,   86.2316818,           0.
    512,   78.7449951,   100.630051,           0.
    513,   82.3384018,   90.3238754,           0.
    514,   91.7837753,   77.0147705,           0.
    515,   114.231354,   81.1893921,           0.
    516,    87.292099,   106.910973,           0.
    517,   110.732338,   103.131271,           0.
    518,   98.0526428,   103.296753,           0.
    519,   93.7803955,     103.2733,           0.
    520,   102.323395,   103.227501,           0.
    521,   106.539986,   103.143799,           0.
    522,   114.134705,   85.7868042,           0.
    523,   113.696243,   90.0239029,           0.
    524,   113.464241,    94.395668,           0.
    525,   113.130325,   99.1873627,           0.
    526,   82.5260162,    106.65686,           0.
    527,   118.032867,   80.1935196,           0.
    528,   81.1828232,   73.6388931,           0.
    529,   76.0495605,   69.8249435,           0.
    530,    111.36396,   83.8029099,           0.
    531,    81.628006,   102.786034,           0.
    532,   79.0646286,   76.6993027,           0.
    533,   85.8508987,   92.3938065,           0.
    534,   87.5283737,   77.2242126,           0.
    535,   108.052094,    84.001503,           0.
    536,   104.099365,   84.0919342,           0.
    537,   99.9766922,   84.1688614,           0.
    538,   82.8309174,   98.9721909,           0.
    539,   85.8743668,   88.2049103,           0.
    540,   93.9054794,   80.5998993,           0.
    541,   82.4345245,   82.1575928,           0.
    542,   89.4997253,   103.165848,           0.
    543,   95.9250107,   99.5554886,           0.
    544,   100.148506,   99.4883041,           0.
    545,    104.36364,   99.3911285,           0.
    546,   108.562866,    99.394577,           0.
    547,   110.448372,   87.1873627,           0.
    548,   109.265869,   91.7810135,           0.
    549,   110.176483,    96.070755,           0.
    550,   85.1939163,   102.971024,           0.
    551,   78.7357635,   107.866829,           0.
    552,   82.9065704,   77.7132416,           0.
    553,   74.0036163,   67.1453171,           0.
    554,   89.5110245,   81.3361588,           0.
    555,   89.3733902,   90.3421173,           0.
    556,    106.38102,   87.7563019,           0.
    557,   102.114731,   87.9408493,           0.
    558,   85.5797195,   96.0518875,           0.
    559,   95.8938217,    84.235733,           0.
    560,   85.8677597,   84.0628128,           0.
    561,   91.6536255,   99.3688736,           0.
    562,   114.323334,   103.284798,           0.
    563,   98.0134048,    95.706459,           0.
    564,   102.229919,   95.6175385,           0.
    565,   75.9738007,   63.9498596,           0.
    566,   85.6496506,   80.4988022,           0.
    567,    104.41713,   91.7655716,           0.
    568,   92.3972778,   84.0526886,           0.
    569,   68.0957947,   71.6866302,           0.
    570,   89.4440079,   95.0726089,           0.
    571,   89.3860931,   86.0201569,           0.
    572,   97.8728409,   88.0621948,           0.
    573,   93.8882446,   95.6589966,           0.
    574,   87.3669891,   99.2670746,           0.
    575,   100.092506,   91.8492432,           0.
    576,   106.502647,   95.6700974,           0.
    577,   93.3166885,   88.1376343,           0.
    578,   95.9283524,   91.9436951,           0.
    579,   92.3901367,   92.2310104,           0.
    580,   53.7261086,   90.2682648,           0.
    581,   53.7257576,   86.1774063,           0.
    582,   53.7293777,   82.0809021,           0.
    583,   53.7249031,   77.9532318,           0.
    584,   5.53585005,   125.208206,           0.
    585,   10.0075321,    125.25515,           0.
    586,    18.400116,   125.517014,           0.
    587,   22.4993248,   125.556625,           0.
    588,   26.5929089,   125.570229,           0.
    589,   30.6858578,   125.574196,           0.
    590,   34.7819061,   125.574348,           0.
    591,   38.9118423,   125.556541,           0.
    592,   43.0876541,   125.507698,           0.
    593,   47.3699493,   125.387932,           0.
    594,    51.813694,   125.380241,           0.
    595,   18.5393181,   55.2676163,           0.
    596,   22.6460533,   55.2544632,           0.
    597,   26.7962456,   55.2610054,           0.
    598,   30.9869404,   55.2857513,           0.
    599,   35.2094078,   55.2974625,           0.
    600,   45.3816605,   67.1114273,           0.
    601,   38.3369827,   59.4213486,           0.
    602,    49.642067,   70.6987991,           0.
    603,   41.9544945,    63.694191,           0.
    604,   54.2071877,   70.2641602,           0.
    605,   3.74841785,   58.0241623,           0.
    606,   3.85778713,   62.2531853,           0.
    607,   3.80379915,   66.6315918,           0.
    608,   3.75988126,   70.9840469,           0.
    609,   3.72918105,   75.3127289,           0.
    610,   3.72038102,   79.6242065,           0.
    611,   3.71805906,   83.9300232,           0.
    612,   3.71616316,   88.2349243,           0.
    613,   3.71342444,   92.5395432,           0.
    614,   3.70970726,   96.8438797,           0.
    615,   3.70574665,   101.147873,           0.
    616,   3.70199919,   105.450912,           0.
    617,   3.71780825,   109.759857,           0.
    618,   3.72927451,   114.072853,           0.
    619,   3.68621254,   118.339394,           0.
    620,   53.7132111,   73.7592316,           0.
    621,   53.7282372,   94.3579102,           0.
    622,   53.7306252,   102.535164,           0.
    623,   53.7297325,   98.4467926,           0.
    624,   50.1813545,   80.0212021,           0.
    625,   50.1677742,   84.1338882,           0.
    626,   50.1661682,   88.2279816,           0.
    627,   53.7262459,   106.621323,           0.
    628,   53.7125587,   110.707748,           0.
    629,    53.698864,   114.796516,           0.
    630,    53.713398,   118.846771,           0.
    631,   54.0015717,   122.304649,           0.
    632,   14.2689123,   125.425751,           0.
    633,   45.2557755,   121.897415,           0.
    634,   36.8793449,   122.017677,           0.
    635,   28.6424046,   122.018616,           0.
    636,   24.5471611,   121.994247,           0.
    637,   20.4478664,   121.926643,           0.
    638,   32.7488747,   122.021286,           0.
    639,   41.0591202,   121.992523,           0.
    640,   38.6915016,   54.7676163,           0.
    641,   20.5955334,   58.8962135,           0.
    642,   10.3892641,   55.5202408,           0.
    643,   14.4510002,   55.3337479,           0.
    644,   28.9447613,   58.8933029,           0.
    645,   33.2249641,   58.9493484,           0.
    646,   24.7461243,   58.8867607,           0.
    647,   3.82280445,   54.1236267,           0.
    648,   7.97746611,   59.6203346,           0.
    649,   7.42248154,   90.3901825,           0.
    650,   7.62381268,   68.7529449,           0.
    651,   7.43077421,    107.61277,           0.
    652,   7.47505283,   116.329971,           0.
    653,    7.4361577,   77.4705124,           0.
    654,   7.66162539,   64.3358078,           0.
    655,   7.48527908,   73.1483231,           0.
    656,   7.43123436,   81.7777863,           0.
    657,   7.42648649,   86.0844116,           0.
    658,    7.4145956,   94.6955185,           0.
    659,   7.40628529,    98.999794,           0.
    660,   7.40357113,   103.304558,           0.
    661,    7.5372014,   111.971062,           0.
    662,   49.8726006,   121.341187,           0.
    663,    50.141201,   75.7959824,           0.
    664,   12.1863136,   121.664589,           0.
    665,   50.1761627,   96.4060669,           0.
    666,   50.0121956,   112.754974,           0.
    667,   50.1271095,   108.637604,           0.
    668,   50.1771965,   100.491096,           0.
    669,   50.1661987,   104.566528,           0.
    670,   50.0145264,   116.892197,           0.
    671,   46.5956535,   86.1916733,           0.
    672,    46.616024,   82.0676041,           0.
    673,   43.2320976,   118.490021,           0.
    674,   39.0447121,   118.464401,           0.
    675,   34.8547859,   118.455307,           0.
    676,   30.7178078,   118.450645,           0.
    677,   26.6267471,    118.40683,           0.
    678,   22.5324745,    118.30703,           0.
    679,   16.3281059,   121.823631,           0.
    680,   50.1699791,   92.3185654,           0.
    681,   12.4374065,    59.051342,           0.
    682,   31.0632439,   62.4761581,           0.
    683,   26.8488541,   62.5545921,           0.
    684,   22.6481323,   62.5653687,           0.
    685,      16.4951,    58.948925,           0.
    686,   7.55620098,    121.00602,           0.
    687,   6.83396149,   55.7875061,           0.
    688,   11.1315193,    83.933609,           0.
    689,   11.1316118,   79.6311111,           0.
    690,   11.1496096,   75.3297653,           0.
    691,   11.1230612,   88.2419586,           0.
    692,    11.093976,   105.454483,           0.
    693,    11.091423,   101.158203,           0.
    694,   11.2386065,   71.0516739,           0.
    695,   11.1575747,    109.71051,           0.
    696,   11.1015654,   96.8549042,           0.
    697,   11.8254089,   66.4131165,           0.
    698,   11.6907139,   114.321426,           0.
    699,   11.1120625,   92.5494919,           0.
    700,   10.8661623,   62.3976364,           0.
    701,   44.4087753,   71.3909454,           0.
    702,   41.0436707,   68.1004028,           0.
    703,   14.4232645,   62.6169701,           0.
    704,   46.6109238,   94.3693008,           0.
    705,   14.2533283,   118.137367,           0.
    706,   42.9650307,    84.049118,           0.
    707,    46.611927,   98.4511185,           0.
    708,      45.8806,   114.906166,           0.
    709,   46.4765396,    110.56395,           0.
    710,   46.5714378,   106.558975,           0.
    711,   46.5958061,   102.514778,           0.
    712,    24.713316,    114.68026,           0.
    713,   28.7778683,   114.832855,           0.
    714,   32.8377991,   114.889526,           0.
    715,   37.0238762,   114.834816,           0.
    716,   41.2823792,   114.931839,           0.
    717,     46.85112,   118.705399,           0.
    718,   46.6003685,   90.2821808,           0.
    719,   18.3958035,   118.201508,           0.
    720,   24.6812305,   66.2647629,           0.
    721,   29.0896626,   66.3648376,           0.
    722,   18.5147457,   62.5980873,           0.
    723,   46.7042961,   77.9489822,           0.
    724,   34.7737656,   62.2932777,           0.
    725,   10.6323223,   118.291878,           0.
    726,   14.7711096,    99.026329,           0.
    727,   14.7886295,   94.7142181,           0.
    728,   14.7332172,   103.347466,           0.
    729,   14.6898184,   107.618256,           0.
    730,   14.8226671,   81.7876511,           0.
    731,   14.8227968,   77.4698639,           0.
    732,   14.5528679,   69.4790192,           0.
    733,   14.8001118,   73.1640167,           0.
    734,   14.4417076,   111.285164,           0.
    735,   14.8035326,   90.4046097,           0.
    736,   14.8146391,   86.0946732,           0.
    737,    37.721653,   64.7585144,           0.
    738,   3.35565281,   121.977432,           0.
    739,   33.5440674,   65.9168777,           0.
    740,   16.3926697,   66.2952957,           0.
    741,   16.2838917,   114.460388,           0.
    742,   43.0318832,   92.3477707,           0.
    743,    43.048954,   96.4459839,           0.
    744,   34.8500023,   111.369011,           0.
    745,   39.2987633,    110.90464,           0.
    746,   43.0454979,   100.503914,           0.
    747,   26.9995956,   111.123093,           0.
    748,   43.0167885,   104.519958,           0.
    749,   42.9975166,   108.503479,           0.
    750,   43.1871605,   111.962013,           0.
    751,    30.909687,   111.411285,           0.
    752,   26.5957222,   70.6060257,           0.
    753,   20.5385303,   114.461121,           0.
    754,    42.985302,   88.2131271,           0.
    755,   20.5420322,   66.2426987,           0.
    756,   42.9687271,   79.7669067,           0.
    757,   36.6745796,   69.1854706,           0.
    758,   18.5061111,   96.9109726,           0.
    759,   18.4071369,   101.284828,           0.
    760,   18.2615509,    105.60054,           0.
    761,   18.3624763,   110.239059,           0.
    762,   18.5637379,   83.9476089,           0.
    763,   18.5467529,   79.6129074,           0.
    764,   18.5982666,   92.5761185,           0.
    765,   18.5560455,   75.1911392,           0.
    766,   18.5340652,   70.3899689,           0.
    767,   18.6405849,   88.2592545,           0.
    768,   39.2709312,   90.3039398,           0.
    769,   39.3895264,   94.5303268,           0.
    770,   36.3418999,   108.203384,           0.
    771,   39.5949593,   98.5640106,           0.
    772,   32.8136215,   107.933327,           0.
    773,   39.5262527,   102.467499,           0.
    774,    29.277132,   108.247635,           0.
    775,   39.1184006,   85.9734268,           0.
    776,   22.9184456,   110.772705,           0.
    777,    39.158329,   81.6873398,           0.
    778,   43.3221626,   75.5095901,           0.
    779,   22.5485439,   69.3091354,           0.
    780,   31.9141655,   70.4842072,           0.
    781,   40.0128746,   72.4566574,           0.
    782,   22.2436199,    99.246048,           0.
    783,   21.9505672,   103.658516,           0.
    784,   22.5251694,   94.8484802,           0.
    785,   21.3968143,    107.39682,           0.
    786,   22.4191189,   81.7692947,           0.
    787,   22.3795567,    77.407608,           0.
    788,   22.5898037,   86.0965805,           0.
    789,   22.6768131,   90.4646606,           0.
    790,   22.4637165,   73.0257339,           0.
    791,   35.1201668,   88.1243362,           0.
    792,   35.3338966,   92.6838226,           0.
    793,   35.4437561,    104.24707,           0.
    794,   35.8890152,   97.0046158,           0.
    795,   36.7177124,   100.482224,           0.
    796,   30.1990623,     104.1008,           0.
    797,   39.4374962,   106.474342,           0.
    798,   25.5194225,   106.712364,           0.
    799,   34.8285751,   83.3005524,           0.
    800,   38.8197098,   77.0930481,           0.
    801,   35.6961555,   73.4238281,           0.
    802,   25.9284573,   101.777542,           0.
    803,   26.3483582,   97.3400192,           0.
    804,    26.779871,   92.8544922,           0.
    805,   26.3370075,   79.5564804,           0.
    806,   26.5434227,   83.8901749,           0.
    807,   26.7515545,   88.3036346,           0.
    808,   29.4585381,   73.5999832,           0.
    809,   46.8437004,   74.2688599,           0.
    810,   33.1272736,   100.210129,           0.
    811,   30.9924202,   90.6045456,           0.
    812,   31.1156864,   95.7781448,           0.
    813,   30.7547626,   85.9820175,           0.
    814,   36.0857544,   79.7804337,           0.
    815,   32.3542213,   74.3634567,           0.
    816,    26.252512,   75.2530441,           0.
    817,   29.3437672,   99.8413239,           0.
    818,   30.3241253,   81.6476746,           0.
    819,   30.3355083,   77.3202667,           0.
    820,   34.4152985,   76.9692383,           0.
    821,   33.1978531,   79.8036346,           0.
    822,   104.189667,   48.0855942,           0.
    823,   128.868484,   47.9826241,           0.
    824,   116.506752,   48.0849724,           0.
    825,   112.401093,   48.0853348,           0.
    826,   95.9784622,   48.0847054,           0.
    827,   91.8730011,   48.0815697,           0.
    828,   83.5655594,   48.0581017,           0.
    829,   124.727112,   48.0634918,           0.
    830,   120.613945,   48.0785179,           0.
    831,   108.295395,   48.0846977,           0.
    832,   100.084076,   48.0844917,           0.
    833,   87.7516861,   48.0739555,           0.
    834,   79.3322601,   48.0196228,           0.
    835,   72.5003281,   39.5675392,           0.
    836,   64.5618362,   33.0338669,           0.
    837,   68.9739304,   36.2207718,           0.
    838,   76.1759796,   43.8556213,           0.
    839,   115.271286,   3.71434546,           0.
    840,   123.861984,   3.71777105,           0.
    841,   119.566338,   3.71546865,           0.
    842,   110.975616,   3.71277952,           0.
    843,   102.384171,   3.71284485,           0.
    844,   89.4966965,   3.71510029,           0.
    845,   85.2011185,   3.71618819,           0.
    846,   80.9059753,   3.71911597,           0.
    847,   76.6106186,   3.72450066,           0.
    848,   72.2173691,   3.82798982,           0.
    849,    67.690773,   4.02275419,           0.
    850,   63.0114174,   4.06762218,           0.
    851,   106.679909,   3.71182799,           0.
    852,   98.0884171,   3.71309614,           0.
    853,   93.7926254,   3.71346593,           0.
    854,   139.820007,   44.4783325,           0.
    855,   139.484177,   32.2786789,           0.
    856,   139.479019,   27.9763012,           0.
    857,   139.475357,   23.6730957,           0.
    858,   139.467911,   19.3611927,           0.
    859,   139.398163,   14.9488792,           0.
    860,   139.259781,   10.4060278,           0.
    861,   139.253159,   5.71933699,           0.
    862,   139.506821,   40.8493919,           0.
    863,   60.3134956,   33.0119438,           0.
    864,   61.1024475,   20.0580997,           0.
    865,   61.1601944,   24.6724243,           0.
    866,   61.0046539,   29.3088131,           0.
    867,   75.8507538,   48.5301933,           0.
    868,   114.453102,   44.5138245,           0.
    869,   137.635574,   47.7354965,           0.
    870,   133.137589,   47.7944756,           0.
    871,   93.9280624,   44.5085068,           0.
    872,    118.55822,    44.507515,           0.
    873,   98.0325394,   44.5120926,           0.
    874,    89.821434,   44.4992409,           0.
    875,   110.347946,   44.5141029,           0.
    876,   126.800705,   44.3993378,           0.
    877,   102.137337,   44.5134087,           0.
    878,   85.5978699,   44.4573059,           0.
    879,   81.2919693,   44.3467789,           0.
    880,   106.242599,   44.5129089,           0.
    881,    122.67189,   44.4811249,           0.
    882,   128.141052,    3.6955533,           0.
    883,   74.3527985,   7.54546404,           0.
    884,   78.7362442,   7.46098757,           0.
    885,   132.383911,   3.68203902,           0.
    886,   87.3502808,   7.42615652,           0.
    887,   113.122414,   7.42085743,           0.
    888,   95.9412308,   7.42059135,           0.
    889,   117.415924,   7.42433691,           0.
    890,   83.0523682,   7.43463802,           0.
    891,   69.9015274,   7.74522305,           0.
    892,   108.827477,   7.41817331,           0.
    893,   104.532303,   7.41773891,           0.
    894,     100.2369,   7.41790962,           0.
    895,   91.6457443,   7.42166424,           0.
    896,   121.689842,   7.42132092,           0.
    897,   136.020844,   3.41798902,           0.
    898,    139.49025,   36.5810127,           0.
    899,   135.583725,   12.6092587,           0.
    900,   135.765671,    25.823801,           0.
    901,   135.777557,   30.1294994,           0.
    902,   135.750671,   21.5011864,           0.
    903,   135.699158,   17.0750656,           0.
    904,   135.633041,   43.5147743,           0.
    905,   61.0566902,   15.5795898,           0.
    906,   61.0097084,     11.17167,           0.
    907,   60.7191467,   7.40285778,           0.
    908,   64.8881531,   22.3891964,           0.
    909,   65.7223511,   27.4879818,           0.
    910,   65.0306549,    8.4276247,           0.
    911,    134.99585,   7.70762444,           0.
    912,    112.39901,   40.9331551,           0.
    913,   100.086533,   40.9319954,           0.
    914,   108.294769,    40.932991,           0.
    915,   104.190475,   40.9313011,           0.
    916,   116.501717,    40.925827,           0.
    917,   95.9843597,   40.9257011,           0.
    918,   120.603271,   40.9228401,           0.
    919,   124.730667,   40.8817291,           0.
    920,   87.6683502,   40.8779297,           0.
    921,   91.8578949,   40.9083481,           0.
    922,   83.4710464,   40.8811722,           0.
    923,   131.001923,   44.1911774,           0.
    924,   135.685287,   34.4975929,           0.
    925,   135.743378,   38.8601646,           0.
    926,   125.992699,   7.53561831,           0.
    927,   106.679909,    11.114912,           0.
    928,   110.973137,   11.1165667,           0.
    929,   85.2077332,   11.1350069,           0.
    930,   102.385468,   11.1147623,           0.
    931,    89.501152,   11.1253653,           0.
    932,   98.0904465,   11.1164827,           0.
    933,   93.7956314,   11.1189404,           0.
    934,   115.263664,   11.1227388,           0.
    935,   119.530098,   11.1363668,           0.
    936,   80.9046021,   11.1574593,           0.
    937,   72.0642929,   11.3656044,           0.
    938,    76.506012,   11.2406712,           0.
    939,   130.325638,   7.53715563,           0.
    940,   132.026871,    14.749588,           0.
    941,   132.049942,   19.2284584,           0.
    942,   132.059784,   23.6363831,           0.
    943,   132.067413,   28.0207596,           0.
    944,   64.9252548,   17.8356838,           0.
    945,   64.8967285,   13.2806139,           0.
    946,    69.569313,   31.6313972,           0.
    947,   73.2993469,   35.1321449,           0.
    948,   85.4030685,   37.2291451,           0.
    949,   98.0402069,   37.3355217,           0.
    950,   93.9312439,    37.319973,           0.
    951,   114.445068,   37.3351822,           0.
    952,   118.513458,    37.342289,           0.
    953,   110.344574,   37.3395805,           0.
    954,   106.242554,   37.3402252,           0.
    955,   102.140854,   37.3378258,           0.
    956,   122.637215,   37.2233391,           0.
    957,   89.7469101,   37.2866516,           0.
    958,    128.90831,   40.7673683,           0.
    959,   79.7373505,   40.9991302,           0.
    960,   132.555786,   40.8581657,           0.
    961,   131.999725,   32.3780365,           0.
    962,   123.748222,   11.2904959,           0.
    963,   83.0725555,   14.8459797,           0.
    964,    78.727562,   14.8952866,           0.
    965,   113.110275,   14.8095522,           0.
    966,   117.380394,   14.8291693,           0.
    967,   104.533218,   14.8012648,           0.
    968,   100.239822,   14.8025179,           0.
    969,   108.823212,   14.8014812,           0.
    970,    95.945816,   14.8059101,           0.
    971,   87.3620987,   14.8254862,           0.
    972,   132.236786,   10.8971968,           0.
    973,    91.653244,   14.8123999,           0.
    974,   74.3140259,    15.072134,           0.
    975,   128.298004,    11.964818,           0.
    976,    128.36853,   16.8513508,           0.
    977,   128.261139,   21.3292179,           0.
    978,   128.360138,   25.8522797,           0.
    979,   68.2316818,   11.2414141,           0.
    980,   131.470551,   37.0011635,           0.
    981,   68.6025925,   20.2874298,           0.
    982,   76.7848816,   38.5549889,           0.
    983,   69.3746796,   15.4419298,           0.
    984,   70.8390198,    27.116003,           0.
    985,   81.0012589,   37.5141563,           0.
    986,   95.9982834,   33.7219505,           0.
    987,   116.442833,   33.7104187,           0.
    988,   91.8980942,   33.6810799,           0.
    989,    87.652504,   33.4954872,           0.
    990,   120.446098,   33.5743027,           0.
    991,   100.095551,   33.7316055,           0.
    992,   112.380325,   33.7253609,           0.
    993,   104.193756,   33.7352028,           0.
    994,   108.290245,    33.732193,           0.
    995,   126.858749,   37.1874466,           0.
    996,   128.445557,   30.2684059,           0.
    997,   121.599121,   14.9047461,           0.
    998,   80.9202805,   18.5264664,           0.
    999,   77.7958221,   34.1506157,           0.
   1000,   76.6920624,   18.5638714,           0.
   1001,   115.371658,   18.5309601,           0.
   1002,   85.2050171,   18.5166073,           0.
   1003,   111.151978,   18.5715389,           0.
   1004,   102.504662,   18.6683235,           0.
   1005,    106.93512,   18.6151505,           0.
   1006,   98.0007782,   18.7199593,           0.
   1007,   89.4217682,   18.5204906,           0.
   1008,   93.5808792,   18.6133633,           0.
   1009,   125.229858,   14.7727165,           0.
   1010,   124.115143,   18.8167973,           0.
   1011,   124.601944,   23.6444569,           0.
   1012,   128.710129,   33.9706192,           0.
   1013,   68.3445511,   24.0562477,           0.
   1014,   124.826477,   32.9286385,           0.
   1015,   94.2053375,   30.0280781,           0.
   1016,   118.345642,    29.948019,           0.
   1017,   114.286797,   29.9936008,           0.
   1018,   90.2083664,   29.8494453,           0.
   1019,   98.2164841,   30.2190247,           0.
   1020,   110.187958,   30.0302277,           0.
   1021,   102.112389,   30.2672501,           0.
   1022,   106.059158,   30.1040955,           0.
   1023,   82.7797089,   32.9741325,           0.
   1024,   74.3341675,   30.6190052,           0.
   1025,   119.592712,   18.5113525,           0.
   1026,   71.8250046,   22.9984264,           0.
   1027,   78.6356583,   22.1192608,           0.
   1028,   124.802223,   28.1384926,           0.
   1029,   82.8821564,   22.1874599,           0.
   1030,   113.653831,   22.3619843,           0.
   1031,   87.0229263,   22.2344666,           0.
   1032,   109.478058,   22.4296913,           0.
   1033,   72.6231155,   19.0142021,           0.
   1034,   105.128082,   22.5973072,           0.
   1035,    100.19841,   23.2530613,           0.
   1036,   91.0988922,   22.3574429,           0.
   1037,   95.3559647,   22.6013718,           0.
   1038,   121.365761,   21.8274136,           0.
   1039,   116.138786,    26.125536,           0.
   1040,   96.8149033,   26.5923843,           0.
   1041,   92.7268753,   26.2432823,           0.
   1042,    111.94088,   26.2096138,           0.
   1043,   100.202583,    27.374958,           0.
   1044,   107.744148,   26.3190002,           0.
   1045,   103.574127,   26.6526127,           0.
   1046,   86.1046982,   29.5181103,           0.
   1047,   78.9473648,   29.7223034,           0.
   1048,    117.80912,    22.221056,           0.
   1049,    120.70153,    26.010437,           0.
   1050,   80.5700607,     25.76441,           0.
   1051,   84.6414642,   25.7709026,           0.
   1052,   75.0842361,   21.6989155,           0.
   1053,   75.7479324,   25.7197609,           0.
   1054,   88.6338654,   25.9956093,           0.
   1055,   82.6086578,   28.7499714,           0.
   1056,   121.824394,    30.119978,           0.
   1057,   42.1150742,   39.7068748,           0.
   1058,   38.7604294,   48.5354195,           0.
   1059,    53.440239,   20.0688725,           0.
   1060,   45.5168762,   35.7286682,           0.
   1061,   53.3734512,   24.7529297,           0.
   1062,   53.5862503,   29.4033718,           0.
   1063,   54.2944832,   33.0323906,           0.
   1064,    38.539257,   43.8520203,           0.
   1065,    50.232563,   33.0458221,           0.
   1066,   5.62715769,   47.8122787,           0.
   1067,   10.1058607,   47.8706398,           0.
   1068,   14.3724079,   48.0173225,           0.
   1069,   18.5161247,   48.0536728,           0.
   1070,   22.6368523,   48.0615349,           0.
   1071,   26.8045425,   48.0263443,           0.
   1072,   31.0310135,   47.9612885,           0.
   1073,   35.2694664,   47.9642601,           0.
   1074,   3.73693013,   19.3424759,           0.
   1075,   3.71883798,   23.6695194,           0.
   1076,   3.71417141,   27.9767723,           0.
   1077,   3.71000719,   32.2816734,           0.
   1078,   3.74149561,   36.6324425,           0.
   1079,   3.72562027,   40.9311676,           0.
   1080,   51.6430473,   3.88287139,           0.
   1081,   47.1746445,   3.80304551,           0.
   1082,   38.8624916,   3.56702971,           0.
   1083,   34.7759056,   3.55679131,           0.
   1084,   30.6847763,   3.55440259,           0.
   1085,   26.5938015,    3.5549252,           0.
   1086,    22.502573,   3.55728626,           0.
   1087,   18.4124966,   3.56338191,           0.
   1088,   14.3090935,   3.60697436,           0.
   1089,   10.0690536,   3.75790763,           0.
   1090,   5.59553242,   3.82396102,           0.
   1091,   42.9590874,   3.64424586,           0.
   1092,   12.2160215,   7.32767534,           0.
   1093,   36.8236008,   7.15436888,           0.
   1094,   28.6403561,   7.11801624,           0.
   1095,   32.7317238,   7.12556744,           0.
   1096,   24.5505753,   7.12386608,           0.
   1097,   20.4615345,   7.13474131,           0.
   1098,    16.338419,   7.19878244,           0.
   1099,   20.5801468,   44.4574585,           0.
   1100,   16.4191208,   44.4184456,           0.
   1101,   24.7338219,   44.4185143,           0.
   1102,   28.9243469,   44.3097649,           0.
   1103,   33.2939873,   44.1415062,           0.
   1104,   12.2404261,   44.2725105,           0.
   1105,   3.75181055,   14.9848309,           0.
   1106,   7.51053905,   34.5450211,           0.
   1107,   7.42048645,   25.8292961,           0.
   1108,   3.73542809,   10.6840506,           0.
   1109,   7.44527721,   21.5053711,           0.
   1110,   3.40290451,   7.07250214,           0.
   1111,   7.42876244,   30.1518822,           0.
   1112,   7.49903774,   38.9495468,           0.
   1113,   53.4506607,   15.4951553,           0.
   1114,   49.5294037,   22.4923306,           0.
   1115,   49.1128693,       27.809,           0.
   1116,   53.4839706,   11.0067654,           0.
   1117,   49.6080551,   8.19203472,           0.
   1118,   7.58548117,   8.00742626,           0.
   1119,   7.62003136,   43.6232414,           0.
   1120,   10.6256838,   10.7160501,           0.
   1121,    45.034668,    7.4802494,           0.
   1122,   30.6903439,     10.69384,           0.
   1123,   18.3782711,   10.7603827,           0.
   1124,   22.5022049,   10.7197542,           0.
   1125,   26.5992889,   10.7035275,           0.
   1126,   34.7715225,   10.7337809,           0.
   1127,   14.2552242,   10.8423357,           0.
   1128,   40.9272652,   7.29000139,           0.
   1129,   26.7515755,   40.7276421,           0.
   1130,   22.6357861,    40.819458,           0.
   1131,   18.4660549,   40.8379555,           0.
   1132,   14.3062716,   40.7999077,           0.
   1133,    7.5373497,   17.1028175,           0.
   1134,   11.2492971,   23.6657639,           0.
   1135,   11.1286173,   28.0252209,           0.
   1136,   11.1694727,   32.3576126,           0.
   1137,   11.7225323,   37.0051804,           0.
   1138,   7.48679161,   12.6965456,           0.
   1139,   3.39456201,   44.5505447,           0.
   1140,   49.5762978,   17.7133064,           0.
   1141,   53.8581352,   7.28113222,           0.
   1142,   49.6945305,   13.0836887,           0.
   1143,   30.9084892,   40.5366821,           0.
   1144,   11.7061071,   14.6651802,           0.
   1145,    42.953331,   11.0291567,           0.
   1146,   32.7056122,   14.2920341,           0.
   1147,   16.2602806,   14.3389769,           0.
   1148,   28.6485424,   14.2870789,           0.
   1149,   20.3972797,   14.3194323,           0.
   1150,   24.5438461,   14.3025398,           0.
   1151,   16.3309307,   37.1704788,           0.
   1152,   46.5489578,   10.9722681,           0.
   1153,   24.6566677,    37.164814,           0.
   1154,   20.5288391,   37.0950317,           0.
   1155,   38.8376007,   10.8341351,           0.
   1156,   28.6991215,   37.0150299,           0.
   1157,     10.67766,   40.9300766,           0.
   1158,   11.3424187,   19.3159714,           0.
   1159,   14.4777946,   33.9741325,           0.
   1160,   14.7158518,   30.2215195,           0.
   1161,   14.8635035,   25.9579201,           0.
   1162,   35.1283913,   40.1323586,           0.
   1163,   45.6983986,   19.9316998,           0.
   1164,   45.4046288,   15.0147476,           0.
   1165,   26.6502151,   33.3561516,           0.
   1166,   40.9032555,   14.5207682,           0.
   1167,   30.6801529,    17.878479,           0.
   1168,   18.2504749,   17.7965832,           0.
   1169,   26.5984955,   17.8896561,           0.
   1170,   22.4257069,   17.8443508,           0.
   1171,    18.332798,   32.8548927,           0.
   1172,   22.6837997,   33.3267632,           0.
   1173,   36.8029289,   14.3780651,           0.
   1174,   32.7408714,   36.7330589,           0.
   1175,   15.5330849,   21.4131527,           0.
   1176,    45.480526,   24.4972916,           0.
   1177,   18.2280903,   28.1562805,           0.
   1178,   14.6184731,   17.5059738,           0.
   1179,   42.4822578,   17.8718777,           0.
   1180,   24.6233273,   29.5166836,           0.
   1181,   30.6220112,   33.1290932,           0.
   1182,   36.6006927,   36.2291451,           0.
   1183,   21.1710835,   29.9069843,           0.
   1184,   28.6206799,   21.6002121,           0.
   1185,    24.402792,   21.6209736,           0.
   1186,   20.1358223,   21.4504757,           0.
   1187,    34.792038,   17.9327316,           0.
   1188,     18.14958,   24.5316277,           0.
   1189,   38.8919182,   18.0204277,           0.
   1190,   41.4959259,   21.9538536,           0.
   1191,    44.669117,   28.7485752,           0.
   1192,   21.8942642,   25.8049393,           0.
   1193,   36.8747711,   21.7461357,           0.
   1194,   28.6021786,    29.352623,           0.
   1195,   26.4620571,   25.5501919,           0.
   1196,   32.7054291,   21.6558247,           0.
   1197,   34.4691467,   32.9486618,           0.
   1198,   42.2035561,   26.2032089,           0.
   1199,     46.64394,   31.5393562,           0.
   1200,   34.6535225,   25.5305958,           0.
   1201,   32.5756607,   29.2942753,           0.
   1202,   37.7979393,   32.8126984,           0.
   1203,   40.6136703,   30.0913372,           0.
   1204,   30.6032543,   25.4972878,           0.
   1205,   38.7199097,   25.8206806,           0.
   1206,   40.7117805,   35.1575584,           0.
   1207,   36.4716415,   29.4163742,           0.
   1208,   38.6190376,   39.0155907,           0.
   1209,   43.6310768,   32.2531013,           0.
*Element, type=S3
  1, 347, 302, 251
  2, 370,  83, 200
  3, 341, 289, 338
  4, 200,  13,  14
  5, 264, 219, 218
  6, 201,   3,  32
  7, 302,  17, 251
  8, 251,  17,  18
  9, 252,  19, 202
 10, 275, 243, 242
 11, 244,  72, 243
 12, 204,  21,  22
 13, 203, 202,  20
 14, 204, 203,  21
 15, 206, 205,  23
 16, 258, 206, 208
 17, 207,  29, 199
 18, 208, 206,  24
 19, 209, 208,  25
 20, 210,   2,  27
 21, 211,  30,  31
 22, 254, 209, 212
 23,  47,   4,  48
 24, 213,  47,  48
 25, 241,  50, 240
 26, 214,  45,  46
 27, 215,  44,  45
 28, 216,  43,  44
 29, 217,  42,  43
 30, 218,  41,  42
 31, 219,  40,  41
 32, 220,  39,  40
 33, 221,  38,  39
 34, 222,  37,  38
 35, 223,  36,  37
 36, 268, 222, 221
 37, 225,  35, 224
 38, 227,  32,  33
 39,  65,  64,   5
 40, 250,  64,  65
 41, 276, 247, 246
 42, 229,  62, 228
 43, 230,  61, 229
 44, 231,  60, 230
 45, 232,  59, 231
 46, 233,  58, 232
 47, 313, 261, 312
 48, 404, 403, 355
 49, 290, 235, 285
 50, 291, 237, 236
 51, 237,  54, 236
 52, 290, 236, 235
 53, 317, 316, 265
 54, 286, 239, 238
 55, 346,  48,  49
 56,  83,   1,  13
 57, 200,  83,  13
 58, 370, 322,  82
 59, 393, 200, 303
 60, 323,  81, 322
 61, 396, 393, 353
 62, 252, 251,  18
 63, 367, 277, 321
 64, 278,  78, 277
 65, 278,  77,  78
 66, 279,  77, 278
 67, 273,  74,  75
 68, 243,  73, 242
 69, 245,  71, 244
 70, 246,  70, 245
 71, 247,  69, 246
 72, 248,  68, 247
 73, 249,  67, 248
 74, 300, 288, 250
 75, 199,  29,  30
 76, 211,  31, 201
 77, 303,  15, 255
 78, 255,  15,  16
 79, 201,  31,   3
 80, 227,  33, 226
 81, 202,  19,  20
 82, 203,  20,  21
 83, 205,  22,  23
 84, 357, 314, 309
 85, 205, 204,  22
 86, 257, 205, 253
 87, 206,  23,  24
 88, 253, 205, 206
 89, 208,  24,  25
 90, 254, 208, 209
 91, 207,  28,  29
 92, 310, 270, 263
 93, 209,  25,  26
 94, 212, 210,  27
 95, 210, 209,  26
 96, 212,  28, 207
 97, 210,  26,   2
 98, 212,  27,  28
 99, 226,  34, 225
100, 211, 199,  30
101, 307, 306, 253
102, 212, 209, 210
103, 214,  46, 213
104, 213,  46,  47
105, 240,  51, 239
106, 215,  45, 214
107, 239,  52, 238
108, 216,  44, 215
109, 238,  53, 237
110, 217,  43, 216
111, 236,  55, 235
112, 218,  42, 217
113, 235,  56, 234
114, 219,  41, 218
115, 234,  57, 233
116, 220,  40, 219
117, 268, 261, 222
118, 221,  39, 220
119, 285, 235, 234
120, 222,  38, 221
121, 472, 440, 415
122, 223,  37, 222
123, 262, 223, 261
124, 224,  36, 223
125, 262, 224, 223
126, 224,  35,  36
127, 270, 225, 263
128, 225,  34,  35
129, 271, 226, 270
130, 226,  33,  34
131, 227, 211, 201
132, 227, 201,  32
133, 228,  62,  63
134, 288,  64, 250
135, 276, 274, 247
136, 229,  61,  62
137, 283, 244, 243
138, 230,  60,  61
139, 337, 334, 297
140, 231,  59,  60
141, 386, 336, 335
142, 232,  58,  59
143, 259, 203, 256
144, 233,  57,  58
145, 264, 260, 219
146, 234,  56,  57
147, 265, 264, 218
148, 235,  55,  56
149, 319, 318, 266
150, 236,  54,  55
151, 267, 215, 214
152, 237,  53,  54
153, 267, 266, 215
154, 238,  52,  53
155, 346, 299, 213
156, 239,  51,  52
157, 293, 239, 286
158, 240,  50,  51
159, 346, 241, 299
160, 241,  49,  50
161, 242,  73,  74
162, 416, 324, 367
163, 283, 243, 275
164, 243,  72,  73
165, 297, 230, 229
166, 244,  71,  72
167, 300, 298, 228
168, 245,  70,  71
169, 369, 337, 298
170, 246,  69,  70
171, 274, 248, 247
172, 247,  68,  69
173, 284, 248, 274
174, 248,  67,  68
175, 300, 250, 249
176, 249,  66,  67
177, 250,  65,  66
178, 250,  66, 249
179, 321,  79,  80
180, 252,  18,  19
181, 308, 202, 259
182, 301, 251, 252
183, 365, 258, 254
184, 257, 256, 204
185, 569, 415, 254
186, 414, 310, 363
187, 425, 371, 396
188, 302,  16,  17
189, 305, 256, 304
190, 256, 203, 204
191, 257, 204, 205
192, 306, 304, 257
193, 258, 253, 206
194, 258, 208, 254
195, 294, 232, 231
196, 259, 202, 203
197, 269, 220, 260
198, 260, 220, 219
199, 362, 313, 360
200, 261, 223, 222
201, 311, 310, 263
202, 263, 224, 262
203, 394, 270, 310
204, 263, 225, 224
205, 265, 218, 217
206, 339, 291, 290
207, 272, 217, 216
208, 318, 317, 272
209, 266, 216, 215
210, 426, 383, 382
211, 299, 267, 214
212, 296, 241, 240
213, 269, 268, 221
214, 315, 260, 264
215, 269, 221, 220
216, 315, 309, 260
217, 271, 227, 226
218, 270, 226, 225
219, 417, 211, 271
220, 271, 211, 227
221, 272, 265, 217
222, 272, 216, 266
223, 273, 242,  74
224, 280,  75,  76
225, 281, 246, 245
226, 297, 287, 230
227, 281, 276, 246
228, 320, 242, 273
229, 282, 245, 244
230, 328, 327, 274
231, 277,  78,  79
232, 425, 396, 401
233, 332, 331, 283
234, 279,  76,  77
235, 325, 278, 324
236, 280,  76, 279
237, 325, 279, 278
238, 280, 273,  75
239, 282, 281, 245
240, 395, 385, 384
241, 283, 282, 244
242, 295, 232, 294
243, 331, 330, 282
244, 330, 329, 281
245, 369, 300, 284
246, 284, 249, 248
247, 289, 234, 233
248, 289, 285, 234
249, 292, 238, 237
250, 291, 236, 290
251, 294, 231, 287
252, 287, 231, 230
253, 288, 228,  63
254, 288,  63,  64
255, 295, 233, 232
256, 377, 376, 330
257, 359, 315, 316
258, 435, 388, 431
259, 316, 315, 264
260, 292, 237, 291
261, 342, 291, 339
262, 292, 286, 238
263, 344, 286, 343
264, 293, 240, 239
265, 384, 337, 374
266, 395, 374, 375
267, 329, 328, 276
268, 295, 289, 233
269, 366, 299, 296
270, 296, 240, 293
271, 298, 297, 229
272, 327, 284, 274
273, 298, 229, 228
274, 369, 327, 337
275, 299, 214, 213
276, 299, 241, 296
277, 300, 228, 288
278, 300, 249, 284
279, 308, 301, 252
280, 352, 349, 308
281, 302, 255,  16
282, 347, 251, 301
283, 303, 200,  14
284, 303,  14,  15
285, 304, 256, 257
286, 306, 257, 253
287, 373, 326, 325
288, 305, 259, 256
289, 307, 253, 258
290, 413, 307, 365
291, 365, 307, 258
292, 529, 507, 501
293, 308, 252, 202
294, 352, 259, 305
295, 314, 269, 309
296, 309, 269, 260
297, 311, 263, 262
298, 313, 262, 261
299, 312, 261, 268
300, 363, 311, 362
301, 314, 312, 268
302, 408, 361, 357
303, 360, 313, 312
304, 313, 311, 262
305, 314, 268, 269
306, 340, 339, 290
307, 316, 264, 265
308, 358, 356, 317
309, 317, 265, 272
310, 392, 343, 388
311, 318, 272, 266
312, 343, 292, 342
313, 319, 266, 267
314, 444, 407, 406
315, 366, 319, 267
316, 345, 296, 293
317, 320, 275, 242
318, 333, 273, 280
319, 321, 277,  79
320, 323,  80,  81
321, 322,  81,  82
322, 353, 303, 255
323, 364, 353, 255
324, 323, 321,  80
325, 324, 278, 277
326, 481, 401, 399
327, 378, 377, 331
328, 326, 279, 325
329, 373, 325, 372
330, 326, 280, 279
331, 328, 274, 276
332, 329, 276, 281
333, 330, 281, 282
334, 374, 327, 328
335, 331, 282, 283
336, 335, 294, 287
337, 332, 283, 275
338, 336, 295, 294
339, 368, 275, 320
340, 508, 480, 506
341, 453, 372, 416
342, 351, 304, 350
343, 333, 320, 273
344, 333, 280, 326
345, 335, 287, 334
346, 334, 287, 297
347, 375, 374, 328
348, 336, 294, 335
349, 376, 375, 329
350, 338, 295, 336
351, 337, 297, 298
352, 374, 337, 327
353, 434, 433, 390
354, 338, 289, 295
355, 340, 290, 285
356, 341, 285, 289
357, 341, 340, 285
358, 383, 340, 382
359, 391, 336, 386
360, 382, 340, 341
361, 387, 339, 383
362, 342, 292, 291
363, 354, 319, 345
364, 343, 286, 292
365, 389, 345, 344
366, 344, 293, 286
367, 366, 345, 319
368, 345, 293, 344
369, 346, 213,  48
370, 346,  49, 241
371, 364, 302, 347
372, 402, 301, 349
373, 350, 306, 348
374, 348, 306, 307
375, 349, 301, 308
376, 409, 397, 352
377, 483, 447, 480
378, 350, 304, 306
379, 422, 420, 379
380, 351, 305, 304
381, 352, 308, 259
382, 409, 305, 351
383, 393, 371, 322
384, 364, 255, 302
385, 358, 318, 354
386, 354, 318, 319
387, 357, 309, 355
388, 355, 309, 315
389, 356, 316, 317
390, 388, 342, 387
391, 527, 515, 478
392, 361, 314, 357
393, 358, 317, 318
394, 392, 389, 344
395, 359, 355, 315
396, 359, 316, 356
397, 411, 360, 410
398, 361, 360, 312
399, 361, 312, 314
400, 404, 355, 359
401, 412, 362, 411
402, 362, 311, 313
403, 440, 365, 415
404, 363, 310, 311
405, 500, 469, 493
406, 438, 399, 402
407, 569, 254, 212
408, 565, 473, 553
409, 366, 267, 299
410, 366, 296, 345
411, 367, 324, 277
412, 380, 321, 323
413, 368, 332, 275
414, 381, 320, 333
415, 369, 298, 300
416, 369, 284, 327
417, 370,  82,  83
418, 393, 370, 200
419, 371, 323, 322
420, 401, 353, 364
421, 372, 325, 324
422, 493, 438, 475
423, 487, 398, 451
424, 379, 326, 373
425, 375, 328, 329
426, 376, 329, 330
427, 377, 330, 331
428, 395, 384, 374
429, 378, 331, 332
430, 430, 385, 395
431, 418, 332, 368
432, 434, 390, 391
433, 509, 483, 508
434, 400, 350, 398
435, 422, 373, 419
436, 379, 333, 326
437, 380, 367, 321
438, 380, 323, 371
439, 381, 368, 320
440, 381, 333, 379
441, 390, 341, 338
442, 445, 403, 441
443, 406, 356, 358
444, 383, 339, 340
445, 385, 334, 384
446, 384, 334, 337
447, 386, 335, 385
448, 385, 335, 334
449, 391, 390, 338
450, 391, 338, 336
451, 427, 383, 426
452, 387, 342, 339
453, 405, 354, 389
454, 388, 343, 342
455, 389, 354, 345
456, 392, 344, 343
457, 460, 421, 459
458, 390, 382, 341
459, 470, 395, 423
460, 421, 376, 377
461, 442, 441, 404
462, 405, 389, 392
463, 393, 322, 370
464, 393, 303, 353
465, 417, 271, 394
466, 394, 271, 270
467, 423, 376, 421
468, 468, 467, 434
469, 396, 371, 393
470, 399, 364, 347
471, 397, 349, 352
472, 450, 437, 409
473, 398, 350, 348
474, 451, 348, 413
475, 402, 399, 347
476, 469, 429, 457
477, 492, 490, 456
478, 400, 351, 350
479, 401, 396, 353
480, 401, 364, 399
481, 402, 347, 301
482, 449, 349, 397
483, 408, 357, 403
484, 403, 357, 355
485, 407, 359, 356
486, 461, 427, 426
487, 406, 358, 405
488, 405, 358, 354
489, 431, 387, 427
490, 478, 476, 442
491, 407, 404, 359
492, 407, 356, 406
493, 447, 408, 445
494, 410, 361, 408
495, 409, 352, 305
496, 450, 351, 400
497, 506, 477, 505
498, 410, 360, 361
499, 446, 412, 411
500, 411, 362, 360
501, 566, 534, 554
502, 412, 363, 362
503, 534, 502, 484
504, 413, 348, 307
505, 414, 394, 310
506, 443, 363, 412
507, 415, 365, 254
508, 553, 207, 199
509, 416, 372, 324
510, 429, 367, 380
511, 565, 211, 417
512, 452, 394, 414
513, 418, 378, 332
514, 428, 368, 381
515, 419, 373, 372
516, 551, 475, 503
517, 420, 381, 379
518, 456, 455, 420
519, 424, 377, 378
520, 424, 421, 377
521, 422, 379, 373
522, 458, 456, 422
523, 423, 395, 375
524, 423, 375, 376
525, 454, 378, 418
526, 478, 442, 444
527, 425, 380, 371
528, 481, 457, 425
529, 442, 404, 407
530, 433, 382, 390
531, 466, 431, 462
532, 427, 387, 383
533, 428, 418, 368
534, 428, 381, 420
535, 429, 416, 367
536, 429, 380, 425
537, 432, 386, 430
538, 430, 386, 385
539, 436, 405, 435
540, 431, 388, 387
541, 434, 391, 432
542, 432, 391, 386
543, 562, 460, 459
544, 433, 426, 382
545, 470, 465, 430
546, 459, 421, 424
547, 435, 405, 392
548, 435, 392, 388
549, 444, 406, 436
550, 436, 406, 405
551, 437, 397, 409
552, 486, 474, 450
553, 449, 438, 402
554, 551, 526, 500
555, 439, 400, 398
556, 514, 446, 482
557, 471, 452, 414
558, 440, 413, 365
559, 477, 441, 476
560, 441, 403, 404
561, 444, 442, 407
562, 462, 427, 461
563, 443, 414, 363
564, 484, 412, 446
565, 466, 435, 431
566, 494, 462, 461
567, 515, 505, 476
568, 445, 408, 403
569, 448, 411, 410
570, 577, 571, 568
571, 447, 410, 408
572, 480, 445, 477
573, 448, 446, 411
574, 448, 410, 447
575, 449, 402, 349
576, 485, 397, 437
577, 450, 409, 351
578, 486, 400, 439
579, 451, 398, 348
580, 479, 413, 440
581, 452, 417, 394
582, 471, 414, 443
583, 453, 419, 372
584, 469, 416, 429
585, 454, 424, 378
586, 464, 418, 428
587, 455, 428, 420
588, 456, 420, 422
589, 458, 422, 419
590, 574, 538, 558
591, 457, 429, 425
592, 481, 425, 401
593, 488, 419, 453
594, 551, 503, 526
595, 468, 434, 432
596, 489, 424, 454
597, 470, 460, 465
598, 460, 423, 421
599, 463, 426, 433
600, 463, 461, 426
601, 527, 494, 515
602, 462, 431, 427
603, 467, 433, 434
604, 530, 515, 522
605, 464, 454, 418
606, 464, 428, 455
607, 468, 432, 465
608, 465, 432, 430
609, 466, 444, 436
610, 466, 436, 435
611, 497, 495, 463
612, 467, 463, 433
613, 498, 465, 460
614, 499, 468, 498
615, 475, 438, 449
616, 469, 453, 416
617, 470, 430, 395
618, 470, 423, 460
619, 502, 443, 484
620, 501, 479, 440
621, 569, 472, 415
622, 553, 473, 529
623, 473, 417, 452
624, 507, 452, 471
625, 474, 437, 450
626, 519, 518, 490
627, 485, 475, 449
628, 531, 526, 503
629, 522, 494, 495
630, 476, 441, 442
631, 574, 561, 542
632, 477, 445, 441
633, 478, 444, 466
634, 527, 466, 462
635, 479, 451, 413
636, 501, 440, 472
637, 491, 455, 490
638, 480, 447, 445
639, 481, 399, 438
640, 493, 481, 438
641, 482, 446, 448
642, 483, 482, 448
643, 483, 448, 447
644, 547, 522, 523
645, 571, 554, 568
646, 484, 443, 412
647, 485, 449, 397
648, 512, 437, 474
649, 486, 450, 400
650, 573, 561, 570
651, 487, 439, 398
652, 510, 451, 479
653, 488, 458, 419
654, 500, 453, 469
655, 489, 459, 424
656, 496, 454, 464
657, 490, 455, 456
658, 492, 456, 458
659, 576, 567, 548
660, 491, 464, 455
661, 516, 458, 488
662, 504, 474, 486
663, 493, 469, 457
664, 493, 457, 481
665, 495, 461, 463
666, 495, 494, 461
667, 497, 463, 467
668, 548, 547, 523
669, 496, 489, 454
670, 496, 464, 491
671, 499, 467, 468
672, 562, 517, 525
673, 498, 468, 465
674, 517, 459, 489
675, 562, 525, 498
676, 499, 497, 467
677, 503, 475, 485
678, 500, 488, 453
679, 529, 501, 472
680, 528, 507, 471
681, 552, 528, 502
682, 502, 471, 443
683, 512, 503, 485
684, 550, 526, 531
685, 513, 486, 439
686, 537, 508, 536
687, 521, 496, 520
688, 505, 477, 476
689, 520, 491, 518
690, 506, 480, 477
691, 507, 473, 452
692, 528, 471, 502
693, 536, 506, 535
694, 508, 483, 480
695, 539, 533, 513
696, 509, 482, 483
697, 510, 487, 451
698, 532, 479, 501
699, 511, 439, 487
700, 541, 487, 510
701, 512, 485, 437
702, 538, 531, 512
703, 513, 504, 486
704, 513, 439, 511
705, 514, 484, 446
706, 540, 482, 509
707, 515, 476, 478
708, 522, 515, 494
709, 516, 492, 458
710, 526, 516, 488
711, 524, 523, 497
712, 521, 489, 496
713, 518, 491, 490
714, 519, 490, 492
715, 542, 492, 516
716, 533, 504, 513
717, 556, 547, 548
718, 520, 496, 491
719, 547, 530, 522
720, 521, 517, 489
721, 523, 495, 497
722, 523, 522, 495
723, 524, 497, 499
724, 549, 525, 546
725, 525, 524, 499
726, 576, 564, 567
727, 525, 499, 498
728, 546, 521, 545
729, 526, 488, 500
730, 531, 503, 512
731, 527, 478, 466
732, 527, 462, 494
733, 552, 502, 534
734, 528, 501, 507
735, 553, 529, 472
736, 529, 473, 507
737, 535, 505, 530
738, 530, 505, 515
739, 538, 512, 474
740, 574, 558, 570
741, 532, 510, 479
742, 532, 501, 528
743, 539, 513, 511
744, 571, 560, 554
745, 566, 554, 560
746, 534, 484, 514
747, 545, 520, 544
748, 535, 506, 505
749, 544, 518, 543
750, 536, 508, 506
751, 578, 577, 572
752, 537, 509, 508
753, 538, 474, 504
754, 558, 504, 533
755, 560, 511, 541
756, 577, 568, 559
757, 540, 514, 482
758, 559, 509, 537
759, 541, 511, 487
760, 552, 541, 510
761, 542, 519, 492
762, 550, 542, 516
763, 543, 518, 519
764, 570, 558, 533
765, 557, 536, 556
766, 544, 520, 518
767, 556, 535, 547
768, 545, 521, 520
769, 546, 525, 517
770, 546, 517, 521
771, 547, 535, 530
772, 548, 523, 524
773, 549, 548, 524
774, 576, 545, 564
775, 549, 524, 525
776, 576, 546, 545
777, 550, 516, 526
778, 550, 531, 538
779, 551, 500, 493
780, 551, 493, 475
781, 552, 510, 532
782, 552, 532, 528
783, 553, 472, 207
784, 565, 553, 199
785, 554, 534, 514
786, 554, 514, 540
787, 555, 533, 539
788, 578, 575, 563
789, 564, 544, 563
790, 556, 536, 535
791, 575, 567, 564
792, 557, 537, 536
793, 558, 538, 504
794, 574, 570, 561
795, 559, 540, 509
796, 572, 537, 557
797, 560, 539, 511
798, 566, 560, 541
799, 561, 543, 519
800, 561, 519, 542
801, 562, 498, 460
802, 562, 459, 517
803, 563, 544, 543
804, 579, 578, 573
805, 575, 564, 563
806, 564, 545, 544
807, 565, 199, 211
808, 565, 417, 473
809, 566, 541, 552
810, 566, 552, 534
811, 567, 557, 556
812, 567, 556, 548
813, 568, 554, 540
814, 568, 540, 559
815, 569, 212, 207
816, 569, 207, 472
817, 570, 533, 555
818, 579, 577, 578
819, 571, 555, 539
820, 571, 539, 560
821, 572, 559, 537
822, 575, 572, 557
823, 573, 563, 543
824, 573, 543, 561
825, 574, 542, 550
826, 574, 550, 538
827, 578, 563, 573
828, 575, 557, 567
829, 576, 548, 549
830, 576, 549, 546
831, 577, 555, 571
832, 577, 559, 572
833, 579, 573, 570
834, 578, 572, 575
835, 579, 570, 555
836, 579, 555, 577
 837, 620, 604,  26
 838, 696, 693, 659
 839, 613, 104, 105
 840, 647, 113,   7
 841, 641, 595, 596
 842, 699, 649, 691
 843,  13,   1,  84
 844, 594,  84,  85
 845, 670, 629, 630
 846, 717, 708, 670
 847, 797, 770, 793
 848, 728, 693, 726
 849, 636, 635, 588
 850, 627,  18,  17
 851, 675, 674, 634
 852, 621,  21,  20
 853, 581,  22, 580
 854, 581,  23,  22
 855, 583,  24, 582
 856, 624, 583, 582
 857,  96,   6,  97
 858, 584,  96,  97
 859, 619,  99, 618
 860, 585,  94,  95
 861, 586,  92,  93
 862, 587,  92, 586
 863, 588,  91, 587
 864, 589,  90, 588
 865, 590,  89, 589
 866, 591,  88, 590
 867, 592,  87, 591
 868, 593,  86, 592
 869, 594,  85, 593
 870, 647,   7, 114
 871, 647, 605, 113
 872, 687, 648, 605
 873, 607, 111, 606
 874, 608, 110, 607
 875, 654, 607, 606
 876, 609, 109, 608
 877, 610, 108, 609
 878, 611, 107, 610
 879, 612, 106, 611
 880, 613, 105, 612
 881, 615, 103, 614
 882, 616, 102, 615
 883, 678, 677, 636
 884, 617, 101, 616
 885, 652, 619, 618
 886, 738,  97,  98
 887, 642, 115, 116
 888, 643, 117, 595
 889, 595, 117, 118
 890, 596, 118, 119
 891, 606, 112, 605
 892, 596, 595, 118
 893, 597, 596, 119
 894, 599, 598, 121
 895, 640,   8, 123
 896, 604,   2,  26
 897, 603, 125, 600
 898, 637, 636, 587
 899, 580,  22,  21
 900, 625, 582, 581
 901, 582,  23, 581
 902, 604, 602, 127
 903, 582,  24,  23
 904, 620, 602, 604
 905, 583,  25,  24
 906, 585,  95, 584
 907, 584,  95,  96
 908, 618, 100, 617
 909, 632,  94, 585
 910, 632,  93,  94
 911, 626, 625, 581
 912, 716, 674, 715
 913, 587,  91,  92
 914, 627, 622,  18
 915, 588,  90,  91
 916, 628, 627,  17
 917, 589,  89,  90
 918, 629, 628,  16
 919, 590,  88,  89
 920, 714, 676, 713
 921, 591,  87,  88
 922, 630, 629,  15
 923, 592,  86,  87
 924, 633, 593, 592
 925, 593,  85,  86
 926, 631,  13, 594
 927, 594,  13,  84
 928, 597, 119, 120
 929, 654, 606, 648
 930, 598, 120, 121
 931, 645, 598, 599
 932, 598, 597, 120
 933, 645, 644, 598
 934, 599, 121, 122
 935, 603, 601, 124
 936, 640, 599, 122
 937, 601, 123, 124
 938, 600, 125, 126
 939, 602, 600, 126
 940, 640, 601, 599
 941, 603, 124, 125
 942, 602, 126, 127
 943, 723, 624, 672
 944, 653, 610, 609
 945, 724, 645, 601
 946, 604, 127,   2
 947, 620,  26,  25
 948, 605, 112, 113
 949, 687, 647, 115
 950, 681, 642, 643
 951, 606, 111, 112
 952, 607, 110, 111
 953, 646, 596, 597
 954, 655, 608, 650
 955, 608, 109, 110
 956, 778, 723, 756
 957, 609, 108, 109
 958, 766, 765, 733
 959, 610, 107, 108
 960, 656, 610, 653
 961, 611, 106, 107
 962, 656, 611, 610
 963, 612, 105, 106
 964, 658, 613, 649
 965, 614, 104, 613
 966, 659, 614, 658
 967, 614, 103, 104
 968, 776, 712, 753
 969, 615, 102, 103
 970, 725, 664, 686
 971, 616, 101, 102
 972, 651, 617, 616
 973, 617, 100, 101
 974, 686, 619, 652
 975, 618,  99, 100
 976, 738, 619, 686
 977, 619,  98,  99
 978, 620,  25, 583
 979, 663, 583, 624
 980, 621, 580,  21
 981, 623,  20,  19
 982, 622,  19,  18
 983, 667, 627, 628
 984, 623, 621,  20
 985, 623,  19, 622
 986, 809, 602, 663
 987, 625, 624, 582
 988, 626, 581, 580
 989, 736, 735, 691
 990, 680, 580, 621
 991, 691, 657, 688
 992, 628,  17,  16
 993, 673, 633, 639
 994, 629,  16,  15
 995, 670, 630, 662
 996, 630,  15,  14
 997, 670, 666, 629
 998, 631, 630,  14
 999, 662, 594, 593
1000, 631,  14,  13
1001, 662, 631, 594
1002, 632, 586,  93
1003, 725, 705, 664
1004, 639, 592, 591
1005, 634, 591, 590
1006, 638, 590, 589
1007, 635, 589, 588
1008, 636, 588, 587
1009, 677, 676, 635
1010, 637, 587, 586
1011, 661, 652, 618
1012, 679, 586, 632
1013, 661, 617, 651
1014, 638, 634, 590
1015, 638, 589, 635
1016, 639, 633, 592
1017, 639, 591, 634
1018, 640, 122,   8
1019, 640, 123, 601
1020, 646, 597, 644
1021, 683, 644, 682
1022, 643, 116, 117
1023, 643, 642, 116
1024, 685, 595, 641
1025, 681, 648, 642
1026, 644, 597, 598
1027, 655, 653, 609
1028, 645, 599, 601
1029, 724, 682, 645
1030, 763, 762, 730
1031, 646, 641, 596
1032, 647, 114, 115
1033, 687, 115, 642
1034, 654, 650, 607
1035, 648, 606, 605
1036, 649, 613, 612
1037, 657, 612, 611
1038, 690, 689, 653
1039, 650, 608, 607
1040, 660, 616, 615
1041, 699, 658, 649
1042, 686, 664, 585
1043, 661, 618, 617
1044, 655, 609, 608
1045, 756, 723, 672
1046, 700, 648, 681
1047, 703, 697, 700
1048, 721, 720, 683
1049, 684, 646, 683
1050, 672, 625, 671
1051, 657, 611, 656
1052, 736, 688, 730
1053, 657, 649, 612
1054, 704, 680, 665
1055, 658, 614, 613
1056, 693, 692, 660
1057, 659, 615, 614
1058, 660, 651, 616
1059, 660, 615, 659
1060, 692, 651, 660
1061, 698, 661, 695
1062, 662, 630, 631
1063, 662, 593, 633
1064, 663, 602, 620
1065, 663, 620, 583
1066, 734, 695, 729
1067, 664, 632, 585
1068, 665, 621, 623
1069, 668, 623, 622
1070, 667, 628, 666
1071, 666, 628, 629
1072, 715, 675, 714
1073, 669, 627, 667
1074, 668, 665, 623
1075, 669, 668, 622
1076, 669, 622, 627
1077, 745, 715, 744
1078, 717, 662, 633
1079, 717, 673, 708
1080, 671, 625, 626
1081, 718, 626, 680
1082, 689, 688, 656
1083, 672, 624, 625
1084, 674, 639, 634
1085, 674, 673, 639
1086, 675, 634, 638
1087, 676, 638, 635
1088, 676, 675, 638
1089, 713, 677, 712
1090, 677, 635, 636
1091, 753, 678, 719
1092, 678, 636, 637
1093, 729, 692, 728
1094, 719, 637, 679
1095, 695, 651, 692
1096, 679, 637, 586
1097, 679, 632, 664
1098, 680, 626, 580
1099, 680, 621, 665
1100, 685, 681, 643
1101, 740, 732, 697
1102, 682, 644, 645
1103, 702, 600, 701
1104, 694, 690, 655
1105, 683, 646, 644
1106, 697, 694, 650
1107, 684, 641, 646
1108, 685, 643, 595
1109, 722, 641, 684
1110, 686, 585, 584
1111, 738, 686, 584
1112, 687, 642, 648
1113, 687, 605, 647
1114, 688, 657, 656
1115, 689, 656, 653
1116, 690, 653, 655
1117, 733, 694, 732
1118, 694, 655, 650
1119, 720, 684, 683
1120, 743, 742, 704
1121, 691, 649, 657
1122, 693, 660, 659
1123, 748, 746, 711
1124, 696, 659, 658
1125, 707, 704, 665
1126, 697, 650, 654
1127, 766, 732, 740
1128, 798, 785, 783
1129, 695, 661, 651
1130, 699, 696, 658
1131, 727, 726, 696
1132, 700, 697, 654
1133, 703, 700, 681
1134, 725, 698, 705
1135, 698, 652, 661
1136, 736, 691, 688
1137, 769, 768, 742
1138, 700, 654, 648
1139, 703, 681, 685
1140, 701, 600, 602
1141, 809, 723, 778
1142, 737, 724, 601
1143, 702, 603, 600
1144, 722, 685, 641
1145, 755, 740, 722
1146, 742, 718, 704
1147, 707, 665, 668
1148, 741, 698, 734
1149, 705, 679, 664
1150, 706, 672, 671
1151, 754, 671, 718
1152, 711, 668, 669
1153, 797, 793, 773
1154, 709, 666, 708
1155, 708, 666, 670
1156, 710, 667, 709
1157, 709, 667, 666
1158, 817, 812, 810
1159, 710, 669, 667
1160, 711, 707, 668
1161, 711, 669, 710
1162, 712, 677, 678
1163, 794, 792, 769
1164, 772, 770, 744
1165, 713, 676, 677
1166, 750, 745, 749
1167, 714, 675, 676
1168, 750, 708, 716
1169, 715, 674, 675
1170, 716, 708, 673
1171, 716, 673, 674
1172, 717, 670, 662
1173, 717, 633, 673
1174, 718, 671, 626
1175, 718, 680, 704
1176, 719, 678, 637
1177, 719, 679, 705
1178, 731, 730, 689
1179, 721, 683, 682
1180, 739, 682, 724
1181, 780, 739, 757
1182, 722, 703, 685
1183, 755, 684, 720
1184, 723, 663, 624
1185, 756, 672, 706
1186, 737, 601, 603
1187, 737, 603, 702
1188, 725, 686, 652
1189, 725, 652, 698
1190, 726, 693, 696
1191, 727, 696, 699
1192, 735, 699, 691
1193, 764, 758, 727
1194, 760, 729, 728
1195, 728, 692, 693
1196, 761, 734, 729
1197, 729, 695, 692
1198, 730, 688, 689
1199, 731, 689, 690
1200, 733, 690, 694
1201, 752, 720, 721
1202, 732, 694, 697
1203, 740, 697, 703
1204, 790, 766, 779
1205, 733, 731, 690
1206, 741, 705, 698
1207, 734, 698, 695
1208, 767, 764, 735
1209, 735, 727, 699
1210, 762, 736, 730
1211, 767, 736, 762
1212, 757, 737, 702
1213, 739, 724, 737
1214, 738, 584,  97
1215, 738,  98, 619
1216, 800, 781, 778
1217, 739, 721, 682
1218, 740, 703, 722
1219, 755, 722, 684
1220, 761, 741, 734
1221, 741, 719, 705
1222, 789, 767, 788
1223, 743, 704, 707
1224, 746, 707, 711
1225, 774, 772, 751
1226, 744, 715, 714
1227, 751, 714, 713
1228, 750, 749, 709
1229, 745, 716, 715
1230, 746, 743, 707
1231, 748, 711, 710
1232, 747, 713, 712
1233, 759, 726, 758
1234, 749, 748, 710
1235, 770, 745, 744
1236, 749, 710, 709
1237, 797, 745, 770
1238, 750, 709, 708
1239, 750, 716, 745
1240, 751, 744, 714
1241, 751, 713, 747
1242, 780, 721, 739
1243, 819, 818, 805
1244, 753, 712, 678
1245, 753, 719, 741
1246, 754, 706, 671
1247, 754, 718, 742
1248, 779, 720, 752
1249, 766, 740, 755
1250, 777, 706, 775
1251, 800, 756, 777
1252, 757, 739, 737
1253, 800, 778, 756
1254, 758, 726, 727
1255, 764, 727, 735
1256, 783, 760, 759
1257, 759, 728, 726
1258, 785, 761, 760
1259, 760, 728, 759
1260, 761, 753, 741
1261, 761, 729, 760
1262, 763, 730, 731
1263, 775, 754, 768
1264, 765, 763, 731
1265, 813, 811, 807
1266, 767, 735, 736
1267, 792, 791, 768
1268, 765, 731, 733
1269, 787, 786, 763
1270, 766, 733, 732
1271, 779, 766, 755
1272, 807, 788, 806
1273, 788, 762, 786
1274, 768, 754, 742
1275, 769, 742, 743
1276, 771, 743, 746
1277, 784, 782, 758
1278, 797, 773, 748
1279, 772, 744, 751
1280, 771, 769, 743
1281, 773, 771, 746
1282, 774, 751, 747
1283, 796, 793, 772
1284, 773, 746, 748
1285, 793, 770, 772
1286, 798, 776, 785
1287, 802, 796, 798
1288, 799, 775, 791
1289, 775, 706, 754
1290, 776, 747, 712
1291, 776, 753, 761
1292, 821, 819, 820
1293, 777, 756, 706
1294, 781, 701, 778
1295, 809, 778, 701
1296, 779, 755, 720
1297, 816, 752, 808
1298, 780, 752, 721
1299, 814, 800, 777
1300, 781, 757, 702
1301, 781, 702, 701
1302, 782, 759, 758
1303, 784, 758, 764
1304, 798, 747, 776
1305, 783, 759, 782
1306, 789, 764, 767
1307, 812, 803, 804
1308, 785, 776, 761
1309, 785, 760, 783
1310, 786, 762, 763
1311, 787, 763, 765
1312, 790, 787, 765
1313, 819, 816, 808
1314, 806, 786, 805
1315, 788, 767, 762
1316, 811, 804, 807
1317, 789, 784, 764
1318, 790, 765, 766
1319, 790, 779, 752
1320, 791, 775, 768
1321, 792, 768, 769
1322, 794, 769, 771
1323, 804, 803, 784
1324, 795, 773, 793
1325, 796, 772, 774
1326, 795, 794, 771
1327, 803, 802, 782
1328, 795, 771, 773
1329, 810, 793, 796
1330, 798, 796, 774
1331, 817, 802, 803
1332, 797, 748, 749
1333, 797, 749, 745
1334, 802, 798, 783
1335, 798, 774, 747
1336, 818, 813, 806
1337, 799, 777, 775
1338, 814, 777, 799
1339, 801, 781, 800
1340, 801, 780, 757
1341, 801, 757, 781
1342, 802, 783, 782
1343, 803, 782, 784
1344, 804, 784, 789
1345, 810, 794, 795
1346, 807, 789, 788
1347, 812, 811, 792
1348, 805, 786, 787
1349, 816, 790, 752
1350, 818, 806, 805
1351, 806, 788, 786
1352, 813, 807, 806
1353, 807, 804, 789
1354, 808, 752, 780
1355, 815, 780, 801
1356, 809, 701, 602
1357, 809, 663, 723
1358, 810, 795, 793
1359, 817, 796, 802
1360, 811, 791, 792
1361, 812, 792, 794
1362, 812, 794, 810
1363, 812, 804, 811
1364, 813, 799, 791
1365, 813, 791, 811
1366, 820, 800, 814
1367, 821, 799, 818
1368, 815, 808, 780
1369, 820, 815, 801
1370, 816, 805, 787
1371, 816, 787, 790
1372, 817, 810, 796
1373, 817, 803, 812
1374, 819, 805, 816
1375, 818, 799, 813
1376, 819, 808, 815
1377, 820, 819, 815
1378, 820, 801, 800
1379, 821, 820, 814
1380, 821, 814, 799
1381, 821, 818, 819
1382,  863,    9,  128
1383,  905,  131,  132
1384,  837,  168,  836
1385,  830,  829,   43
1386,  869,  164,   47
1387, 1013,  909,  908
1388,  134,   10,  135
1389,  850,  135,  136
1390,  883,  848,  847
1391,  884,  883,  847
1392,  945,  906,  910
1393,  865,  130,  864
1394,  866,  129,  865
1395,  153,   11,  154
1396,  861,  154,  155
1397,  940,  899,  903
1398,  885,  882,  151
1399,  882,  150,  151
1400,  977,  976,  941
1401,  829,   44,   43
1402,  830,   43,   42
1403,  830,   42,  824
1404,  916,  868,  912
1405,  851,  146,  842
1406,  832,   38,   37
1407, 1024,  946,  984
1408,  845,  141,  844
1409,  931,  929,  886
1410,  847,  139,  846
1411,  848,  138,  847
1412,  849,  137,  848
1413,  850,  136,  849
1414,   47,  164,    4
1415,  869,   47,   46
1416,  870,   45,  823
1417,  862,  163,  854
1418,  862,  162,  163
1419,  952,  916,  951
1420,  856,  160,  855
1421,  858,  158,  857
1422,  859,  157,  858
1423,  860,  156,  859
1424,  861,  155,  860
1425,  925,  862,  904
1426,  823,   45,   44
1427,  825,   41,   40
1428,  934,  928,  887
1429,  825,  824,   41
1430,  831,   39,  822
1431,  877,  832,  873
1432,  953,  951,  912
1433,  832,   37,  826
1434,  827,   36,   35
1435,  833,   35,   34
1436,  895,  853,  888
1437,  827,  826,   36
1438,  834,   33,   32
1439,  834,  828,   33
1440,  867,    3,  165
1441,  863,  836,  169
1442,  936,  890,  929
1443,  852,  144,  843
1444,  822,   39,   38
1445,  901,  900,  856
1446,  898,  161,  162
1447,  842,  147,  839
1448,  824,   42,   41
1449,  831,   40,   39
1450,  831,  825,   40
1451,  852,  143,  144
1452,  826,   37,   36
1453,  833,   34,  828
1454,  878,  874,  833
1455,  828,   34,   33
1456,  879,  878,  828
1457,  992,  987,  951
1458,  829,  823,   44
1459,  872,  824,  868
1460,  881,  830,  872
1461,  851,  843,  145
1462,  930,  893,  927
1463,  873,  826,  871
1464,  832,  822,   38
1465,  874,  871,  827
1466,  833,  827,   35
1467,  867,  834,   32
1468,  838,  165,  166
1469,  835,  166,  167
1470,  837,  167,  168
1471,  971,  963,  929
1472,  836,  168,  169
1473,  846,  140,  845
1474,  837,  835,  167
1475,  867,  838,  834
1476,  838,  166,  835
1477,  839,  147,  148
1478,  841,  148,  149
1479,  840,  149,  150
1480,  857,  159,  856
1481,  841,  839,  148
1482,  841,  149,  840
1483,  875,  868,  825
1484,  842,  146,  147
1485,  843,  144,  145
1486,  851,  145,  146
1487,  844,  141,  142
1488,  853,  142,  143
1489,  974,  938,  964
1490,  845,  140,  141
1491,  937,  891,  883
1492,  846,  139,  140
1493,  906,  905,  132
1494,  847,  138,  139
1495,  891,  848,  883
1496,  848,  137,  138
1497,  910,  849,  891
1498,  849,  136,  137
1499,  907,  134,  850
1500,  850,  134,  135
1501,  892,  842,  887
1502,  928,  927,  892
1503,  917,  913,  873
1504,  970,  932,  968
1505,  853,  844,  142
1506,  853,  143,  852
1507,  854,  163,  164
1508,  869,  854,  164
1509,  855,  160,  161
1510,  876,  823,  829
1511,  896,  889,  841
1512,  856,  159,  160
1513,  900,  857,  856
1514,  857,  158,  159
1515,  902,  857,  900
1516,  858,  157,  158
1517,  939,  926,  882
1518,  859,  156,  157
1519,  899,  860,  859
1520,  860,  155,  156
1521,  897,  153,  861
1522,  861,  153,  154
1523,  904,  854,  869
1524,  980,  925,  960
1525,  863,  169,    9
1526,  866,  128,  129
1527,  944,  864,  905
1528,  864,  130,  131
1529,  909,  865,  908
1530,  865,  129,  130
1531,  866,  836,  863
1532,  866,  863,  128
1533,  867,   32,    3
1534,  867,  165,  838
1535,  868,  824,  825
1536,  875,  825,  831
1537,  870,   46,   45
1538,  870,  869,   46
1539,  923,  823,  876
1540,  904,  869,  870
1541,  871,  826,  827
1542,  874,  827,  833
1543,  889,  887,  839
1544,  872,  830,  824
1545,  932,  894,  930
1546,  873,  832,  826
1547,  878,  833,  828
1548,  957,  920,  948
1549,  880,  831,  822
1550,  955,  913,  949
1551,  925,  924,  898
1552,  881,  876,  829
1553,  893,  851,  892
1554,  877,  822,  832
1555,  879,  828,  834
1556,  922,  920,  878
1557,  879,  834,  838
1558,  959,  922,  879
1559,  880,  875,  831
1560,  880,  822,  877
1561,  881,  829,  830
1562,  918,  872,  916
1563,  882,  840,  150
1564,  885,  151,  152
1565,  884,  847,  846
1566,  938,  884,  936
1567,  890,  846,  845
1568, 1023,  985,  999
1569,  897,  885,  152
1570,  911,  861,  860
1571,  886,  845,  844
1572,  895,  844,  853
1573,  887,  842,  839
1574,  889,  839,  841
1575,  888,  853,  852
1576,  894,  852,  843
1577,  896,  841,  840
1578, 1038, 1025, 1010
1579,  890,  884,  846
1580,  890,  845,  886
1581,  945,  944,  905
1582,  891,  849,  848
1583,  915,  877,  913
1584,  892,  851,  842
1585,  954,  953,  914
1586,  893,  843,  851
1587,  894,  888,  852
1588,  894,  843,  893
1589,  950,  949,  917
1590,  895,  886,  844
1591,  926,  840,  882
1592,  902,  858,  857
1593,  897,  152,  153
1594,  911,  897,  861
1595,  898,  855,  161
1596,  898,  162,  862
1597,  939,  885,  911
1598,  903,  859,  858
1599,  901,  856,  855
1600,  943,  942,  900
1601,  924,  855,  898
1602,  919,  881,  918
1603, 1010,  976,  977
1604,  903,  858,  902
1605,  976,  940,  941
1606,  903,  899,  859
1607,  904,  862,  854
1608,  923,  904,  870
1609,  905,  864,  131
1610,  906,  132,  133
1611,  907,  906,  133
1612,  910,  907,  850
1613,  907,  133,  134
1614,  910,  850,  849
1615,  909,  866,  865
1616,  908,  865,  864
1617,  946,  836,  909
1618,  909,  836,  866
1619,  979,  945,  910
1620,  910,  906,  907
1621,  911,  885,  897
1622,  911,  860,  899
1623,  912,  868,  875
1624,  914,  875,  880
1625,  913,  877,  873
1626,  917,  873,  871
1627,  914,  912,  875
1628,  915,  914,  880
1629,  915,  880,  877
1630, 1045, 1034, 1044
1631,  935,  934,  889
1632,  916,  872,  868
1633,  921,  871,  874
1634, 1045, 1043, 1035
1635,  978,  977,  942
1636,  918,  881,  872
1637, 1056, 1014,  990
1638,  919,  876,  881
1639,  920,  874,  878
1640,  922,  878,  879
1641,  921,  917,  871
1642,  921,  874,  920
1643,  959,  879,  838
1644,  947,  837,  946
1645,  923,  870,  823
1646,  958,  876,  919
1647,  924,  901,  855
1648,  980,  961,  924
1649,  925,  898,  862
1650,  960,  923,  958
1651,  926,  896,  840
1652,  939,  882,  885
1653,  927,  893,  892
1654,  928,  892,  887
1655,  934,  887,  889
1656, 1044, 1034, 1032
1657,  929,  890,  886
1658,  931,  886,  895
1659,  993,  955,  991
1660,  930,  894,  893
1661,  933,  895,  888
1662,  973,  933,  970
1663,  932,  888,  894
1664,  968,  930,  967
1665,  933,  931,  895
1666,  933,  888,  932
1667,  935,  889,  896
1668,  966,  965,  934
1669,  962,  896,  926
1670,  941,  940,  903
1671, 1050, 1027, 1029
1672,  936,  884,  890
1673, 1053, 1027, 1050
1674,  938,  937,  883
1675,  938,  883,  884
1676,  964,  936,  963
1677,  972,  911,  899
1678,  975,  972,  940
1679,  975,  939,  972
1680,  941,  903,  902
1681,  942,  902,  900
1682,  942,  941,  902
1683,  943,  900,  901
1684, 1017, 1016,  987
1685,  961,  901,  924
1686,  956,  918,  952
1687,  944,  908,  864
1688,  945,  905,  906
1689,  979,  910,  891
1690,  983,  945,  979
1691,  946,  837,  836
1692, 1053, 1024,  984
1693,  982,  959,  838
1694,  947,  835,  837
1695,  948,  920,  922
1696,  985,  922,  959
1697,  949,  913,  917
1698,  950,  917,  921
1699,  957,  950,  921
1700, 1007, 1002,  971
1701,  951,  916,  912
1702,  953,  912,  914
1703, 1048, 1025, 1038
1704,  952,  918,  916
1705,  954,  914,  915
1706,  969,  928,  965
1707,  955,  954,  915
1708,  991,  949,  986
1709,  955,  915,  913
1710, 1021,  991, 1019
1711, 1012,  980,  995
1712,  956,  919,  918
1713,  957,  921,  920
1714, 1002,  998,  963
1715,  958,  923,  876
1716,  995,  919,  956
1717,  982,  838,  835
1718,  982,  835,  947
1719,  960,  925,  904
1720,  960,  904,  923
1721,  961,  943,  901
1722,  980,  924,  925
1723,  962,  935,  896
1724,  975,  926,  939
1725,  963,  936,  929
1726,  971,  929,  931
1727,  983,  944,  945
1728,  964,  938,  936
1729,  965,  928,  934
1730,  966,  934,  935
1731,  997,  935,  962
1732, 1038, 1010, 1011
1733,  967,  930,  927
1734,  969,  967,  927
1735, 1006,  968, 1004
1736,  968,  932,  930
1737,  969,  927,  928
1738, 1003,  965, 1001
1739,  988,  986,  950
1740,  970,  933,  932
1741,  973,  971,  931
1742,  989,  988,  957
1743,  972,  939,  911
1744,  972,  899,  940
1745,  973,  931,  933
1746, 1008,  970, 1006
1747, 1033,  983,  974
1748,  974,  937,  938
1749,  976,  975,  940
1750,  975,  962,  926
1751, 1009,  975,  976
1752,  977,  941,  942
1753,  978,  942,  943
1754, 1011, 1010,  977
1755,  996,  943,  961
1756,  990,  952,  987
1757,  979,  891,  937
1758,  983,  981,  944
1759,  980,  960,  958
1760,  995,  980,  958
1761, 1013,  984,  909
1762,  981,  908,  944
1763,  999,  982,  947
1764,  985,  959,  982
1765,  983,  979,  937
1766,  983,  937,  974
1767, 1000,  964,  998
1768,  984,  946,  909
1769, 1053, 1052, 1027
1770,  985,  948,  922
1771,  986,  949,  950
1772,  988,  950,  957
1773,  987,  952,  951
1774,  992,  951,  953
1775,  989,  957,  948
1776, 1041, 1036, 1037
1777, 1023,  948,  985
1778, 1054, 1046, 1051
1779, 1014, 1012,  995
1780,  990,  956,  952
1781, 1019,  986, 1015
1782,  991,  955,  949
1783,  994,  953,  954
1784, 1042, 1030, 1039
1785, 1005,  969, 1003
1786,  993,  954,  955
1787,  994,  992,  953
1788,  994,  954,  993
1789,  995,  958,  919
1790, 1014,  956,  990
1791,  996,  978,  943
1792, 1012,  996,  961
1793,  997,  966,  935
1794, 1009,  997,  962
1795,  998,  964,  963
1796, 1002,  963,  971
1797,  999,  985,  982
1798, 1024,  947,  946
1799, 1052, 1033, 1000
1800, 1000,  974,  964
1801, 1001,  965,  966
1802, 1025,  966,  997
1803, 1007,  971,  973
1804, 1053, 1050, 1047
1805, 1020, 1017,  992
1806, 1003,  969,  965
1807, 1004,  968,  967
1808, 1005, 1004,  967
1809, 1005,  967,  969
1810, 1032, 1003, 1030
1811, 1037, 1036, 1008
1812, 1006,  970,  968
1813, 1008, 1007,  973
1814, 1018, 1015,  988
1815, 1008,  973,  970
1816, 1041, 1037, 1040
1817, 1009,  962,  975
1818, 1010, 1009,  976
1819, 1010,  997, 1009
1820, 1011,  977,  978
1821, 1049, 1016, 1039
1822, 1028, 1011,  978
1823, 1012,  961,  980
1824, 1014,  995,  956
1825, 1013,  908,  981
1826, 1026, 1013,  981
1827, 1056, 1028, 1014
1828, 1014,  996, 1012
1829, 1015,  986,  988
1830, 1018,  988,  989
1831, 1016,  990,  987
1832, 1017,  987,  992
1833, 1020,  992,  994
1834, 1042, 1039, 1017
1835, 1046,  989, 1023
1836, 1054, 1036, 1041
1837, 1040, 1037, 1035
1838, 1019,  991,  986
1839, 1022,  994,  993
1840, 1042, 1032, 1030
1841, 1045, 1035, 1034
1842, 1021,  993,  991
1843, 1022, 1020,  994
1844, 1022,  993, 1021
1845, 1029, 1027,  998
1846, 1023,  989,  948
1847, 1024,  999,  947
1848, 1053,  984, 1026
1849, 1025, 1001,  966
1850, 1025,  997, 1010
1851, 1026,  984, 1013
1852, 1033, 1026,  981
1853, 1027, 1000,  998
1854, 1029,  998, 1002
1855, 1028,  978,  996
1856, 1028,  996, 1014
1857, 1031, 1029, 1002
1858, 1055, 1051, 1046
1859, 1030, 1003, 1001
1860, 1048, 1001, 1025
1861, 1031, 1002, 1007
1862, 1036, 1031, 1007
1863, 1044, 1032, 1042
1864, 1032, 1005, 1003
1865, 1033,  981,  983
1866, 1033,  974, 1000
1867, 1034, 1004, 1005
1868, 1034, 1005, 1032
1869, 1035, 1006, 1004
1870, 1035, 1004, 1034
1871, 1036, 1007, 1008
1872, 1037, 1008, 1006
1873, 1037, 1006, 1035
1874, 1043, 1040, 1035
1875, 1049, 1039, 1048
1876, 1049, 1038, 1011
1877, 1039, 1016, 1017
1878, 1048, 1039, 1030
1879, 1040, 1019, 1015
1880, 1041, 1040, 1015
1881, 1041, 1015, 1018
1882, 1054, 1018, 1046
1883, 1042, 1017, 1020
1884, 1044, 1042, 1020
1885, 1043, 1021, 1019
1886, 1043, 1019, 1040
1887, 1044, 1020, 1022
1888, 1045, 1044, 1022
1889, 1045, 1022, 1021
1890, 1045, 1021, 1043
1891, 1046, 1018,  989
1892, 1055, 1023, 1047
1893, 1047, 1023,  999
1894, 1047,  999, 1024
1895, 1048, 1030, 1001
1896, 1049, 1048, 1038
1897, 1049, 1011, 1028
1898, 1056, 1049, 1028
1899, 1051, 1050, 1029
1900, 1055, 1050, 1051
1901, 1051, 1029, 1031
1902, 1054, 1051, 1031
1903, 1052, 1026, 1033
1904, 1052, 1000, 1027
1905, 1053, 1047, 1024
1906, 1053, 1026, 1052
1907, 1054, 1031, 1036
1908, 1054, 1041, 1018
1909, 1055, 1046, 1023
1910, 1055, 1047, 1050
1911, 1056,  990, 1016
1912, 1056, 1016, 1049
1913, 1113,  131, 1059
1914, 1152, 1117, 1142
1915, 1075,  181, 1074
1916, 1058,    8,  122
1917, 1130, 1129, 1101
1918, 1141,  134,  133
1919, 1059,  131,  130
1920, 1085,  192, 1084
1921, 1091,  195,  196
1922, 1060,  172, 1057
1923, 1061, 1059,  130
1924, 1062, 1061,  129
1925, 1063,    9,  170
1926, 1064,  173,  174
1927, 1065, 1063,  170
1928,  114,    7,  175
1929, 1066,  114,  175
1930, 1079,  177, 1078
1931, 1067,  116,  115
1932, 1068,  117,  116
1933, 1069,  118,  117
1934, 1107, 1076, 1075
1935, 1071,  119, 1070
1936, 1073,  122,  121
1937,  186,  185,   12
1938, 1090,  186,  187
1939, 1092, 1089, 1088
1940, 1108, 1105,  183
1941, 1105,  182,  183
1942, 1109, 1107, 1075
1943, 1076,  180, 1075
1944, 1100, 1069, 1068
1945, 1131, 1130, 1099
1946, 1132, 1131, 1100
1947, 1139,  175,  176
1948,  198,   10,  134
1949, 1080,  198,  134
1950, 1081,  197, 1080
1951, 1141, 1117, 1080
1952, 1091,  196, 1081
1953, 1126, 1095, 1093
1954, 1083,  194, 1082
1955, 1084,  193, 1083
1956, 1086,  191, 1085
1957, 1087,  190, 1086
1958, 1088,  189, 1087
1959, 1089,  188, 1088
1960, 1090,  187, 1089
1961, 1057,  172,  173
1962, 1064,  174, 1058
1963, 1058,  174,    8
1964, 1073,  121, 1072
1965, 1061,  130,  129
1966, 1164, 1142, 1140
1967, 1060,  171,  172
1968, 1093, 1083, 1082
1969, 1062,  129,  128
1970, 1115, 1062, 1065
1971, 1063, 1062,  128
1972, 1065,  171, 1060
1973, 1063,  128,    9
1974, 1065,  170,  171
1975, 1072,  120, 1071
1976, 1064, 1057,  173
1977, 1115, 1114, 1061
1978, 1065, 1062, 1063
1979, 1067,  115, 1066
1980, 1066,  115,  114
1981, 1078,  178, 1077
1982, 1068,  116, 1067
1983, 1077,  179, 1076
1984, 1069,  117, 1068
1985, 1100, 1099, 1069
1986, 1070,  118, 1069
1987, 1101, 1070, 1099
1988, 1070,  119,  118
1989, 1102, 1071, 1101
1990, 1071,  120,  119
1991, 1103, 1072, 1102
1992, 1072,  121,  120
1993, 1073, 1064, 1058
1994, 1073, 1058,  122
1995, 1074,  181,  182
1996, 1094, 1085, 1084
1997, 1172, 1154, 1171
1998, 1075,  180,  181
1999, 1104, 1100, 1068
2000, 1076,  179,  180
2001, 1139, 1119, 1066
2002, 1077,  178,  179
2003, 1106, 1078, 1077
2004, 1078,  177,  178
2005, 1139, 1079, 1119
2006, 1079,  176,  177
2007, 1080,  197,  198
2008, 1116,  132, 1113
2009, 1091, 1082,  195
2010, 1081,  196,  197
2011, 1082,  194,  195
2012, 1114, 1059, 1061
2013, 1095, 1083, 1093
2014, 1083,  193,  194
2015, 1125, 1094, 1122
2016, 1084,  192,  193
2017, 1096, 1085, 1094
2018, 1085,  191,  192
2019, 1096, 1086, 1085
2020, 1086,  190,  191
2021, 1098, 1088, 1087
2022, 1087,  189,  190
2023, 1138, 1118, 1120
2024, 1088,  188,  189
2025, 1118, 1089, 1092
2026, 1089,  187,  188
2027, 1110,  185, 1090
2028, 1090,  185,  186
2029, 1142, 1113, 1140
2030, 1166, 1145, 1164
2031, 1097, 1086, 1096
2032, 1144, 1120, 1127
2033, 1128, 1091, 1121
2034, 1122, 1094, 1095
2035, 1095, 1094, 1084
2036, 1158, 1109, 1133
2037, 1095, 1084, 1083
2038, 1126, 1122, 1095
2039, 1147, 1144, 1127
2040, 1178, 1168, 1175
2041, 1178, 1144, 1147
2042, 1097, 1087, 1086
2043, 1098, 1092, 1088
2044, 1098, 1087, 1097
2045, 1159, 1151, 1137
2046, 1099, 1070, 1069
2047, 1104, 1068, 1067
2048, 1136, 1111, 1135
2049, 1143, 1102, 1129
2050, 1101, 1071, 1070
2051, 1103, 1073, 1072
2052, 1102, 1072, 1071
2053, 1162, 1064, 1103
2054, 1103, 1064, 1073
2055, 1119, 1104, 1067
2056, 1112, 1079, 1078
2057, 1105, 1074,  182
2058, 1108,  183,  184
2059, 1111, 1077, 1076
2060, 1111, 1076, 1107
2061, 1109, 1075, 1074
2062, 1182, 1162, 1174
2063, 1110, 1108,  184
2064, 1118, 1110, 1090
2065, 1133, 1074, 1105
2066, 1123, 1098, 1097
2067, 1110,  184,  185
2068, 1118, 1090, 1089
2069, 1161, 1160, 1135
2070, 1111, 1106, 1077
2071, 1157, 1119, 1112
2072, 1112, 1078, 1106
2073, 1113,  132,  131
2074, 1140, 1059, 1114
2075, 1115, 1061, 1062
2076, 1189, 1187, 1173
2077, 1199, 1191, 1115
2078, 1173, 1126, 1155
2079, 1141, 1116, 1117
2080, 1116,  133,  132
2081, 1121, 1081, 1117
2082, 1117, 1081, 1080
2083, 1120, 1118, 1092
2084, 1118, 1108, 1110
2085, 1119, 1067, 1066
2086, 1119, 1079, 1112
2087, 1144, 1138, 1120
2088, 1127, 1092, 1098
2089, 1152, 1145, 1121
2090, 1121, 1091, 1081
2091, 1146, 1122, 1126
2092, 1162, 1103, 1143
2093, 1124, 1097, 1096
2094, 1124, 1123, 1097
2095, 1125, 1124, 1096
2096, 1150, 1125, 1148
2097, 1125, 1096, 1094
2098, 1148, 1122, 1146
2099, 1155, 1093, 1128
2100, 1176, 1163, 1114
2101, 1127, 1120, 1092
2102, 1127, 1098, 1123
2103, 1128, 1093, 1082
2104, 1128, 1082, 1091
2105, 1129, 1102, 1101
2106, 1130, 1101, 1099
2107, 1131, 1099, 1100
2108, 1135, 1107, 1134
2109, 1132, 1100, 1104
2110, 1171, 1159, 1160
2111, 1157, 1132, 1104
2112, 1137, 1112, 1106
2113, 1133, 1109, 1074
2114, 1138, 1133, 1105
2115, 1134, 1107, 1109
2116, 1186, 1175, 1168
2117, 1151, 1132, 1137
2118, 1135, 1111, 1107
2119, 1159, 1137, 1136
2120, 1136, 1106, 1111
2121, 1157, 1137, 1132
2122, 1137, 1106, 1136
2123, 1138, 1105, 1108
2124, 1138, 1108, 1118
2125, 1139, 1066,  175
2126, 1139,  176, 1079
2127, 1140, 1113, 1059
2128, 1189, 1166, 1179
2129, 1141, 1080,  134
2130, 1141,  133, 1116
2131, 1142, 1117, 1116
2132, 1142, 1116, 1113
2133, 1156, 1129, 1153
2134, 1143, 1103, 1102
2135, 1144, 1133, 1138
2136, 1147, 1127, 1123
2137, 1179, 1164, 1163
2138, 1145, 1128, 1121
2139, 1208, 1182, 1206
2140, 1205, 1190, 1198
2141, 1149, 1123, 1124
2142, 1195, 1185, 1184
2143, 1165, 1156, 1153
2144, 1148, 1125, 1122
2145, 1149, 1147, 1123
2146, 1150, 1149, 1124
2147, 1150, 1124, 1125
2148, 1169, 1148, 1167
2149, 1154, 1131, 1151
2150, 1151, 1131, 1132
2151, 1152, 1121, 1117
2152, 1164, 1140, 1163
2153, 1153, 1129, 1130
2154, 1154, 1153, 1130
2155, 1154, 1130, 1131
2156, 1171, 1151, 1159
2157, 1155, 1126, 1093
2158, 1155, 1128, 1145
2159, 1181, 1174, 1156
2160, 1156, 1143, 1129
2161, 1157, 1104, 1119
2162, 1157, 1112, 1137
2163, 1158, 1134, 1109
2164, 1158, 1133, 1144
2165, 1160, 1136, 1135
2166, 1160, 1159, 1136
2167, 1161, 1135, 1134
2168, 1177, 1171, 1160
2169, 1175, 1134, 1158
2170, 1192, 1188, 1186
2171, 1208, 1064, 1162
2172, 1174, 1143, 1156
2173, 1163, 1140, 1114
2174, 1176, 1114, 1115
2175, 1164, 1145, 1152
2176, 1164, 1152, 1142
2177, 1172, 1153, 1154
2178, 1204, 1200, 1201
2179, 1179, 1166, 1164
2180, 1166, 1155, 1145
2181, 1167, 1148, 1146
2182, 1187, 1146, 1173
2183, 1168, 1147, 1149
2184, 1170, 1149, 1150
2185, 1183, 1180, 1172
2186, 1169, 1150, 1148
2187, 1170, 1168, 1149
2188, 1170, 1150, 1169
2189, 1171, 1154, 1151
2190, 1177, 1160, 1161
2191, 1183, 1171, 1177
2192, 1172, 1165, 1153
2193, 1173, 1146, 1126
2194, 1173, 1155, 1166
2195, 1174, 1162, 1143
2196, 1181, 1156, 1165
2197, 1175, 1161, 1134
2198, 1178, 1175, 1158
2199, 1199, 1115, 1065
2200, 1207, 1197, 1201
2201, 1188, 1175, 1186
2202, 1195, 1192, 1185
2203, 1178, 1158, 1144
2204, 1178, 1147, 1168
2205, 1190, 1163, 1176
2206, 1189, 1173, 1166
2207, 1185, 1169, 1184
2208, 1180, 1165, 1172
2209, 1194, 1165, 1180
2210, 1207, 1202, 1197
2211, 1208, 1206, 1057
2212, 1197, 1174, 1181
2213, 1183, 1172, 1171
2214, 1192, 1183, 1177
2215, 1184, 1169, 1167
2216, 1196, 1187, 1193
2217, 1192, 1177, 1188
2218, 1185, 1170, 1169
2219, 1186, 1168, 1170
2220, 1186, 1170, 1185
2221, 1193, 1187, 1189
2222, 1187, 1167, 1146
2223, 1188, 1177, 1161
2224, 1188, 1161, 1175
2225, 1190, 1179, 1163
2226, 1190, 1189, 1179
2227, 1198, 1176, 1191
2228, 1207, 1205, 1203
2229, 1191, 1176, 1115
2230, 1206, 1202, 1203
2231, 1192, 1186, 1185
2232, 1192, 1180, 1183
2233, 1204, 1201, 1194
2234, 1193, 1189, 1190
2235, 1194, 1181, 1165
2236, 1195, 1194, 1180
2237, 1204, 1196, 1200
2238, 1195, 1180, 1192
2239, 1196, 1184, 1167
2240, 1196, 1167, 1187
2241, 1197, 1182, 1174
2242, 1201, 1181, 1194
2243, 1198, 1190, 1176
2244, 1207, 1203, 1202
2245, 1199, 1065, 1060
2246, 1209, 1206, 1203
2247, 1200, 1196, 1193
2248, 1205, 1200, 1193
2249, 1201, 1197, 1181
2250, 1204, 1194, 1195
2251, 1209, 1203, 1191
2252, 1202, 1182, 1197
2253, 1203, 1198, 1191
2254, 1209, 1191, 1199
2255, 1204, 1195, 1184
2256, 1204, 1184, 1196
2257, 1205, 1193, 1190
2258, 1205, 1198, 1203
2259, 1206, 1060, 1057
2260, 1206, 1182, 1202
2261, 1207, 1201, 1200
2262, 1207, 1200, 1205
2263, 1208, 1057, 1064
2264, 1208, 1162, 1182
2265, 1209, 1199, 1060
2266, 1209, 1060, 1206
*Orientation, name=Ori-1
1., 0., 0., 0., 1., 0.
3, 0.
** Region: (CompositeLayup-1-1: Generated From Layup)
*Elset, elset=CompositeLayup-1-1, generate
    1,  2266,     1
** Section: CompositeLayup-1-1
*Shell Section, elset=CompositeLayup-1-1, composite, orientation=Ori-1, layup=CompositeLayup-1
0.25, 1, ABQ_PLY_FABRIC, 45., Ply-1
0.25, 1, ABQ_PLY_FABRIC, -45., Ply-2
0.25, 1, ABQ_PLY_FABRIC, -45., Ply-3
0.25, 1, ABQ_PLY_FABRIC, 45., Ply-4
*End Part
**  
**
** ASSEMBLY
**
*Assembly, name=Assembly
**  
*Instance, name=Plate-1, part=PLATE
*End Instance
**  
*Nset, nset=Set-1, instance=Plate-1
   6,   7,  12,  97,  98,  99, 100, 101, 102, 103, 104, 105, 106, 107, 108, 109
 110, 111, 112, 113, 175, 176, 177, 178, 179, 180, 181, 182, 183, 184, 185
*Elset, elset=Set-1, instance=Plate-1
  839,  840,  857,  886,  948,  951,  952,  955,  957,  959,  961,  963,  967,  969,  971,  973
  975,  977, 1928, 1937, 1941, 1947, 1995, 1998, 2000, 2002, 2004, 2006, 2058, 2067
*Nset, nset=Set-2, instance=Plate-1
   4,   5,  11,  48,  49,  50,  51,  52,  53,  54,  55,  56,  57,  58,  59,  60
  61,  62,  63,  64, 154, 155, 156, 157, 158, 159, 160, 161, 162, 163, 164
*Elset, elset=Set-2, instance=Plate-1
   23,   39,   55,  133,  136,  138,  140,  142,  144,  146,  148,  150,  152,  154,  156,  158
  160,  254, 1395, 1396, 1414, 1418, 1446, 1507, 1509, 1512, 1514, 1516, 1518, 1520
*End Assembly
*Amplitude, name=Ramp, time=TOTAL TIME
             0.,              0.,            0.01,              1.
** 
** MATERIALS
** 
*Material, name=ABQ_PLY_FABRIC
*Density
 1.594e-09,
*Depvar, delete=16
     16,
*User Material, constants=40
27500., 27500.,   0.11,  2900., 27500., 27500.,   0.11,     0.
   604.,   291.,   604.,   291.,    75.,     0.,     0.,     0.
 20.438, 4.6257, 20.438, 4.6257, 0.3221,     1.,     0.,     0.
    75., 0.0008,  0.552,     0.,     0.,     0.,     0.,     0.
     0.,     1.,  1e+09,  1e+09, -1e+09,     0.,     0.,     0.
** ----------------------------------------------------------------
** 
** STEP: Step-1
** 
*Step, name=Step-1, nlgeom=NO
*Dynamic, Explicit
, 0.01
*Bulk Viscosity
0.06, 1.2
** 
** BOUNDARY CONDITIONS
** 
** Name: BC-1 Type: Symmetry/Antisymmetry/Encastre
*Boundary
Set-1, ENCASTRE
** Name: BC-2 Type: Displacement/Rotation
*Boundary, amplitude=Ramp
Set-2, 1, 1, 1.73684
** 
** OUTPUT REQUESTS
** 
*Restart, write, number interval=1, time marks=NO
** 
** FIELD OUTPUT: F-Output-1
** 
*Output, field, number interval=1
*Element Output, position=NODES, directions=YES
LE, PEEQ, SDV
** 
** HISTORY OUTPUT: H-Output-1
** 
*Output, history, variable=PRESELECT
*End Step
