*Heading
** Job name: Plate_nonlinear_7 Model name: Model-1
** Generated by: Abaqus/CAE 2024.HF3
*Preprint, echo=NO, model=NO, history=NO, contact=NO
**
** PARTS
**
*Part, name=PLATE
*Node
      1,   41.2362022,   195.071426,           0.
      2,   41.2362022,   75.8413696,           0.
      3,   58.5561447,    58.521431,           0.
      4,    137.45401,    58.521431,           0.
      5,    137.45401,   195.071426,           0.
      6,           0.,   195.071426,           0.
      7,           0.,    58.521431,           0.
      8,   23.9162636,    58.521431,           0.
      9,   41.2362022,   41.2014885,           0.
     10,   41.2362022,           0.,           0.
     11,    137.45401,           0.,           0.
     12,           0.,           0.,           0.
     13,   41.2362022,   189.887512,           0.
     14,   41.2362022,   184.703598,           0.
     15,   41.2362022,   179.519684,           0.
     16,   41.2362022,    174.33577,           0.
     17,   41.2362022,   169.151855,           0.
     18,   41.2362022,   163.967941,           0.
     19,   41.2362022,   158.784027,           0.
     20,   41.2362022,   153.600098,           0.
     21,   41.2362022,   148.416183,           0.
     22,   41.2362022,   143.232269,           0.
     23,   41.2362022,   138.048355,           0.
     24,   41.2362022,   132.864441,           0.
     25,   41.2362022,   127.680527,           0.
     26,   41.2362022,   122.496613,           0.
     27,   41.2362022,   117.312691,           0.
     28,   41.2362022,   112.128777,           0.
     29,   41.2362022,   106.944862,           0.
     30,   41.2362022,   101.760948,           0.
     31,   41.2362022,    96.577034,           0.
     32,   41.2362022,   91.3931122,           0.
     33,   41.2362022,    86.209198,           0.
     34,   41.2362022,   81.0252838,           0.
     35,   46.5883598,   74.9936676,           0.
     36,   51.4166069,   72.5335541,           0.
     37,   55.2483292,   68.7018356,           0.
     38,   57.7084465,   63.8735847,           0.
     39,   63.4872589,    58.521431,           0.
     40,   68.4183731,    58.521431,           0.
     41,   73.3494949,    58.521431,           0.
     42,   78.2806091,    58.521431,           0.
     43,   83.2117233,    58.521431,           0.
     44,   88.1428452,    58.521431,           0.
     45,   93.0739594,    58.521431,           0.
     46,   98.0050812,    58.521431,           0.
     47,   102.936195,    58.521431,           0.
     48,    107.86731,    58.521431,           0.
     49,   112.798431,    58.521431,           0.
     50,   117.729546,    58.521431,           0.
     51,    122.66066,    58.521431,           0.
     52,   127.591782,    58.521431,           0.
     53,   132.522888,    58.521431,           0.
     54,    137.45401,   63.5788383,           0.
     55,    137.45401,   68.6362457,           0.
     56,    137.45401,   73.6936493,           0.
     57,    137.45401,   78.7510605,           0.
     58,    137.45401,   83.8084641,           0.
     59,    137.45401,   88.8658752,           0.
     60,    137.45401,   93.9232788,           0.
     61,    137.45401,     98.98069,           0.
     62,    137.45401,   104.038094,           0.
     63,    137.45401,   109.095505,           0.
     64,    137.45401,   114.152908,           0.
     65,    137.45401,    119.21032,           0.
     66,    137.45401,   124.267723,           0.
     67,    137.45401,   129.325134,           0.
     68,    137.45401,   134.382538,           0.
     69,    137.45401,   139.439941,           0.
     70,    137.45401,    144.49736,           0.
     71,    137.45401,   149.554764,           0.
     72,    137.45401,   154.612167,           0.
     73,    137.45401,   159.669571,           0.
     74,    137.45401,    164.72699,           0.
     75,    137.45401,   169.784393,           0.
     76,    137.45401,   174.841797,           0.
     77,    137.45401,   179.899216,           0.
     78,    137.45401,   184.956619,           0.
     79,    137.45401,   190.014023,           0.
     80,   132.389923,   195.071426,           0.
     81,   127.325821,   195.071426,           0.
     82,   122.261726,   195.071426,           0.
     83,   117.197632,   195.071426,           0.
     84,   112.133537,   195.071426,           0.
     85,   107.069443,   195.071426,           0.
     86,   102.005348,   195.071426,           0.
     87,   96.9412537,   195.071426,           0.
     88,   91.8771591,   195.071426,           0.
     89,   86.8130569,   195.071426,           0.
     90,   81.7489624,   195.071426,           0.
     91,   76.6848679,   195.071426,           0.
     92,   71.6207733,   195.071426,           0.
     93,   66.5566788,   195.071426,           0.
     94,   61.4925842,   195.071426,           0.
     95,   56.4284897,   195.071426,           0.
     96,   51.3643951,   195.071426,           0.
     97,   46.3003006,   195.071426,           0.
     98,   36.0816765,   195.071426,           0.
     99,   30.9271526,   195.071426,           0.
    100,   25.7726269,   195.071426,           0.
    101,   20.6181011,   195.071426,           0.
    102,   15.4635763,   195.071426,           0.
    103,   10.3090506,   195.071426,           0.
    104,   5.15452528,   195.071426,           0.
    105,           0.,   190.014023,           0.
    106,           0.,   184.956619,           0.
    107,           0.,   179.899216,           0.
    108,           0.,   174.841797,           0.
    109,           0.,   169.784393,           0.
    110,           0.,    164.72699,           0.
    111,           0.,   159.669571,           0.
    112,           0.,   154.612167,           0.
    113,           0.,   149.554764,           0.
    114,           0.,    144.49736,           0.
    115,           0.,   139.439941,           0.
    116,           0.,   134.382538,           0.
    117,           0.,   129.325134,           0.
    118,           0.,   124.267723,           0.
    119,           0.,    119.21032,           0.
    120,           0.,   114.152908,           0.
    121,           0.,   109.095505,           0.
    122,           0.,   104.038094,           0.
    123,           0.,     98.98069,           0.
    124,           0.,   93.9232788,           0.
    125,           0.,   88.8658752,           0.
    126,           0.,   83.8084641,           0.
    127,           0.,   78.7510605,           0.
    128,           0.,   73.6936493,           0.
    129,           0.,   68.6362457,           0.
    130,           0.,   63.5788383,           0.
    131,   4.78325272,    58.521431,           0.
    132,   9.56650543,    58.521431,           0.
    133,   14.3497581,    58.521431,           0.
    134,   19.1330109,    58.521431,           0.
    135,   24.7639618,   63.8735847,           0.
    136,   27.2240791,   68.7018356,           0.
    137,   31.0557995,   72.5335541,           0.
    138,   35.8840485,   74.9936676,           0.
    139,   41.2362022,   36.0513039,           0.
    140,   41.2362022,   30.9011173,           0.
    141,   41.2362022,   25.7509308,           0.
    142,   41.2362022,   20.6007442,           0.
    143,   41.2362022,   15.4505587,           0.
    144,   41.2362022,   10.3003721,           0.
    145,   41.2362022,   5.15018606,           0.
    146,   46.3003006,           0.,           0.
    147,   51.3643951,           0.,           0.
    148,   56.4284897,           0.,           0.
    149,   61.4925842,           0.,           0.
    150,   66.5566788,           0.,           0.
    151,   71.6207733,           0.,           0.
    152,   76.6848679,           0.,           0.
    153,   81.7489624,           0.,           0.
    154,   86.8130569,           0.,           0.
    155,   91.8771591,           0.,           0.
    156,   96.9412537,           0.,           0.
    157,   102.005348,           0.,           0.
    158,   107.069443,           0.,           0.
    159,   112.133537,           0.,           0.
    160,   117.197632,           0.,           0.
    161,   122.261726,           0.,           0.
    162,   127.325821,           0.,           0.
    163,   132.389923,           0.,           0.
    164,    137.45401,   4.87678576,           0.
    165,    137.45401,   9.75357151,           0.
    166,    137.45401,   14.6303577,           0.
    167,    137.45401,    19.507143,           0.
    168,    137.45401,   24.3839283,           0.
    169,    137.45401,   29.2607155,           0.
    170,    137.45401,   34.1375008,           0.
    171,    137.45401,    39.014286,           0.
    172,    137.45401,   43.8910713,           0.
    173,    137.45401,   48.7678566,           0.
    174,    137.45401,   53.6446419,           0.
    175,   57.7084465,   53.1692734,           0.
    176,   55.2483292,   48.3410225,           0.
    177,   51.4166069,    44.509304,           0.
    178,   46.5883598,   42.0491867,           0.
    179,   35.8840485,   42.0491867,           0.
    180,   31.0557995,    44.509304,           0.
    181,   27.2240791,   48.3410225,           0.
    182,   24.7639618,   53.1692734,           0.
    183,           0.,   53.6446419,           0.
    184,           0.,   48.7678566,           0.
    185,           0.,   43.8910713,           0.
    186,           0.,    39.014286,           0.
    187,           0.,   34.1375008,           0.
    188,           0.,   29.2607155,           0.
    189,           0.,   24.3839283,           0.
    190,           0.,    19.507143,           0.
    191,           0.,   14.6303577,           0.
    192,           0.,   9.75357151,           0.
    193,           0.,   4.87678576,           0.
    194,   5.15452528,           0.,           0.
    195,   10.3090506,           0.,           0.
    196,   15.4635763,           0.,           0.
    197,   20.6181011,           0.,           0.
    198,   25.7726269,           0.,           0.
    199,   30.9271526,           0.,           0.
    200,   36.0816765,           0.,           0.
    201,   45.7228432,   114.721588,           0.
    202,   61.6287918,    68.186676,           0.
    203,   61.3966293,   62.4331474,           0.
    204,   45.7210121,   125.088692,           0.
    205,   45.7186852,   161.374893,           0.
    206,    45.719883,   156.191422,           0.
    207,   45.7205353,   151.007828,           0.
    208,   45.7206192,   145.824142,           0.
    209,   45.7206039,   140.640289,           0.
    210,   45.7206917,    135.45639,           0.
    211,    45.720623,   130.272507,           0.
    212,   45.7213745,   119.905113,           0.
    213,   45.7250519,   109.538383,           0.
    214,   45.7294273,   104.355339,           0.
    215,   45.7359695,   99.1715851,           0.
    216,    45.753334,   94.0172424,           0.
    217,   51.3285828,   76.9361191,           0.
    218,   45.8222046,   88.9270935,           0.
    219,   45.9684486,   83.9136276,           0.
    220,   46.2023735,   79.0685501,           0.
    221,   56.9469452,   73.8581924,           0.
    222,   130.776688,   63.0943909,           0.
    223,   125.394989,   63.0569649,           0.
    224,   120.273636,   62.9042358,           0.
    225,   115.293198,   62.8442154,           0.
    226,   110.339699,   62.8165359,           0.
    227,   105.402885,   62.8084373,           0.
    228,    100.47155,   62.8082123,           0.
    229,    95.541832,   62.8120613,           0.
    230,   90.6127701,   62.8198738,           0.
    231,   85.6822128,   62.8350067,           0.
    232,    80.740036,   62.8729744,           0.
    233,   75.7689514,   62.9409447,           0.
    234,    70.736557,   63.0232315,           0.
    235,   65.6152878,    63.057621,           0.
    236,   132.982193,   182.401276,           0.
    237,   133.008698,   177.407776,           0.
    238,   133.033813,   172.349792,           0.
    239,   133.055695,   167.273148,           0.
    240,   133.066467,   162.202347,           0.
    241,   133.068771,   157.141754,           0.
    242,   133.069275,   152.083649,           0.
    243,   133.069321,   147.026093,           0.
    244,   133.069351,   141.968658,           0.
    245,   133.069489,    136.91124,           0.
    246,   133.069443,   131.853836,           0.
    247,   133.069458,   126.796432,           0.
    248,   133.069473,   121.739021,           0.
    249,   133.069595,   116.681511,           0.
    250,   133.070541,   111.623787,           0.
    251,   133.072617,    106.56588,           0.
    252,   133.075607,   101.508049,           0.
    253,   133.079041,    96.450531,           0.
    254,    133.08255,   91.3931732,           0.
    255,   133.089127,   86.3398972,           0.
    256,   133.060532,   81.2719803,           0.
    257,   133.019196,   76.1926575,           0.
    258,   133.037506,   71.1699677,           0.
    259,   48.0838127,   190.384796,           0.
    260,   53.6418877,   190.408142,           0.
    261,   58.9404106,   190.571365,           0.
    262,    94.408699,   190.679977,           0.
    263,   99.4729996,   190.681122,           0.
    264,   104.535561,    190.68219,           0.
    265,   109.594048,   190.683182,           0.
    266,   114.653893,   190.653488,           0.
    267,   119.773094,   190.578354,           0.
    268,   125.075272,   190.448776,           0.
    269,    130.61705,   190.457718,           0.
    270,   98.0106583,   67.1076813,           0.
    271,   122.825363,   67.3331833,           0.
    272,   88.1613159,    67.148735,           0.
    273,   83.2344971,   67.2052307,           0.
    274,   73.2728653,   67.4357147,           0.
    275,   68.0380859,   67.6598892,           0.
    276,   107.875099,   67.1093292,           0.
    277,   112.844475,   67.1459045,           0.
    278,   102.939613,   67.1050186,           0.
    279,   93.0866547,   67.1252213,           0.
    280,   78.2864685,    67.301445,           0.
    281,   117.835876,    67.205574,           0.
    282,    128.61087,     174.9729,           0.
    283,   128.664764,   164.755722,           0.
    284,   128.682175,   149.554855,           0.
    285,   128.682434,   134.382538,           0.
    286,   128.688171,   109.092819,           0.
    287,   128.694412,    104.03376,           0.
    288,   128.702179,   98.9755859,           0.
    289,   128.710434,   93.9182053,           0.
    290,   128.727173,   88.8707733,           0.
    291,   128.692856,   83.8252945,           0.
    292,   128.529373,    78.704689,           0.
    293,   128.678192,    159.67662,           0.
    294,   128.682114,   139.439957,           0.
    295,   133.335083,   186.659103,           0.
    296,   128.681152,   154.613602,           0.
    297,    128.68161,   144.497375,           0.
    298,   128.682434,   124.267731,           0.
    299,   128.682404,   119.210045,           0.
    300,   128.684052,   114.151543,           0.
    301,   128.536987,   73.5604019,           0.
    302,   128.603287,   179.995911,           0.
    303,   128.681839,    129.32515,           0.
    304,   128.640503,   169.867493,           0.
    305,   89.3442383,   190.678467,           0.
    306,   56.4586792,   185.857346,           0.
    307,   96.9406052,   186.287308,           0.
    308,   112.081474,   186.239243,           0.
    309,   79.2167511,   190.676071,           0.
    310,   84.2799988,   190.676926,           0.
    311,   64.0464859,    190.64032,           0.
    312,   102.001099,   186.289413,           0.
    313,   107.047745,   186.278717,           0.
    314,   117.196899,   186.042603,           0.
    315,   122.444283,   185.928986,           0.
    316,   50.2028465,   132.864456,           0.
    317,   50.2012596,   153.599136,           0.
    318,   50.2277336,   101.769966,           0.
    319,   50.2162247,   106.951744,           0.
    320,   45.7193871,   166.590317,           0.
    321,   50.2512589,   96.6080704,           0.
    322,    50.205574,   117.314636,           0.
    323,   50.2026367,   127.680779,           0.
    324,   50.3403549,   91.5312042,           0.
    325,   50.1980667,   158.782501,           0.
    326,   50.2018547,   148.415695,           0.
    327,   50.2020416,   143.232147,           0.
    328,   50.2021217,    138.04834,           0.
    329,    50.203228,   122.497581,           0.
    330,   50.2089996,   112.133018,           0.
    331,    45.684864,   182.083435,           0.
    332,   45.6893921,   171.801208,           0.
    333,   128.385605,   68.0558167,           0.
    334,   50.5495758,   185.118744,           0.
    335,    128.23996,   185.418655,           0.
    336,    133.42157,   66.9070511,           0.
    337,   45.3581314,   186.435623,           0.
    338,    105.40757,   71.4143448,           0.
    339,   100.480934,   71.4168549,           0.
    340,   95.5612717,   71.4327545,           0.
    341,   110.377907,   71.4587555,           0.
    342,   115.396591,   71.5087967,           0.
    343,   120.394928,    71.525383,           0.
    344,   90.6465607,   71.4660873,           0.
    345,   75.8992081,   71.7625504,           0.
    346,   80.8271408,   71.6233521,           0.
    347,   85.7393112,   71.5304718,           0.
    348,   124.291481,   136.911255,           0.
    349,   124.290756,   157.143875,           0.
    350,   124.275787,   162.223206,           0.
    351,   124.290901,   141.968674,           0.
    352,   124.292664,   177.639633,           0.
    353,     124.2911,   152.084366,           0.
    354,   124.291336,   126.796425,           0.
    355,   124.291435,   121.738472,           0.
    356,   124.290565,   147.026291,           0.
    357,   124.293579,   116.679268,           0.
    358,   124.290688,   131.853851,           0.
    359,   124.238449,   172.522079,           0.
    360,   124.243675,    167.35498,           0.
    361,   124.299187,   111.618553,           0.
    362,   124.308617,   106.557426,           0.
    363,   124.358482,   91.3869324,           0.
    364,   124.358482,   86.3588409,           0.
    365,   124.336884,   96.4401169,           0.
    366,   124.253044,   81.3789062,           0.
    367,   123.541092,   75.9797821,           0.
    368,   124.321487,   101.497414,           0.
    369,     86.81147,   186.281082,           0.
    370,    74.156395,   190.675156,           0.
    371,   81.7485886,   186.277496,           0.
    372,    69.102356,   190.666016,           0.
    373,   119.874229,   180.918427,           0.
    374,   114.479805,    181.70842,           0.
    375,   109.522652,   181.847794,           0.
    376,    104.51371,   181.882706,           0.
    377,   99.4680252,   181.889587,           0.
    378,   54.5395966,   181.012863,           0.
    379,    61.614563,   186.116226,           0.
    380,   91.8763504,   186.283707,           0.
    381,    124.69088,   181.980316,           0.
    382,    50.227169,   164.011444,           0.
    383,   45.6489296,   176.946152,           0.
    384,   54.6783218,    151.00708,           0.
    385,   54.6809311,   135.456421,           0.
    386,   54.6799736,    140.64035,           0.
    387,   54.6807365,   130.272797,           0.
    388,   54.6741714,   156.190659,           0.
    389,   54.6788445,   145.823761,           0.
    390,   54.6834717,   119.907516,           0.
    391,   54.6809082,   125.089912,           0.
    392,   54.6871529,   114.726913,           0.
    393,   54.7085609,   104.371277,           0.
    394,   54.6946144,   109.548943,           0.
    395,   54.7320404,   99.2014771,           0.
    396,   54.8147354,   94.1007843,           0.
    397,   50.2545738,   169.329971,           0.
    398,   50.5498505,   86.5714264,           0.
    399,   70.9294815,   71.9445801,           0.
    400,   124.736794,   71.2909164,           0.
    401,   73.5376053,   76.2063065,           0.
    402,   93.1295395,   75.7830124,           0.
    403,   88.2380905,   75.8459854,           0.
    404,   107.888626,   75.7733002,           0.
    405,   102.953491,   75.7455139,           0.
    406,   118.034607,   75.8658218,           0.
    407,   112.942307,   75.9106827,           0.
    408,   98.0402603,   75.7576065,           0.
    409,   78.4609909,   76.0614853,           0.
    410,    83.354538,   75.9414978,           0.
    411,   71.6399155,    186.26889,           0.
    412,     119.9459,   98.9398727,           0.
    413,   119.967659,   93.8445435,           0.
    414,   119.905083,   114.144165,           0.
    415,   119.896614,   149.556213,           0.
    416,   119.887909,   159.698914,           0.
    417,   119.896065,   139.440002,           0.
    418,   119.862114,   164.820282,           0.
    419,    119.89563,   134.382568,           0.
    420,   119.895355,    144.49791,           0.
    421,   119.893501,   154.623779,           0.
    422,   119.895576,   129.325104,           0.
    423,    119.77523,   170.046326,           0.
    424,   119.896065,   124.266853,           0.
    425,   119.898453,   119.206429,           0.
    426,   119.891319,   175.289078,           0.
    427,    120.02095,   88.7758636,           0.
    428,   120.065559,   83.8174591,           0.
    429,   119.929588,   104.008369,           0.
    430,   119.915604,   109.076828,           0.
    431,   89.3448029,   181.882797,           0.
    432,   84.2813644,   181.876419,           0.
    433,   107.048882,   177.482391,           0.
    434,   111.972664,   177.466476,           0.
    435,   102.040298,   177.467209,           0.
    436,   66.6283646,   186.222672,           0.
    437,   94.4087906,   181.886917,           0.
    438,   76.6906738,   186.273575,           0.
    439,   59.3597145,   181.527786,           0.
    440,   49.9868546,   179.414642,           0.
    441,   59.2005081,   101.803474,           0.
    442,   50.0136375,   174.469955,           0.
    443,   54.7149162,   161.408234,           0.
    444,   59.1598854,   117.320305,           0.
    445,   59.2572861,   96.6661758,           0.
    446,   59.1661644,   112.144402,           0.
    447,   59.1546593,   132.864822,           0.
    448,     59.15448,   127.681999,           0.
    449,   59.1557388,   122.500504,           0.
    450,   59.1536636,   138.048584,           0.
    451,   59.1526222,   143.231781,           0.
    452,   59.1507187,   148.415115,           0.
    453,    59.144352,   153.593369,           0.
    454,   59.1785316,   106.972763,           0.
    455,   54.8145714,   166.745026,           0.
    456,   50.8962898,   81.7026443,           0.
    457,   55.0004425,   89.1407166,           0.
    458,   53.3870087,   176.899292,           0.
    459,   55.9360809,   79.4360123,           0.
    460,   76.0557022,   80.5240402,           0.
    461,   90.7314377,   80.1671295,           0.
    462,   85.8648376,   80.2560959,           0.
    463,   95.6205292,   80.1241074,           0.
    464,   100.538445,   80.1332626,           0.
    465,   105.477684,   80.1378403,           0.
    466,   110.381599,   80.1490021,           0.
    467,   80.9770813,   80.3753586,           0.
    468,    69.184639,   181.802795,           0.
    469,   68.5926361,    76.279129,           0.
    470,   74.1860809,    181.84848,           0.
    471,   115.545013,   96.2421722,           0.
    472,   115.645088,   91.0707779,           0.
    473,   115.537872,    101.39637,           0.
    474,   115.505096,   116.669792,           0.
    475,   115.496437,   126.795319,           0.
    476,   115.498413,   121.734032,           0.
    477,   115.495605,   131.853577,           0.
    478,   115.495621,   136.911316,           0.
    479,   115.495964,   141.969299,           0.
    480,   115.486145,   152.109955,           0.
    481,   115.493591,   147.033508,           0.
    482,    115.45842,   157.233154,           0.
    483,   115.506859,   167.437256,           0.
    484,   115.474838,   162.377594,           0.
    485,   115.852272,   86.0708084,           0.
    486,   91.8842926,   177.478851,           0.
    487,   109.665962,   173.177399,           0.
    488,   104.725952,   173.048523,           0.
    489,   86.8181458,   177.471436,           0.
    490,   115.516411,   111.597542,           0.
    491,   115.528145,   106.507637,           0.
    492,   64.2475433,   181.697784,           0.
    493,   96.9711914,   177.467484,           0.
    494,   79.2249527,   181.867249,           0.
    495,   63.7018929,   99.2365341,           0.
    496,   63.6610565,   104.403992,           0.
    497,   54.9711571,    172.50441,           0.
    498,   59.1768761,   158.786133,           0.
    499,   63.6320992,   114.737946,           0.
    500,   63.6268578,   119.913452,           0.
    501,   63.6228752,   135.457077,           0.
    502,   63.6229591,   130.274124,           0.
    503,   63.6196175,   145.823318,           0.
    504,   63.6208534,   140.640213,           0.
    505,   63.6236267,    125.09285,           0.
    506,   63.6415329,   109.569267,           0.
    507,   63.6076508,   150.987396,           0.
    508,   59.3577919,   91.6444931,           0.
    509,   59.2554245,   164.031906,           0.
    510,   115.693344,   80.7532578,           0.
    511,   114.970802,   172.937027,           0.
    512,   120.317528,   79.5590439,           0.
    513,   78.5731277,   84.8149567,           0.
    514,   88.3604431,   84.5811157,           0.
    515,   93.2410355,   84.5372467,           0.
    516,    83.475441,   84.6864014,           0.
    517,    98.169838,   84.5850372,           0.
    518,   103.205414,   84.7058334,           0.
    519,     108.1726,   84.4721069,           0.
    520,   66.7214737,   177.220978,           0.
    521,   61.8737297,   177.256088,           0.
    522,   76.7064819,    177.43898,           0.
    523,   71.7029419,   177.367615,           0.
    524,   111.102676,   93.2965775,           0.
    525,   111.079262,   98.6351013,           0.
    526,    111.18158,   165.213318,           0.
    527,    111.54538,   88.1053925,           0.
    528,   111.099556,   119.196335,           0.
    529,   111.093628,   124.262245,           0.
    530,   111.091354,   129.323471,           0.
    531,   94.4729233,   173.032196,           0.
    532,   111.090813,   134.382324,           0.
    533,    111.09137,    139.44072,           0.
    534,   111.089447,   144.505966,           0.
    535,   111.065025,   149.612839,           0.
    536,   110.906639,   160.064529,           0.
    537,   110.997192,   154.799164,           0.
    538,   107.598351,   168.776993,           0.
    539,   89.3704376,   173.047028,           0.
    540,    111.08683,   103.857315,           0.
    541,    111.10862,   114.117798,           0.
    542,   99.6248932,   172.999557,           0.
    543,   111.104172,   109.007126,           0.
    544,   81.7555618,   177.458313,           0.
    545,    70.897934,   80.7211227,           0.
    546,   68.2071762,   101.800499,           0.
    547,   63.7401657,   94.1071701,           0.
    548,   68.1535034,   106.980118,           0.
    549,   59.3850174,   169.308807,           0.
    550,      63.6194,   156.136459,           0.
    551,    68.093483,   117.329506,           0.
    552,   68.0892181,   122.505272,           0.
    553,   68.1107559,   112.156517,           0.
    554,   68.0857315,    138.04866,           0.
    555,   68.0862274,   132.866272,           0.
    556,   68.0867233,   127.684799,           0.
    557,   68.0830994,   143.231445,           0.
    558,   68.1002197,   148.410049,           0.
    559,   63.7444305,   161.369064,           0.
    560,   59.5007973,   86.8761978,           0.
    561,   65.9818344,   72.2879486,           0.
    562,   111.784714,   169.508392,           0.
    563,   112.329041,   83.9101181,           0.
    564,   60.8485641,   77.6107864,           0.
    565,   116.237762,   177.663879,           0.
    566,    81.072937,    89.033638,           0.
    567,   90.8892593,   88.9801331,           0.
    568,    85.982933,   88.9787827,           0.
    569,   95.8110123,   89.0366364,           0.
    570,   106.290611,   89.8282928,           0.
    571,   100.757759,   89.1623077,           0.
    572,   73.6189117,   85.0170288,           0.
    573,   65.2391281,   80.5120926,           0.
    574,   63.9866409,   172.264938,           0.
    575,   79.2238235,   173.009735,           0.
    576,   106.544502,   95.7419968,           0.
    577,   74.2108307,   172.963943,           0.
    578,   97.1568298,   168.465714,           0.
    579,   106.688667,   121.724228,           0.
    580,   106.683357,   126.790871,           0.
    581,    105.83094,   163.356995,           0.
    582,   106.681534,   131.852417,           0.
    583,   106.681793,   136.912033,           0.
    584,   106.679596,   141.979599,           0.
    585,   106.649162,   147.107834,           0.
    586,   106.460091,   157.539185,           0.
    587,   106.576508,   152.317154,           0.
    588,   106.524254,   101.129364,           0.
    589,    91.963623,   168.521194,           0.
    590,   69.2906647,   172.872543,           0.
    591,   106.696251,   116.643173,           0.
    592,   102.473396,   168.411774,           0.
    593,   106.655602,   106.406273,           0.
    594,   57.2809105,   177.146103,           0.
    595,   84.2909546,   173.031631,           0.
    596,   106.692314,    111.54364,           0.
    597,   72.7986603,   104.374977,           0.
    598,   68.3050308,   96.5669098,           0.
    599,   63.7412834,   166.650452,           0.
    600,   68.0960236,    153.57373,           0.
    601,   72.6346283,   109.581833,           0.
    602,   72.5508194,   119.919945,           0.
    603,   72.5724106,   114.749924,           0.
    604,   63.7180061,   89.1203308,           0.
    605,   72.5470734,   125.096626,           0.
    606,   72.5452499,   130.276855,           0.
    607,   72.5408859,   135.463669,           0.
    608,    72.535347,   140.671707,           0.
    609,   72.6037903,    145.91214,           0.
    610,   55.3359566,   84.3265152,           0.
    611,   68.0859756,   158.664185,           0.
    612,    60.043766,   82.2734451,           0.
    613,   62.0077591,   73.5993576,           0.
    614,   59.4994926,   173.696075,           0.
    615,   83.5467682,     93.27211,           0.
    616,   88.4887695,   93.3907623,           0.
    617,   93.4413071,   93.5054016,           0.
    618,   98.3822784,   93.5559921,           0.
    619,   76.1664429,   89.1369476,           0.
    620,   67.4778519,   168.879181,           0.
    621,   81.7348785,   168.558594,           0.
    622,   76.6782608,   168.557739,           0.
    623,   99.9679337,   163.723648,           0.
    624,   102.273865,   124.183418,           0.
    625,   102.273712,   129.245392,           0.
    626,   102.281578,   134.308716,           0.
    627,   102.279503,    139.39769,           0.
    628,   94.6255722,   163.790024,           0.
    629,    101.53009,   98.2452087,           0.
    630,   102.217461,   144.575806,           0.
    631,   102.098503,   155.093246,           0.
    632,   102.129295,   149.849686,           0.
    633,   102.308189,   119.102592,           0.
    634,   102.219269,     103.8871,           0.
    635,   86.8305588,   168.557068,           0.
    636,   71.7296066,   168.590347,           0.
    637,   68.1252518,   85.8126678,           0.
    638,   102.359245,   114.073837,           0.
    639,   102.346527,   109.016975,           0.
    640,   77.0969391,   107.076981,           0.
    641,   72.8546524,   99.1841888,           0.
    642,   68.1620636,    91.385498,           0.
    643,   68.6748657,   164.135483,           0.
    644,   72.7542648,   151.222092,           0.
    645,   76.9848251,   112.151192,           0.
    646,    76.948967,   117.319298,           0.
    647,   76.9272156,    122.50972,           0.
    648,   76.9223633,   127.696114,           0.
    649,   76.9159012,   132.904221,           0.
    650,   76.9128952,   138.171829,           0.
    651,   77.0014114,   143.467331,           0.
    652,   72.4975891,   156.390762,           0.
    653,    102.70105,   93.3067627,           0.
    654,   85.8834381,   97.7153168,           0.
    655,   90.9097977,   98.1083145,           0.
    656,   96.0093231,   98.1553116,           0.
    657,   71.8590546,   89.0049591,           0.
    658,   78.6267853,   93.2590942,           0.
    659,   79.0521088,    164.13031,           0.
    660,   84.1855927,    164.06842,           0.
    661,   97.9067459,   126.468765,           0.
    662,    97.928009,   131.553635,           0.
    663,   97.9260635,   136.693909,           0.
    664,   97.8397751,   141.916107,           0.
    665,   97.6082458,   147.272079,           0.
    666,   97.5751648,    152.67955,           0.
    667,   97.9995041,   121.370766,           0.
    668,    98.256485,    102.06855,           0.
    669,   74.0316162,    164.30426,           0.
    670,   102.358818,   159.653244,           0.
    671,   89.3615875,   163.983658,           0.
    672,   98.0634079,   106.638969,           0.
    673,   98.2562256,   116.451645,           0.
    674,   98.2977371,    111.66333,           0.
    675,   73.2419586,   93.6529465,           0.
    676,   77.7973633,   101.719353,           0.
    677,   81.0891113,   109.516312,           0.
    678,   77.2025375,   148.717697,           0.
    679,   81.2037125,   114.630455,           0.
    680,   81.1942749,   119.917755,           0.
    681,   81.1674118,   125.170479,           0.
    682,   81.1556168,   130.415329,           0.
    683,   81.1576996,   135.714142,           0.
    684,   81.2374191,   141.012756,           0.
    685,   77.8938293,   154.491608,           0.
    686,   97.4560242,    158.49765,           0.
    687,   87.9106293,   102.582558,           0.
    688,   80.9489594,   97.4633713,           0.
    689,   81.3041153,   159.491379,           0.
    690,   93.6533966,   128.674057,           0.
    691,   93.6655884,   133.854309,           0.
    692,   86.6177444,   159.449402,           0.
    693,   93.6241226,   139.077194,           0.
    694,   92.4381485,   149.990585,           0.
    695,   93.3979187,   144.273407,           0.
    696,   93.7600403,   123.488251,           0.
    697,   93.4839783,   103.605072,           0.
    698,   94.1462402,   118.319862,           0.
    699,   94.0604935,   109.698975,           0.
    700,   95.0255356,   114.066208,           0.
    701,   76.6939468,   97.0557938,           0.
    702,   80.7674866,   105.296638,           0.
    703,   81.4241333,   146.247955,           0.
    704,   85.3665085,   111.660927,           0.
    705,   76.1110916,   159.898972,           0.
    706,    85.522644,   117.232788,           0.
    707,   85.3886642,   122.706497,           0.
    708,   85.3230362,   128.018509,           0.
    709,   85.3171005,   133.299286,           0.
    710,   85.3590012,   138.571411,           0.
    711,    81.304863,   150.780762,           0.
    712,    91.824173,   159.291931,           0.
    713,   63.3253899,   84.9189453,           0.
    714,   89.0985718,   154.720413,           0.
    715,   83.7338181,   154.752304,           0.
    716,   89.4638519,   141.310272,           0.
    717,   89.4018326,   145.793686,           0.
    718,   93.6784134,   155.036026,           0.
    719,   84.5945816,   106.470673,           0.
    720,   71.8802261,   160.678741,           0.
    721,    64.533989,   76.0578613,           0.
    722,   82.9837418,   101.874649,           0.
    723,   86.1324005,    149.44281,           0.
    724,   89.4796829,   136.170364,           0.
    725,   85.5031052,   143.729813,           0.
    726,   89.2971954,   108.035904,           0.
    727,   89.4799118,   130.952545,           0.
    728,   89.5438156,   125.691353,           0.
    729,    89.788063,   120.272659,           0.
    730,   90.4580994,   114.183907,           0.
    731,   21.2951851,   62.5474091,           0.
    732,   11.9545002,   63.3210526,           0.
    733,   17.1804943,   63.2985535,           0.
    734,   3.98204231,    67.016571,           0.
    735,   4.36922598,   71.2867508,           0.
    736,   4.39251947,   76.2626648,           0.
    737,   4.39940643,   81.2909164,           0.
    738,    4.3973546,   86.3404007,           0.
    739,   4.39318228,   91.3958206,           0.
    740,   4.39003563,   96.4524307,           0.
    741,   4.38880825,    101.50956,           0.
    742,   4.38846064,   106.566872,           0.
    743,   4.38795233,   111.624229,           0.
    744,   4.38798332,   116.681625,           0.
    745,   4.38797665,   121.739029,           0.
    746,   4.38797045,   126.796432,           0.
    747,   4.38796759,   131.853836,           0.
    748,   4.38796663,    136.91124,           0.
    749,   4.38796616,   141.968658,           0.
    750,   4.38796616,   147.026062,           0.
    751,   4.38796663,   152.083466,           0.
    752,   4.38799286,   157.140869,           0.
    753,   4.38820934,   162.198212,           0.
    754,   4.38899422,   167.255432,           0.
    755,   4.39048433,   172.312637,           0.
    756,   4.47717953,   177.485504,           0.
    757,   4.66924858,   182.819275,           0.
    758,   4.70483065,   188.327713,           0.
    759,   18.0615578,   190.644745,           0.
    760,   23.3318043,   190.526932,           0.
    761,   28.7686996,   190.345596,           0.
    762,   34.3821983,   190.325165,           0.
    763,    36.796608,   176.910156,           0.
    764,   36.7543983,   151.008133,           0.
    765,   36.7547417,   135.456406,           0.
    766,   36.7545547,    125.08857,           0.
    767,   36.7546196,   109.536827,           0.
    768,   36.7473679,   99.1711121,           0.
    769,   36.5501595,   83.9106064,           0.
    770,   36.8270149,   182.034927,           0.
    771,    36.761097,   171.740768,           0.
    772,   36.7557449,   166.559311,           0.
    773,   36.7553749,   161.375854,           0.
    774,   36.7556038,   156.192032,           0.
    775,   36.7551079,   145.824234,           0.
    776,   36.7558594,    140.64032,           0.
    777,   36.7549591,   119.904655,           0.
    778,   36.7557755,   114.720741,           0.
    779,   36.7530708,   104.353645,           0.
    780,   36.7348595,   94.0006256,           0.
    781,   36.6747284,   88.9081879,           0.
    782,   36.7555351,   130.272491,           0.
    783,   21.3697224,   68.6657257,           0.
    784,   31.4000778,   76.8360443,           0.
    785,   26.6313477,   73.5830002,           0.
    786,    6.5585556,   63.2164803,           0.
    787,     14.87959,   68.1738739,           0.
    788,   8.78254986,   154.612152,           0.
    789,    8.7827425,   134.382538,           0.
    790,    8.7827034,    144.49736,           0.
    791,     9.015625,   174.986801,           0.
    792,   8.78441906,   164.726089,           0.
    793,   8.78275776,   124.267731,           0.
    794,   8.78267384,   114.152962,           0.
    795,   8.78384113,   109.095657,           0.
    796,   8.78618145,   98.9818954,           0.
    797,   9.03217125,    68.410202,           0.
    798,   8.74294949,   73.8597794,           0.
    799,   8.79298401,     93.92659,           0.
    800,    8.7857523,   104.038658,           0.
    801,   8.78414822,   119.210342,           0.
    802,   8.80385685,   88.8721237,           0.
    803,   8.81409359,    83.819809,           0.
    804,   8.79220295,   78.8139648,           0.
    805,   8.78413677,   129.325134,           0.
    806,   8.78411865,   139.439941,           0.
    807,   9.25300312,   180.250366,           0.
    808,   8.78386021,   149.554764,           0.
    809,   8.82617378,   169.807007,           0.
    810,   8.78456306,    159.66925,           0.
    811,   12.9488802,   190.693497,           0.
    812,   26.1054859,   185.761826,           0.
    813,   8.58450699,   191.029343,           0.
    814,   20.7044315,   185.984421,           0.
    815,   36.3397293,   79.0394058,           0.
    816,   32.3349304,   174.353622,           0.
    817,   32.2808037,   153.600037,           0.
    818,   32.2807617,   132.864441,           0.
    819,     32.27808,   106.946465,           0.
    820,   32.2688408,   101.768097,           0.
    821,   32.2941628,   169.157333,           0.
    822,   32.2833252,   163.968521,           0.
    823,   32.1902733,   91.4892197,           0.
    824,   31.9994087,   86.4777908,           0.
    825,   32.3840981,   179.533234,           0.
    826,   37.1418915,   186.423904,           0.
    827,   32.2826767,   158.783981,           0.
    828,   32.2813606,   148.416153,           0.
    829,   32.2818985,   143.232269,           0.
    830,   32.2823753,   138.048355,           0.
    831,   32.2808266,   122.496613,           0.
    832,   32.2817154,   117.312706,           0.
    833,   32.2818222,   112.129066,           0.
    834,   32.2429543,   96.6084747,           0.
    835,   32.2822571,   127.680527,           0.
    836,   9.84660339,   185.969467,           0.
    837,   31.9989719,   185.157501,           0.
    838,   13.3649712,   152.282272,           0.
    839,   13.4084082,   157.406311,           0.
    840,   13.4017153,   162.472168,           0.
    841,   13.3956575,   147.241165,           0.
    842,   13.4008675,   142.169601,           0.
    843,   13.4017515,   137.092987,           0.
    844,   13.4019051,   132.015503,           0.
    845,   13.4019384,   126.937889,           0.
    846,   13.4019537,   121.860268,           0.
    847,   13.4019327,   116.782692,           0.
    848,   13.4018908,   111.705353,           0.
    849,   13.4018679,   106.629227,           0.
    850,    13.400176,   101.555656,           0.
    851,   13.3964844,   96.4847717,           0.
    852,   13.3940659,   167.530579,           0.
    853,   13.5564833,   172.563766,           0.
    854,   14.2678909,   177.831451,           0.
    855,   13.3869066,   91.4152451,           0.
    856,   13.2560539,   81.3097305,           0.
    857,   13.0189219,   76.3497772,           0.
    858,   13.3672485,   86.3526459,           0.
    859,   12.5368252,   72.0288315,           0.
    860,   15.4500895,   186.276367,           0.
    861,    23.241642,   180.711029,           0.
    862,   27.7146282,   135.372131,           0.
    863,   27.6904144,   140.523254,           0.
    864,   27.6943665,   145.699783,           0.
    865,   27.7067776,   130.189163,           0.
    866,   27.7056942,    125.01384,           0.
    867,   27.7148056,   114.673866,           0.
    868,   27.6740093,   119.823959,           0.
    869,   27.6970692,   109.496521,           0.
    870,   27.7033691,   150.881485,           0.
    871,   27.6845207,   104.328934,           0.
    872,   27.7076492,   161.230469,           0.
    873,   27.6732502,   156.013489,           0.
    874,   27.7074451,   166.401535,           0.
    875,   27.7906265,   177.101608,           0.
    876,   27.6297894,   171.722168,           0.
    877,   27.6678715,   99.1734772,           0.
    878,    27.455946,   88.9788589,           0.
    879,   27.5831661,    94.044426,           0.
    880,   16.8899899,    73.275795,           0.
    881,   18.0665722,   88.8980026,           0.
    882,    18.150526,   93.9801941,           0.
    883,   18.2084217,   165.544937,           0.
    884,   18.0926495,   170.608582,           0.
    885,   18.1912174,   99.0810471,           0.
    886,   17.5306396,   174.706787,           0.
    887,   18.2009907,   104.183556,           0.
    888,   18.2065067,   109.293106,           0.
    889,   18.2072468,   114.403168,           0.
    890,   18.2004509,   119.513138,           0.
    891,   18.2145443,   124.636215,           0.
    892,   18.2168255,   129.753479,           0.
    893,   18.2089481,    134.86319,           0.
    894,   18.1990967,   139.967712,           0.
    895,   18.2046051,   145.087234,           0.
    896,   18.2078838,   150.204269,           0.
    897,   18.2086391,   155.320129,           0.
    898,    18.214426,   160.437164,           0.
    899,   17.9019108,   83.8212738,           0.
    900,   17.5670891,   78.6292572,           0.
    901,   13.3289557,   182.459229,           0.
    902,    17.693119,   181.870361,           0.
    903,   28.3041649,    181.65303,           0.
    904,   22.9584427,   101.698318,           0.
    905,   22.9156952,   96.5694199,           0.
    906,   22.8763371,   168.731415,           0.
    907,   22.9540672,   163.447357,           0.
    908,   22.9782963,   148.000549,           0.
    909,   22.9635944,   153.126419,           0.
    910,   22.9730835,   111.974525,           0.
    911,   22.9534359,   106.829163,           0.
    912,   22.9923134,   127.422218,           0.
    913,   22.9654713,   122.257401,           0.
    914,   22.9812202,    132.56308,           0.
    915,   22.9664993,   137.695602,           0.
    916,   22.9555454,   142.829025,           0.
    917,   22.9558449,   117.107674,           0.
    918,   22.9536037,   158.262512,           0.
    919,   22.3324852,   174.505905,           0.
    920,   22.8106079,    91.477005,           0.
    921,     27.18536,   83.9629364,           0.
    922,   22.3474197,   81.2609024,           0.
    923,    21.937273,   75.7393036,           0.
    924,   22.6279697,    86.399826,           0.
    925,   26.8721943,   78.8352661,           0.
    926,   31.7244873,   81.5103455,           0.
    927,    19.013155,    177.92511,           0.
    928,   50.9261932,   39.9837456,           0.
    929,   104.537735,   4.37785339,           0.
    930,   45.7942581,   23.1438274,           0.
    931,    45.762928,   28.2061424,           0.
    932,   45.8620071,   33.1555061,           0.
    933,    114.69101,    4.3979187,           0.
    934,   109.605232,    4.3786478,           0.
    935,    115.26989,   54.2359314,           0.
    936,   110.333992,   54.2442627,           0.
    937,   105.401978,   54.2449875,           0.
    938,    89.346138,   4.38410473,           0.
    939,   79.2177658,    4.3944211,           0.
    940,   74.1529694,   4.39764023,           0.
    941,   69.0883865,   4.39864969,           0.
    942,   64.0247955,   4.40165234,           0.
    943,   58.9371872,   4.44573593,           0.
    944,    53.670681,   4.59596395,           0.
    945,   48.1347809,   4.62954426,           0.
    946,     133.0112,   51.8747139,           0.
    947,   132.939224,    46.532074,           0.
    948,   133.207977,   31.7010746,           0.
    949,   133.216415,    26.824358,           0.
    950,   133.212036,   21.9476433,           0.
    951,   133.163437,   17.0527573,           0.
    952,   132.996521,   11.9914913,           0.
    953,   132.935135,   6.65944433,           0.
    954,   125.124985,   54.1397591,           0.
    955,   120.225494,   54.1693649,           0.
    956,   99.4735031,   4.37891483,           0.
    957,   94.4096298,   4.38049078,           0.
    958,    100.47068,   54.2450867,           0.
    959,   95.5395432,   54.2449722,           0.
    960,   84.2828293,   4.38908911,           0.
    961,   90.6084671,   54.2446976,           0.
    962,   85.6780548,   54.2414856,           0.
    963,    80.748497,   54.2296524,           0.
    964,   75.8125534,   54.2139626,           0.
    965,   61.4418831,   48.6861343,           0.
    966,   70.7741928,   54.1494408,           0.
    967,   65.5852127,    54.028717,           0.
    968,   61.3557892,   54.5853958,           0.
    969,   56.3135529,   42.6483879,           0.
    970,   133.127838,    36.571991,           0.
    971,   128.760025,   14.5332336,           0.
    972,   128.947144,   29.2644272,           0.
    973,   132.973801,   41.4616928,           0.
    974,   128.958832,    24.390974,           0.
    975,   128.897003,   19.4619484,           0.
    976,   122.611023,   49.8480873,           0.
    977,   98.0052185,    49.963768,           0.
    978,   112.806587,   49.9570961,           0.
    979,   107.869347,   49.9631424,           0.
    980,   88.1463013,   49.9566956,           0.
    981,   83.2234879,    49.933403,           0.
    982,   73.2339172,   49.8035431,           0.
    983,    78.273201,   49.8863869,           0.
    984,   102.936676,   49.9628563,           0.
    985,    117.71254,    49.903614,           0.
    986,   93.0748062,   49.9611588,           0.
    987,   119.805206,   4.42231083,           0.
    988,   56.4164162,   8.95305824,           0.
    989,   124.858246,   4.42160559,           0.
    990,   107.070084,   8.74597454,           0.
    991,   76.6883774,   8.79487991,           0.
    992,   96.9427414,   8.75504684,           0.
    993,   91.8810806,   8.76062775,           0.
    994,   81.7557373,   8.78331089,           0.
    995,   71.6220322,   8.80235863,           0.
    996,   66.5598297,   8.81176758,           0.
    997,   61.5051956,   8.85380173,           0.
    998,   112.144958,   8.76986122,           0.
    999,    129.11264,   4.04095602,           0.
   1000,   102.007179,   8.74949932,           0.
   1001,   86.8201065,   8.77051258,           0.
   1002,    45.902668,   17.9515877,           0.
   1003,   46.0507126,   37.9633827,           0.
   1004,   45.8762245,   12.8334856,           0.
   1005,    50.381916,   25.6471272,           0.
   1006,   50.3631821,   30.6072617,           0.
   1007,   45.4275894,   8.51375389,           0.
   1008,    127.98819,   9.00599289,           0.
   1009,   127.946381,   49.5115509,           0.
   1010,    50.693882,   9.67414284,           0.
   1011,   129.239441,   54.5137749,           0.
   1012,    124.77375,   12.6072454,           0.
   1013,    128.52005,   38.9854736,           0.
   1014,    124.66777,    21.888567,           0.
   1015,   124.676239,   26.8177299,           0.
   1016,   124.601692,     16.94631,           0.
   1017,   128.347641,   43.9851074,           0.
   1018,   128.803802,   34.1129074,           0.
   1019,   95.5412216,   45.6733398,           0.
   1020,   100.471565,   45.6745796,           0.
   1021,   105.403786,   45.6771851,           0.
   1022,   110.342537,    45.684761,           0.
   1023,   90.6174316,    45.663784,           0.
   1024,   85.7049255,   45.6363258,           0.
   1025,   115.268608,   45.6809464,           0.
   1026,   120.188995,   45.7394562,           0.
   1027,   80.7801819,   45.5856972,           0.
   1028,   75.7878799,   45.4931335,           0.
   1029,   67.8991394,   49.4197807,           0.
   1030,   117.300415,    8.8944788,           0.
   1031,   94.4170685,   13.1286259,           0.
   1032,   99.4796143,    13.118248,           0.
   1033,   58.9925461,   13.2003632,           0.
   1034,   74.1620789,   13.2032585,           0.
   1035,   64.0347443,   13.2064581,           0.
   1036,   104.541183,   13.1087408,           0.
   1037,   69.0954742,   13.2120142,           0.
   1038,   109.610405,   13.0927916,           0.
   1039,    89.359581,   13.1422634,           0.
   1040,   79.2328568,   13.1839495,           0.
   1041,   84.2995148,   13.1619215,           0.
   1042,   122.470818,   8.86380291,           0.
   1043,    54.511692,   12.9604654,           0.
   1044,    50.568367,   15.2703876,           0.
   1045,   55.0637474,   28.2336178,           0.
   1046,   50.5793228,   20.4829273,           0.
   1047,   124.500954,   46.1161652,           0.
   1048,   120.117805,   13.8293247,           0.
   1049,    123.43898,   41.5630875,           0.
   1050,   55.7772102,     17.69067,           0.
   1051,   124.318909,   36.4215088,           0.
   1052,   120.390373,   19.1971092,           0.
   1053,   120.246735,   24.0603333,           0.
   1054,    83.274765,    41.289547,           0.
   1055,   124.553978,   31.6656265,           0.
   1056,   78.3514328,   41.1574821,           0.
   1057,    88.180748,   41.3373833,           0.
   1058,   93.0896149,   41.3630676,           0.
   1059,   98.0107269,   41.3743248,           0.
   1060,   102.940865,   41.3813477,           0.
   1061,   107.880707,   41.3964119,           0.
   1062,   117.967506,   41.5349922,           0.
   1063,   112.930878,    41.355423,           0.
   1064,   70.7537918,   45.1026497,           0.
   1065,   114.671364,   13.1416426,           0.
   1066,   91.9001236,   17.5024681,           0.
   1067,   86.8465271,   17.5282135,           0.
   1068,    61.397583,   17.4508972,           0.
   1069,    66.495285,   17.5436306,           0.
   1070,   96.9575195,   17.4837208,           0.
   1071,    71.619072,   17.5941811,           0.
   1072,   102.063744,    17.608757,           0.
   1073,    107.31131,    17.724308,           0.
   1074,   81.7846222,   17.5602779,           0.
   1075,   76.7100601,   17.5865765,           0.
   1076,   54.8430672,   33.3065491,           0.
   1077,    55.226326,   23.1930695,           0.
   1078,   120.223129,   33.9145813,           0.
   1079,    80.987854,   36.6086273,           0.
   1080,   115.929459,   21.0202961,           0.
   1081,   85.9045334,   36.6896515,           0.
   1082,   120.195107,   28.9671459,           0.
   1083,   90.7993011,   36.7954483,           0.
   1084,   95.6115265,   37.0150108,           0.
   1085,   100.417702,   36.9816399,           0.
   1086,   105.352959,   36.9108276,           0.
   1087,   110.321121,   37.0287285,           0.
   1088,   115.694702,   36.6308022,           0.
   1089,   73.4951401,   40.7565536,           0.
   1090,   112.462074,     17.42136,           0.
   1091,   89.4025726,   22.1362953,           0.
   1092,   65.7170181,   44.1532135,           0.
   1093,   94.5242538,   22.0155659,           0.
   1094,    63.780735,    21.695034,           0.
   1095,   84.2546616,   22.1670361,           0.
   1096,   99.5103073,   22.0732212,           0.
   1097,    68.977005,   21.8800564,           0.
   1098,   104.997772,    22.855299,           0.
   1099,   79.1696091,   22.1766338,           0.
   1100,   74.1059341,   22.0659943,           0.
   1101,   116.714218,   16.9219456,           0.
   1102,   60.3407593,   25.8624058,           0.
   1103,    59.419735,   31.3278332,           0.
   1104,   83.7671356,   31.7756405,           0.
   1105,   115.765434,   31.1894627,           0.
   1106,   88.7939453,    31.951992,           0.
   1107,   93.5501862,   32.5899239,           0.
   1108,   97.8785019,   32.9340858,           0.
   1109,   102.571274,    31.927557,           0.
   1110,   115.604729,   26.0413418,           0.
   1111,   107.863747,   32.5636139,           0.
   1112,   112.106087,   33.1677895,           0.
   1113,   76.1450958,   36.2486267,           0.
   1114,   110.750938,   22.6973476,           0.
   1115,   92.3081284,   27.3009052,           0.
   1116,   86.6761093,   27.0471878,           0.
   1117,   68.8081512,   40.1531105,           0.
   1118,   97.1472626,   26.1863613,           0.
   1119,   66.0718689,   26.0841694,           0.
   1120,   81.5402679,   26.9375839,           0.
   1121,   101.534447,    26.734293,           0.
   1122,   71.2839737,    26.553566,           0.
   1123,   76.4503174,   26.8005886,           0.
   1124,   59.3045235,   21.1784153,           0.
   1125,   59.1703606,   37.1415977,           0.
   1126,   61.3786392,   42.3208694,           0.
   1127,   105.986412,   27.9832649,           0.
   1128,   110.877594,   28.4336147,           0.
   1129,   78.7782974,   31.6281719,           0.
   1130,    71.274147,   35.9490242,           0.
   1131,   68.0853653,   31.3501987,           0.
   1132,   73.6695328,   31.4216957,           0.
   1133,   63.6049118,    34.069458,           0.
   1134,    63.504528,   29.7388134,           0.
   1135,   120.328644,   38.0129967,           0.
   1136,   64.3129349,   38.9783592,           0.
   1137,   67.2171021,    36.100029,           0.
   1138,   95.9855804,   29.6935635,           0.
   1139,   99.0234146,   29.4951725,           0.
   1140,   108.153175,    25.492382,           0.
   1141,   54.3416977,   37.6838684,           0.
   1142,   50.3978119,   35.4500542,           0.
   1143,   36.5982895,   7.02944708,           0.
   1144,   31.3715935,   40.1192398,           0.
   1145,   21.2649384,   48.5616074,           0.
   1146,   21.2458344,   54.5444107,           0.
   1147,   36.6025352,   12.6481123,           0.
   1148,   36.7371559,   17.9998894,           0.
   1149,    36.764534,   23.1707745,           0.
   1150,   36.7151337,   28.1815796,           0.
   1151,     36.54776,    33.063858,           0.
   1152,   36.3347664,   37.9192352,           0.
   1153,   26.5397263,   43.5395012,           0.
   1154,   6.55224371,   54.0686646,           0.
   1155,   11.9219885,    53.925251,           0.
   1156,   17.1407776,   53.9018631,           0.
   1157,   4.52333117,   6.67709446,           0.
   1158,   4.46142197,   11.9643955,           0.
   1159,   4.29598856,   17.0268402,           0.
   1160,   4.25879812,   21.9372978,           0.
   1161,    4.2555933,   26.8200855,           0.
   1162,   4.25992107,   31.6980877,           0.
   1163,    4.2617898,    36.575737,           0.
   1164,    4.3032589,   41.4742355,           0.
   1165,   4.32671404,   46.2826996,           0.
   1166,   28.3501987,   4.60040951,           0.
   1167,   23.2149143,   4.52033281,           0.
   1168,   17.9534264,   4.47941685,           0.
   1169,   12.7591457,   4.43975639,           0.
   1170,   14.7558517,    49.215538,           0.
   1171,   8.58207226,   39.0149689,           0.
   1172,   8.53355789,    24.370306,           0.
   1173,   8.57434845,   19.4426975,           0.
   1174,   8.54301548,   29.2539272,           0.
   1175,   8.55994129,   34.1345024,           0.
   1176,   8.74145794,   14.4894915,           0.
   1177,   8.59079075,   43.8011169,           0.
   1178,   32.0304222,   25.6694374,           0.
   1179,    32.002018,   15.2680044,           0.
   1180,   31.9654713,   20.5150661,           0.
   1181,   8.43492508,   4.03438568,           0.
   1182,   25.8359413,   9.01522827,           0.
   1183,   32.6933517,   4.24117756,           0.
   1184,    20.510067,   9.01692009,           0.
   1185,   15.1587696,   8.90848923,           0.
   1186,   8.94885731,   49.0360909,           0.
   1187,    9.5446949,   9.02087116,           0.
   1188,   31.4365692,   9.41123772,           0.
   1189,   3.96556306,    50.359993,           0.
   1190,   12.9965925,   16.9019661,           0.
   1191,   12.8689814,   36.5607491,           0.
   1192,   12.8685293,   31.6837616,           0.
   1193,   12.9212999,   26.7481976,           0.
   1194,   13.0185947,   21.7749271,           0.
   1195,   12.7369642,   41.3641167,           0.
   1196,   26.5907116,   17.7152557,           0.
   1197,   26.9590225,   23.3172817,           0.
   1198,   17.6754112,   13.8688345,           0.
   1199,   23.3416862,   13.2968254,           0.
   1200,   31.8150749,   30.5867958,           0.
   1201,   27.8413849,   12.9413099,           0.
   1202,   12.3493071,   45.5275383,           0.
   1203,   16.6519756,   44.2237396,           0.
   1204,   17.4542561,   19.1782799,           0.
   1205,   17.3285084,   33.9752274,           0.
   1206,   17.4654102,   28.9935169,           0.
   1207,   17.5078773,   24.0546627,           0.
   1208,   17.1977501,   38.9708176,           0.
   1209,   12.8233852,   12.6379309,           0.
   1210,   22.0254078,   21.2686005,           0.
   1211,   26.9673367,   28.3786621,           0.
   1212,   31.6044483,   35.4973297,           0.
   1213,   26.6667252,   38.3436394,           0.
   1214,   21.7120361,   41.6207848,           0.
   1215,   22.1288509,   31.1491985,           0.
   1216,   22.1756516,    26.193655,           0.
   1217,   21.9863968,   36.2107277,           0.
   1218,   21.4174938,   17.0655594,           0.
   1219,   26.8614712,   33.3610573,           0.
*Element, type=S3
   1, 442, 383, 332
   2, 337,  13,  14
   3, 244,  70, 243
   4, 203, 202,  38
   5, 203,   3,  39
   6, 242,  72, 241
   7, 334, 260, 259
   8, 306, 261, 260
   9, 320,  18, 205
  10, 307, 263, 262
  11, 263,  87, 262
  12, 206, 205,  19
  13, 207, 206,  20
  14, 208, 207,  21
  15, 209, 208,  22
  16, 210, 209,  23
  17, 211,  25, 204
  18, 212,  27, 201
  19, 214,  29,  30
  20, 321, 215, 216
  21, 341, 338, 276
  22, 229,  45,  46
  23, 216, 215,  31
  24, 324, 216, 218
  25, 217,  35,  36
  26, 220, 219,  34
  27, 456, 220, 217
  28, 220,   2,  35
  29, 221,  37, 202
  30,  53,   4,  54
  31, 222,  53,  54
  32, 258,  56, 257
  33, 223,  51,  52
  34, 224,  50,  51
  35, 225,  49,  50
  36, 226,  48,  49
  37, 227,  47,  48
  38, 228,  46,  47
  39, 286, 251, 250
  40, 340, 279, 270
  41, 231,  43,  44
  42, 233,  42, 232
  43, 234,  41, 233
  44, 234,  40,  41
  45,  80,  79,   5
  46, 269,  79,  80
  47, 308, 266, 265
  48, 237,  77, 236
  49, 238,  76, 237
  50, 239,  75, 238
  51, 240,  74, 239
  52, 241,  73, 240
  53, 387, 385, 316
  54, 243,  71, 242
  55, 303, 298, 247
  56, 245,  69, 244
  57, 246,  68, 245
  58, 247,  67, 246
  59, 248,  66, 247
  60, 249,  65, 248
  61, 250,  64, 249
  62, 251,  63, 250
  63, 287, 251, 286
  64, 408, 340, 339
  65, 288, 252, 287
  66, 289, 253, 288
  67, 255,  59, 254
  68, 290, 254, 289
  69, 472, 413, 471
  70, 336,  54,  55
  71,  97,   1,  13
  72, 259,  97,  13
  73, 260,  96, 259
  74, 260,  95,  96
  75, 261,  94,  95
  76, 379, 261, 306
  77, 458, 378, 440
  78, 372, 370,  92
  79, 370,  91,  92
  80, 305, 262,  88
  81, 310,  89,  90
  82, 305,  88,  89
  83, 263,  86,  87
  84, 265,  85, 264
  85, 266,  84, 265
  86, 267,  83, 266
  87, 268,  82, 267
  88, 335, 295, 269
  89, 201,  27,  28
  90, 213,  28,  29
  91, 214, 213,  29
  92, 202,  37,  38
  93, 203,  38,   3
  94, 235,  39,  40
  95, 204,  25,  26
  96, 212, 204,  26
  97, 205,  18,  19
  98, 206,  19,  20
  99, 207,  20,  21
 100, 282, 238, 237
 101, 208,  21,  22
 102, 304, 238, 282
 103, 209,  22,  23
 104, 283, 240, 239
 105, 210,  23,  24
 106, 293, 240, 283
 107, 211,  24,  25
 108, 211, 210,  24
 109, 294, 285, 245
 110, 329, 323, 204
 111, 212,  26,  27
 112, 303, 246, 285
 113, 213, 201,  28
 114, 215,  30,  31
 115, 215, 214,  30
 116, 231,  44, 230
 117, 216,  31,  32
 118, 280, 274, 233
 119, 218,  32,  33
 120, 321, 318, 215
 121, 221,  36,  37
 122, 221, 217,  36
 123, 218, 216,  32
 124, 219, 218,  33
 125, 219,  33,  34
 126, 398, 324, 218
 127, 220,  34,   2
 128, 220,  35, 217
 129, 279, 272, 230
 130, 399, 274, 345
 131, 223,  52, 222
 132, 222,  52,  53
 133, 257,  57, 256
 134, 224,  51, 223
 135, 256,  58, 255
 136, 225,  50, 224
 137, 254,  60, 253
 138, 226,  49, 225
 139, 253,  61, 252
 140, 227,  48, 226
 141, 252,  62, 251
 142, 228,  47, 227
 143, 339, 270, 278
 144, 229,  46, 228
 145, 278, 228, 227
 146, 230,  45, 229
 147, 347, 272, 344
 148, 230,  44,  45
 149, 273, 231, 272
 150, 232,  43, 231
 151, 273, 232, 231
 152, 232,  42,  43
 153, 280, 233, 232
 154, 233,  41,  42
 155, 275, 234, 274
 156, 235,  40, 234
 157, 235, 202, 203
 158, 235, 203,  39
 159, 236,  77,  78
 160, 295,  79, 269
 161, 325, 206, 317
 162, 237,  76,  77
 163, 304, 283, 239
 164, 238,  75,  76
 165, 326, 317, 207
 166, 239,  74,  75
 167, 353, 296, 349
 168, 240,  73,  74
 169, 482, 421, 416
 170, 241,  72,  73
 171, 284, 243, 242
 172, 242,  71,  72
 173, 297, 243, 284
 174, 243,  70,  71
 175, 328, 210, 316
 176, 244,  69,  70
 177, 285, 246, 245
 178, 245,  68,  69
 179, 424, 354, 422
 180, 246,  67,  68
 181, 298, 248, 247
 182, 247,  66,  67
 183, 299, 248, 298
 184, 248,  65,  66
 185, 355, 298, 354
 186, 249,  64,  65
 187, 330, 213, 319
 188, 250,  63,  64
 189, 445, 395, 396
 190, 251,  62,  63
 191, 277, 226, 225
 192, 252,  61,  62
 193, 277, 276, 226
 194, 253,  60,  61
 195, 292, 256, 291
 196, 254,  59,  60
 197, 333, 271, 223
 198, 255,  58,  59
 199, 336, 333, 222
 200, 256,  57,  58
 201, 301, 258, 257
 202, 257,  56,  57
 203, 336, 258, 333
 204, 258,  55,  56
 205, 259,  96,  97
 206, 331,  14,  15
 207, 332,  16,  17
 208, 261,  95, 260
 209, 332,  17, 320
 210, 311,  94, 261
 211, 262,  87,  88
 212, 369, 305, 310
 213, 312, 263, 307
 214, 264,  86, 263
 215, 375, 374, 308
 216, 264,  85,  86
 217, 302, 282, 237
 218, 265,  84,  85
 219, 381, 373, 352
 220, 266,  83,  84
 221, 314, 266, 308
 222, 267,  82,  83
 223, 335, 302, 236
 224, 268,  81,  82
 225, 269,  80,  81
 226, 269,  81, 268
 227, 279, 229, 270
 228, 270, 229, 228
 229, 281, 224, 271
 230, 271, 224, 223
 231, 613, 221, 202
 232, 272, 231, 230
 233, 345, 274, 280
 234, 280, 232, 273
 235, 275, 235, 234
 236, 274, 234, 233
 237, 561, 399, 469
 238, 275, 202, 235
 239, 276, 227, 226
 240, 368, 287, 362
 241, 281, 277, 225
 242, 291, 255, 290
 243, 278, 270, 228
 244, 278, 227, 276
 245, 279, 230, 229
 246, 407, 341, 342
 247, 463, 402, 408
 248, 396, 395, 321
 249, 281, 225, 224
 250, 363, 290, 289
 251, 302, 237, 236
 252, 377, 376, 312
 253, 304, 239, 238
 254, 327, 326, 208
 255, 296, 242, 241
 256, 386, 328, 385
 257, 294, 245, 244
 258, 329, 212, 322
 259, 300, 250, 249
 260, 319, 214, 318
 261, 413, 365, 412
 262, 287, 252, 251
 263, 341, 276, 277
 264, 288, 253, 252
 265, 342, 341, 277
 266, 289, 254, 253
 267, 343, 342, 281
 268, 290, 255, 254
 269, 517, 515, 463
 270, 291, 256, 255
 271, 366, 291, 364
 272, 292, 257, 256
 273, 293, 241, 240
 274, 350, 349, 293
 275, 297, 294, 244
 276, 351, 348, 294
 277, 295, 236,  78
 278, 295,  78,  79
 279, 296, 284, 242
 280, 296, 241, 293
 281, 297, 244, 243
 282, 452, 389, 451
 283, 303, 247, 246
 284, 394, 319, 393
 285, 357, 299, 355
 286, 299, 249, 248
 287, 300, 286, 250
 288, 300, 249, 299
 289, 400, 333, 301
 290, 301, 257, 292
 291, 335, 236, 295
 292, 315, 268, 267
 293, 422, 358, 419
 294, 358, 285, 348
 295, 381, 352, 302
 296, 426, 352, 373
 297, 623, 592, 578
 298, 489, 486, 431
 299, 442, 332, 397
 300, 492, 468, 436
 301, 359, 304, 282
 302, 380, 262, 305
 303, 313, 265, 264
 304, 376, 375, 313
 305, 309,  90,  91
 306, 371, 369, 310
 307, 310, 305,  89
 308, 310,  90, 309
 309, 372,  93, 311
 310, 311,  93,  94
 311, 312, 264, 263
 312, 418, 350, 360
 313, 313, 308, 265
 314, 313, 264, 312
 315, 373, 315, 314
 316, 314, 267, 266
 317, 381, 335, 315
 318, 315, 267, 314
 319, 316, 210, 211
 320, 323, 211, 204
 321, 317, 206, 207
 322, 326, 207, 208
 323, 318, 214, 215
 324, 430, 361, 414
 325, 361, 300, 357
 326, 319, 213, 214
 327, 320,  17,  18
 328, 382, 205, 325
 329, 324, 321, 216
 330, 401, 399, 345
 331, 322, 212, 201
 332, 330, 322, 201
 333, 323, 316, 211
 334, 329, 204, 212
 335, 398, 218, 219
 336, 610, 398, 456
 337, 614, 574, 521
 338, 325, 205, 206
 339, 327, 208, 209
 340, 420, 356, 415
 341, 328, 327, 209
 342, 386, 327, 328
 343, 328, 209, 210
 344, 532, 530, 477
 345, 449, 390, 444
 346, 633, 579, 624
 347, 330, 201, 213
 348, 446, 444, 392
 349, 337, 331, 334
 350, 383,  15,  16
 351, 397, 320, 382
 352, 440, 334, 331
 353, 333, 223, 222
 354, 333, 258, 301
 355, 334, 306, 260
 356, 337, 334, 259
 357, 335, 269, 268
 358, 335, 268, 315
 359, 336, 222,  54
 360, 336,  55, 258
 361, 337, 259,  13
 362, 337,  14, 331
 363, 339, 278, 338
 364, 338, 278, 276
 365, 362, 286, 361
 366, 340, 270, 339
 367, 466, 465, 404
 368, 344, 279, 340
 369, 342, 277, 281
 370, 364, 290, 363
 371, 343, 281, 271
 372, 427, 363, 413
 373, 400, 343, 271
 374, 367, 301, 292
 375, 395, 393, 318
 376, 344, 272, 279
 377, 346, 280, 273
 378, 346, 345, 280
 379, 347, 346, 273
 380, 642, 604, 637
 381, 347, 273, 272
 382, 473, 471, 412
 383, 348, 285, 294
 384, 351, 294, 297
 385, 349, 296, 293
 386, 350, 293, 283
 387, 360, 283, 304
 388, 418, 416, 350
 389, 356, 297, 284
 390, 450, 385, 447
 391, 359, 282, 352
 392, 352, 282, 302
 393, 421, 349, 416
 394, 353, 284, 296
 395, 354, 298, 303
 396, 358, 354, 303
 397, 502, 501, 447
 398, 355, 299, 298
 399, 356, 351, 297
 400, 356, 284, 353
 401, 392, 390, 322
 402, 357, 300, 299
 403, 358, 303, 285
 404, 419, 348, 417
 405, 426, 423, 359
 406, 423, 418, 360
 407, 360, 350, 283
 408, 360, 304, 359
 409, 430, 429, 362
 410, 361, 286, 300
 411, 412, 365, 368
 412, 362, 287, 286
 413, 365, 289, 288
 414, 365, 363, 289
 415, 406, 343, 367
 416, 364, 291, 290
 417, 368, 365, 288
 418, 464, 463, 408
 419, 512, 367, 366
 420, 366, 292, 291
 421, 400, 367, 343
 422, 367, 292, 366
 423, 368, 288, 287
 424, 463, 461, 402
 425, 431, 380, 369
 426, 371, 310, 309
 427, 436, 411, 372
 428, 370, 309,  91
 429, 438, 309, 370
 430, 388, 317, 384
 431, 372,  92,  93
 432, 439, 306, 378
 433, 374, 314, 308
 434, 374, 373, 314
 435, 375, 308, 313
 436, 376, 313, 312
 437, 377, 312, 307
 438, 433, 375, 376
 439, 437, 307, 380
 440, 511, 483, 423
 441, 432, 431, 369
 442, 534, 533, 479
 443, 378, 306, 334
 444, 455, 382, 443
 445, 436, 311, 379
 446, 379, 311, 261
 447, 380, 307, 262
 448, 380, 305, 369
 449, 381, 302, 335
 450, 381, 315, 373
 451, 382, 320, 205
 452, 443, 325, 388
 453, 383, 331,  15
 454, 383,  16, 332
 455, 384, 317, 326
 456, 389, 326, 327
 457, 385, 328, 316
 458, 387, 316, 323
 459, 451, 386, 450
 460, 389, 327, 386
 461, 391, 323, 329
 462, 477, 475, 422
 463, 509, 443, 498
 464, 388, 325, 317
 465, 504, 450, 501
 466, 389, 384, 326
 467, 390, 329, 322
 468, 392, 322, 330
 469, 391, 387, 323
 470, 391, 329, 390
 471, 394, 330, 319
 472, 591, 528, 579
 473, 393, 319, 318
 474, 395, 318, 321
 475, 454, 393, 441
 476, 394, 392, 330
 477, 396, 321, 324
 478, 445, 441, 395
 479, 457, 324, 398
 480, 722, 702, 676
 481, 442, 440, 383
 482, 397, 332, 320
 483, 456, 219, 220
 484, 456, 398, 219
 485, 721, 564, 613
 486, 399, 275, 274
 487, 400, 271, 333
 488, 400, 301, 367
 489, 409, 345, 346
 490, 410, 347, 403
 491, 403, 344, 402
 492, 402, 344, 340
 493, 547, 445, 508
 494, 403, 347, 344
 495, 405, 338, 404
 496, 404, 338, 341
 497, 465, 464, 405
 498, 405, 339, 338
 499, 406, 342, 343
 500, 428, 364, 427
 501, 407, 404, 341
 502, 407, 342, 406
 503, 408, 402, 340
 504, 408, 339, 405
 505, 409, 401, 345
 506, 410, 409, 346
 507, 410, 346, 347
 508, 675, 642, 657
 509, 470, 411, 468
 510, 411, 370, 372
 511, 429, 368, 362
 512, 430, 362, 361
 513, 519, 518, 465
 514, 413, 363, 365
 515, 414, 361, 357
 516, 425, 357, 355
 517, 415, 356, 353
 518, 421, 353, 349
 519, 416, 349, 350
 520, 562, 526, 483
 521, 417, 348, 351
 522, 420, 417, 351
 523, 423, 360, 359
 524, 565, 511, 426
 525, 478, 477, 419
 526, 419, 358, 348
 527, 420, 351, 356
 528, 507, 452, 503
 529, 435, 433, 376
 530, 421, 415, 353
 531, 448, 447, 387
 532, 422, 354, 358
 533, 426, 359, 352
 534, 487, 434, 433
 535, 529, 528, 476
 536, 424, 355, 354
 537, 425, 414, 357
 538, 425, 355, 424
 539, 565, 373, 374
 540, 434, 375, 433
 541, 512, 510, 406
 542, 427, 364, 363
 543, 512, 428, 510
 544, 428, 366, 364
 545, 491, 430, 490
 546, 429, 412, 368
 547, 541, 474, 528
 548, 490, 414, 474
 549, 486, 437, 431
 550, 432, 369, 371
 551, 494, 371, 438
 552, 453, 384, 452
 553, 435, 376, 377
 554, 493, 377, 437
 555, 565, 434, 511
 556, 434, 374, 375
 557, 531, 493, 486
 558, 482, 480, 421
 559, 436, 372, 311
 560, 492, 379, 439
 561, 437, 377, 307
 562, 437, 380, 431
 563, 438, 371, 309
 564, 438, 370, 411
 565, 439, 379, 306
 566, 523, 468, 520
 567, 440, 378, 334
 568, 440, 331, 383
 569, 441, 393, 395
 570, 513, 460, 467
 571, 497, 397, 455
 572, 458, 440, 442
 573, 443, 382, 325
 574, 498, 388, 453
 575, 444, 390, 392
 576, 446, 392, 394
 577, 508, 396, 457
 578, 460, 401, 409
 579, 454, 446, 394
 580, 601, 548, 597
 581, 447, 385, 387
 582, 448, 387, 391
 583, 449, 448, 391
 584, 505, 449, 500
 585, 449, 391, 390
 586, 500, 444, 499
 587, 479, 478, 417
 588, 450, 386, 385
 589, 481, 415, 480
 590, 451, 389, 386
 591, 651, 608, 650
 592, 452, 384, 389
 593, 523, 470, 468
 594, 453, 388, 384
 595, 454, 394, 393
 596, 496, 441, 495
 597, 497, 458, 442
 598, 455, 397, 382
 599, 459, 217, 221
 600, 459, 456, 217
 601, 612, 610, 459
 602, 457, 396, 324
 603, 594, 378, 458
 604, 497, 442, 397
 605, 613, 564, 221
 606, 612, 459, 564
 607, 467, 409, 410
 608, 462, 403, 461
 609, 461, 403, 402
 610, 515, 514, 461
 611, 713, 637, 604
 612, 462, 410, 403
 613, 464, 408, 405
 614, 518, 517, 464
 615, 465, 405, 404
 616, 471, 413, 412
 617, 466, 404, 407
 618, 576, 570, 524
 619, 510, 466, 407
 620, 485, 428, 427
 621, 467, 460, 409
 622, 467, 410, 462
 623, 590, 523, 520
 624, 468, 411, 436
 625, 469, 399, 401
 626, 545, 401, 460
 627, 522, 494, 470
 628, 470, 438, 411
 629, 473, 412, 429
 630, 566, 513, 516
 631, 524, 472, 471
 632, 472, 427, 413
 633, 491, 429, 430
 634, 540, 525, 473
 635, 474, 414, 425
 636, 476, 425, 424
 637, 475, 424, 422
 638, 477, 422, 419
 639, 476, 474, 425
 640, 476, 424, 475
 641, 478, 419, 417
 642, 530, 529, 475
 643, 479, 417, 420
 644, 533, 532, 478
 645, 481, 420, 415
 646, 504, 503, 451
 647, 480, 415, 421
 648, 536, 482, 484
 649, 537, 480, 482
 650, 481, 479, 420
 651, 484, 416, 418
 652, 538, 487, 488
 653, 483, 418, 423
 654, 562, 511, 487
 655, 484, 482, 416
 656, 484, 418, 483
 657, 563, 510, 485
 658, 485, 427, 472
 659, 489, 431, 432
 660, 539, 531, 486
 661, 488, 433, 435
 662, 488, 487, 433
 663, 578, 542, 531
 664, 542, 435, 493
 665, 544, 432, 494
 666, 558, 503, 557
 667, 506, 454, 496
 668, 490, 430, 414
 669, 615, 566, 568
 670, 491, 473, 429
 671, 492, 436, 379
 672, 594, 439, 378
 673, 493, 435, 377
 674, 493, 437, 486
 675, 494, 432, 371
 676, 494, 438, 470
 677, 495, 441, 445
 678, 569, 515, 517
 679, 543, 490, 541
 680, 496, 454, 441
 681, 549, 455, 509
 682, 594, 521, 439
 683, 498, 443, 388
 684, 550, 453, 507
 685, 499, 444, 446
 686, 506, 499, 446
 687, 648, 605, 647
 688, 500, 449, 444
 689, 501, 450, 447
 690, 502, 447, 448
 691, 505, 502, 448
 692, 556, 505, 552
 693, 503, 452, 451
 694, 504, 451, 450
 695, 583, 582, 532
 696, 557, 504, 554
 697, 505, 448, 449
 698, 552, 500, 551
 699, 506, 446, 454
 700, 548, 496, 546
 701, 611, 550, 600
 702, 507, 453, 452
 703, 508, 445, 396
 704, 560, 508, 457
 705, 523, 522, 470
 706, 509, 455, 443
 707, 510, 407, 406
 708, 510, 428, 485
 709, 511, 423, 426
 710, 511, 434, 487
 711, 512, 406, 367
 712, 512, 366, 428
 713, 516, 467, 462
 714, 514, 462, 461
 715, 515, 461, 463
 716, 569, 567, 515
 717, 517, 463, 464
 718, 618, 617, 569
 719, 516, 513, 467
 720, 516, 462, 514
 721, 518, 464, 465
 722, 570, 519, 527
 723, 519, 465, 466
 724, 570, 527, 524
 725, 563, 519, 466
 726, 527, 485, 472
 727, 520, 468, 492
 728, 521, 520, 492
 729, 521, 492, 439
 730, 614, 594, 497
 731, 559, 498, 550
 732, 575, 544, 522
 733, 577, 575, 522
 734, 622, 621, 575
 735, 525, 471, 473
 736, 525, 524, 471
 737, 540, 473, 491
 738, 617, 616, 567
 739, 536, 484, 526
 740, 526, 484, 483
 741, 563, 527, 519
 742, 527, 472, 524
 743, 528, 474, 476
 744, 529, 476, 475
 745, 530, 475, 477
 746, 700, 699, 674
 747, 532, 477, 478
 748, 555, 554, 501
 749, 535, 534, 481
 750, 539, 486, 489
 751, 533, 478, 479
 752, 582, 580, 530
 753, 534, 479, 481
 754, 584, 583, 533
 755, 535, 481, 480
 756, 608, 554, 607
 757, 537, 482, 536
 758, 587, 537, 586
 759, 581, 526, 538
 760, 628, 623, 578
 761, 589, 578, 531
 762, 537, 535, 480
 763, 562, 538, 526
 764, 592, 488, 542
 765, 595, 489, 544
 766, 609, 557, 608
 767, 543, 491, 490
 768, 596, 543, 541
 769, 553, 506, 548
 770, 541, 490, 474
 771, 542, 488, 435
 772, 542, 493, 531
 773, 655, 654, 616
 774, 543, 540, 491
 775, 544, 489, 432
 776, 544, 494, 522
 777, 545, 469, 401
 778, 572, 460, 513
 779, 546, 496, 495
 780, 598, 495, 547
 781, 547, 495, 445
 782, 604, 508, 560
 783, 596, 541, 591
 784, 548, 506, 496
 785, 549, 497, 455
 786, 599, 509, 559
 787, 550, 498, 453
 788, 600, 507, 558
 789, 551, 500, 499
 790, 553, 551, 499
 791, 580, 579, 529
 792, 552, 505, 500
 793, 553, 499, 506
 794, 596, 593, 543
 795, 554, 504, 501
 796, 555, 501, 502
 797, 556, 555, 502
 798, 606, 556, 605
 799, 556, 502, 505
 800, 605, 552, 602
 801, 585, 584, 534
 802, 557, 503, 504
 803, 652, 600, 644
 804, 558, 507, 503
 805, 590, 520, 574
 806, 559, 509, 498
 807, 610, 560, 457
 808, 713, 612, 573
 809, 561, 202, 275
 810, 561, 275, 399
 811, 562, 483, 511
 812, 562, 487, 538
 813, 563, 466, 510
 814, 563, 485, 527
 815, 721, 573, 564
 816, 564, 459, 221
 817, 565, 426, 373
 818, 565, 374, 434
 819, 568, 516, 514
 820, 654, 615, 616
 821, 567, 514, 515
 822, 653, 629, 618
 823, 568, 566, 516
 824, 568, 514, 567
 825, 571, 517, 518
 826, 653, 570, 576
 827, 570, 518, 519
 828, 576, 524, 525
 829, 571, 569, 517
 830, 571, 518, 570
 831, 572, 545, 460
 832, 619, 513, 566
 833, 573, 469, 545
 834, 637, 545, 572
 835, 574, 520, 521
 836, 599, 574, 549
 837, 621, 595, 575
 838, 577, 522, 523
 839, 588, 525, 540
 840, 588, 576, 525
 841, 590, 577, 523
 842, 669, 622, 636
 843, 586, 536, 581
 844, 589, 531, 539
 845, 579, 528, 529
 846, 580, 529, 530
 847, 582, 530, 532
 848, 647, 602, 646
 849, 581, 536, 526
 850, 592, 581, 538
 851, 583, 532, 533
 852, 607, 555, 606
 853, 584, 533, 534
 854, 649, 606, 648
 855, 585, 534, 535
 856, 650, 607, 649
 857, 587, 535, 537
 858, 686, 670, 623
 859, 586, 537, 536
 860, 623, 581, 592
 861, 670, 631, 586
 862, 587, 585, 535
 863, 593, 540, 543
 864, 701, 675, 658
 865, 635, 539, 595
 866, 711, 678, 703
 867, 620, 574, 599
 868, 636, 622, 577
 869, 603, 553, 601
 870, 591, 541, 528
 871, 592, 538, 488
 872, 592, 542, 578
 873, 638, 596, 591
 874, 593, 588, 540
 875, 594, 458, 497
 876, 614, 497, 549
 877, 595, 539, 489
 878, 595, 544, 575
 879, 645, 601, 640
 880, 672, 668, 634
 881, 597, 548, 546
 882, 641, 546, 598
 883, 598, 546, 495
 884, 657, 637, 572
 885, 599, 549, 509
 886, 643, 559, 611
 887, 600, 550, 507
 888, 644, 558, 609
 889, 638, 591, 633
 890, 601, 553, 548
 891, 602, 552, 551
 892, 603, 602, 551
 893, 603, 551, 553
 894, 639, 596, 638
 895, 604, 547, 508
 896, 713, 560, 612
 897, 625, 624, 580
 898, 605, 556, 552
 899, 626, 625, 582
 900, 606, 555, 556
 901, 627, 626, 583
 902, 607, 554, 555
 903, 630, 627, 584
 904, 608, 557, 554
 905, 632, 587, 631
 906, 609, 558, 557
 907, 610, 457, 398
 908, 610, 456, 459
 909, 636, 590, 620
 910, 611, 559, 550
 911, 612, 560, 610
 912, 612, 564, 573
 913, 613, 202, 561
 914, 721, 613, 561
 915, 614, 521, 594
 916, 614, 549, 574
 917, 616, 568, 567
 918, 616, 615, 568
 919, 617, 567, 569
 920, 668, 656, 629
 921, 618, 569, 571
 922, 656, 655, 617
 923, 653, 618, 571
 924, 629, 576, 588
 925, 619, 572, 513
 926, 658, 566, 615
 927, 620, 590, 574
 928, 643, 599, 559
 929, 685, 644, 678
 930, 622, 575, 577
 931, 636, 577, 590
 932, 718, 686, 712
 933, 670, 581, 623
 934, 628, 578, 589
 935, 624, 579, 580
 936, 625, 580, 582
 937, 626, 582, 583
 938, 729, 707, 706
 939, 627, 583, 584
 940, 682, 648, 681
 941, 630, 584, 585
 942, 683, 649, 682
 943, 671, 589, 635
 944, 666, 665, 632
 945, 634, 588, 593
 946, 634, 629, 588
 947, 632, 585, 587
 948, 724, 710, 709
 949, 631, 587, 586
 950, 705, 689, 659
 951, 723, 717, 694
 952, 632, 630, 585
 953, 646, 603, 645
 954, 633, 591, 579
 955, 639, 593, 596
 956, 701, 688, 676
 957, 635, 589, 539
 958, 635, 595, 621
 959, 643, 636, 620
 960, 669, 636, 643
 961, 637, 573, 545
 962, 657, 642, 637
 963, 730, 699, 700
 964, 699, 697, 672
 965, 674, 638, 673
 966, 639, 634, 593
 967, 640, 601, 597
 968, 676, 597, 641
 969, 641, 597, 546
 970, 675, 598, 642
 971, 642, 598, 547
 972, 642, 547, 604
 973, 643, 620, 599
 974, 720, 669, 643
 975, 644, 600, 558
 976, 678, 609, 651
 977, 673, 633, 667
 978, 645, 603, 601
 979, 667, 624, 661
 980, 646, 602, 603
 981, 681, 647, 680
 982, 647, 605, 602
 983, 662, 661, 625
 984, 648, 606, 605
 985, 663, 662, 626
 986, 649, 607, 606
 987, 664, 663, 627
 988, 650, 608, 607
 989, 665, 664, 630
 990, 651, 609, 608
 991, 669, 659, 622
 992, 652, 611, 600
 993, 653, 571, 570
 994, 653, 576, 629
 995, 655, 616, 617
 996, 702, 677, 640
 997, 656, 617, 618
 998, 697, 687, 655
 999, 656, 618, 629
1000, 668, 629, 634
1001, 657, 572, 619
1002, 675, 657, 619
1003, 658, 619, 566
1004, 688, 615, 654
1005, 660, 621, 659
1006, 659, 621, 622
1007, 725, 723, 703
1008, 660, 635, 621
1009, 661, 624, 625
1010, 662, 625, 626
1011, 663, 626, 627
1012, 728, 708, 707
1013, 664, 627, 630
1014, 727, 709, 708
1015, 665, 630, 632
1016, 684, 650, 683
1017, 666, 632, 631
1018, 717, 716, 695
1019, 686, 631, 670
1020, 715, 685, 711
1021, 680, 646, 679
1022, 667, 633, 624
1023, 672, 634, 639
1024, 697, 656, 668
1025, 720, 643, 611
1026, 720, 705, 669
1027, 670, 586, 581
1028, 686, 623, 628
1029, 671, 628, 589
1030, 671, 635, 660
1031, 674, 639, 638
1032, 687, 654, 655
1033, 679, 645, 677
1034, 673, 638, 633
1035, 700, 673, 698
1036, 674, 672, 639
1037, 675, 619, 658
1038, 675, 641, 598
1039, 676, 640, 597
1040, 701, 676, 641
1041, 677, 645, 640
1042, 722, 719, 702
1043, 678, 644, 609
1044, 703, 651, 684
1045, 698, 667, 696
1046, 679, 646, 645
1047, 696, 661, 690
1048, 680, 647, 646
1049, 727, 691, 724
1050, 681, 648, 647
1051, 691, 690, 662
1052, 682, 649, 648
1053, 693, 691, 663
1054, 683, 650, 649
1055, 695, 665, 694
1056, 684, 651, 650
1057, 705, 685, 689
1058, 685, 652, 644
1059, 712, 628, 671
1060, 686, 666, 631
1061, 697, 655, 656
1062, 726, 719, 687
1063, 688, 658, 615
1064, 722, 687, 719
1065, 692, 660, 689
1066, 689, 660, 659
1067, 690, 661, 662
1068, 691, 662, 663
1069, 693, 663, 664
1070, 724, 693, 716
1071, 714, 712, 692
1072, 692, 671, 660
1073, 695, 664, 665
1074, 716, 693, 695
1075, 694, 665, 666
1076, 718, 714, 694
1077, 724, 716, 710
1078, 695, 693, 664
1079, 728, 690, 727
1080, 696, 667, 661
1081, 697, 668, 672
1082, 699, 672, 674
1083, 729, 696, 728
1084, 698, 673, 667
1085, 700, 674, 673
1086, 726, 704, 719
1087, 730, 706, 704
1088, 730, 698, 729
1089, 701, 641, 675
1090, 701, 658, 688
1091, 702, 640, 676
1092, 722, 676, 688
1093, 703, 678, 651
1094, 725, 684, 710
1095, 704, 679, 677
1096, 719, 704, 677
1097, 705, 659, 669
1098, 705, 652, 685
1099, 706, 680, 679
1100, 706, 679, 704
1101, 707, 681, 680
1102, 707, 680, 706
1103, 708, 682, 681
1104, 708, 681, 707
1105, 709, 683, 682
1106, 709, 682, 708
1107, 710, 684, 683
1108, 710, 683, 709
1109, 715, 689, 685
1110, 711, 685, 678
1111, 712, 686, 628
1112, 712, 671, 692
1113, 713, 573, 637
1114, 713, 604, 560
1115, 718, 694, 666
1116, 715, 714, 692
1117, 715, 692, 689
1118, 723, 711, 703
1119, 717, 695, 694
1120, 725, 710, 716
1121, 723, 694, 714
1122, 725, 717, 723
1123, 718, 666, 686
1124, 718, 712, 714
1125, 719, 677, 702
1126, 726, 687, 697
1127, 720, 611, 652
1128, 720, 652, 705
1129, 721, 561, 469
1130, 721, 469, 573
1131, 722, 688, 654
1132, 722, 654, 687
1133, 723, 714, 715
1134, 723, 715, 711
1135, 727, 724, 709
1136, 724, 691, 693
1137, 725, 703, 684
1138, 725, 716, 717
1139, 726, 697, 699
1140, 730, 726, 699
1141, 728, 727, 708
1142, 727, 690, 691
1143, 729, 728, 707
1144, 728, 696, 690
1145, 730, 729, 706
1146, 729, 698, 696
1147, 730, 704, 726
1148, 730, 700, 698
1149, 815,   2,  34
1150, 778,  27, 777
1151, 899, 881, 858
1152, 786, 734, 130
1153, 787, 733, 783
1154, 926, 815, 769
1155,  13,   1,  98
1156, 762,  98,  99
1157, 812, 761, 760
1158, 884, 852, 883
1159, 811, 102, 103
1160, 814, 812, 760
1161, 907, 906, 883
1162, 822, 772, 821
1163, 918, 907, 898
1164, 776,  22, 775
1165, 806, 748, 789
1166, 863, 862, 830
1167, 782, 766,  25
1168, 835, 782, 818
1169, 889, 848, 888
1170, 795, 794, 743
1171, 779, 768,  30
1172, 820, 779, 819
1173, 855, 851, 799
1174, 824, 781, 823
1175, 781,  33,  32
1176, 769,  34,  33
1177, 105, 104,   6
1178, 758, 105, 106
1179, 807, 756, 791
1180, 853, 809, 852
1181, 760, 101, 759
1182, 761, 100, 760
1183, 762,  99, 761
1184, 130,   7, 131
1185, 786, 131, 132
1186, 735, 129, 734
1187, 736, 128, 735
1188, 737, 127, 736
1189, 738, 126, 737
1190, 739, 125, 738
1191, 740, 124, 739
1192, 741, 123, 740
1193, 742, 122, 741
1194, 743, 121, 742
1195, 744, 120, 743
1196, 745, 119, 744
1197, 746, 118, 745
1198, 747, 117, 746
1199, 748, 116, 747
1200, 749, 115, 748
1201, 750, 114, 749
1202, 751, 113, 750
1203, 752, 112, 751
1204, 753, 111, 752
1205, 754, 110, 753
1206, 755, 109, 754
1207, 756, 108, 755
1208, 757, 107, 756
1209, 758, 106, 757
1210, 732, 132, 133
1211, 733, 732, 133
1212, 731, 134,   8
1213, 731,   8, 135
1214, 880, 857, 859
1215, 733, 134, 731
1216, 783, 135, 136
1217, 797, 732, 787
1218, 733, 133, 134
1219, 783, 731, 135
1220, 900, 857, 880
1221, 734, 129, 130
1222, 786, 130, 131
1223, 798, 735, 797
1224, 735, 128, 129
1225, 785, 137, 784
1226, 736, 127, 128
1227, 924, 881, 899
1228, 737, 126, 127
1229, 780,  31, 768
1230, 738, 125, 126
1231, 799, 796, 740
1232, 739, 124, 125
1233, 779,  29, 767
1234, 740, 123, 124
1235, 871, 819, 869
1236, 741, 122, 123
1237, 777,  27,  26
1238, 742, 121, 122
1239, 777,  26, 766
1240, 743, 120, 121
1241, 868, 831, 866
1242, 744, 119, 120
1243, 782,  24, 765
1244, 745, 118, 119
1245, 845, 844, 805
1246, 746, 117, 118
1247, 775,  22,  21
1248, 747, 116, 117
1249, 775,  21, 764
1250, 748, 115, 116
1251, 828, 764, 817
1252, 749, 114, 115
1253, 870, 864, 828
1254, 750, 113, 114
1255, 773,  19,  18
1256, 751, 112, 113
1257, 773,  18, 772
1258, 752, 111, 112
1259, 772,  17, 771
1260, 753, 110, 111
1261, 771,  16, 763
1262, 754, 109, 110
1263, 907, 883, 898
1264, 755, 108, 109
1265, 811, 759, 102
1266, 756, 107, 108
1267, 836, 811, 813
1268, 757, 106, 107
1269, 813, 104, 758
1270, 758, 104, 105
1271, 770,  15,  14
1272, 759, 101, 102
1273, 770, 763,  15
1274, 760, 100, 101
1275, 903, 837, 812
1276, 761,  99, 100
1277, 826,  13, 762
1278, 762,  13,  98
1279, 903, 861, 875
1280, 763,  16,  15
1281, 764,  21,  20
1282, 774,  20,  19
1283, 765,  24,  23
1284, 776,  23,  22
1285, 766,  26,  25
1286, 782,  25,  24
1287, 767,  29,  28
1288, 778,  28,  27
1289, 768,  31,  30
1290, 779,  30,  29
1291, 815, 784, 138
1292, 780,  32,  31
1293, 826, 770,  14
1294, 837, 762, 761
1295, 821, 771, 816
1296, 771,  17,  16
1297, 810, 752, 788
1298, 772,  18,  17
1299, 897, 838, 896
1300, 774,  19, 773
1301, 827, 773, 822
1302, 774, 764,  20
1303, 841, 838, 808
1304, 829, 775, 828
1305, 843, 842, 806
1306, 776, 765,  23
1307, 846, 845, 793
1308, 847, 846, 801
1309, 832, 777, 831
1310, 778, 767,  28
1311, 849, 848, 795
1312, 850, 849, 800
1313, 834, 768, 820
1314, 802, 799, 739
1315, 781, 769,  33
1316, 781,  32, 780
1317, 844, 843, 789
1318, 866, 835, 865
1319, 783, 733, 731
1320, 785, 136, 137
1321, 804, 737, 736
1322, 784, 137, 138
1323, 804, 736, 798
1324, 785, 783, 136
1325, 786, 132, 732
1326, 797, 786, 732
1327, 859, 797, 787
1328, 787, 732, 733
1329, 788, 752, 751
1330, 808, 751, 750
1331, 789, 748, 747
1332, 805, 747, 746
1333, 790, 750, 749
1334, 806, 790, 749
1335, 791, 756, 755
1336, 809, 755, 754
1337, 792, 754, 753
1338, 810, 792, 753
1339, 793, 746, 745
1340, 801, 745, 744
1341, 794, 744, 743
1342, 795, 743, 742
1343, 800, 742, 741
1344, 869, 833, 867
1345, 796, 741, 740
1346, 799, 740, 739
1347, 797, 735, 734
1348, 797, 734, 786
1349, 803, 802, 738
1350, 798, 736, 735
1351, 802, 739, 738
1352, 879, 834, 877
1353, 800, 795, 742
1354, 800, 741, 796
1355, 801, 793, 745
1356, 801, 744, 794
1357, 803, 738, 737
1358, 924, 899, 922
1359, 804, 803, 737
1360, 921, 824, 878
1361, 857, 856, 804
1362, 857, 804, 798
1363, 805, 789, 747
1364, 805, 746, 793
1365, 806, 749, 748
1366, 893, 844, 892
1367, 860, 811, 836
1368, 807, 757, 756
1369, 808, 788, 751
1370, 808, 750, 790
1371, 809, 791, 755
1372, 809, 754, 792
1373, 810, 753, 752
1374, 839, 788, 838
1375, 813, 811, 103
1376, 836, 758, 757
1377, 837, 825, 770
1378, 814, 760, 759
1379, 813, 103, 104
1380, 836, 813, 758
1381, 860, 759, 811
1382, 854, 791, 853
1383, 815, 138,   2
1384, 815,  34, 769
1385, 816, 771, 763
1386, 825, 816, 763
1387, 817, 764, 774
1388, 827, 774, 773
1389, 818, 782, 765
1390, 830, 765, 776
1391, 819, 779, 767
1392, 833, 767, 778
1393, 851, 850, 796
1394, 820, 768, 779
1395, 852, 792, 840
1396, 821, 772, 771
1397, 840, 810, 839
1398, 822, 773, 772
1399, 823, 781, 780
1400, 834, 823, 780
1401, 926, 769, 824
1402, 824, 769, 781
1403, 825, 763, 770
1404, 861, 812, 814
1405, 826,  14,  13
1406, 837, 826, 762
1407, 909, 896, 908
1408, 827, 817, 774
1409, 864, 863, 829
1410, 828, 775, 764
1411, 842, 841, 790
1412, 829, 776, 775
1413, 830, 818, 765
1414, 830, 776, 829
1415, 831, 777, 766
1416, 835, 831, 766
1417, 848, 847, 794
1418, 832, 778, 777
1419, 833, 819, 767
1420, 833, 778, 832
1421, 834, 780, 768
1422, 877, 820, 871
1423, 835, 766, 782
1424, 865, 818, 862
1425, 836, 757, 807
1426, 901, 836, 807
1427, 837, 770, 826
1428, 837, 761, 812
1429, 838, 788, 808
1430, 841, 808, 790
1431, 918, 897, 909
1432, 839, 810, 788
1433, 874, 872, 822
1434, 840, 792, 810
1435, 842, 790, 806
1436, 916, 908, 895
1437, 843, 806, 789
1438, 916, 894, 915
1439, 844, 789, 805
1440, 915, 893, 914
1441, 845, 805, 793
1442, 914, 892, 912
1443, 846, 793, 801
1444, 913, 912, 891
1445, 847, 801, 794
1446, 890, 847, 889
1447, 848, 794, 795
1448, 917, 889, 910
1449, 849, 795, 800
1450, 911, 888, 887
1451, 850, 800, 796
1452, 911, 887, 904
1453, 851, 796, 799
1454, 904, 887, 885
1455, 855, 799, 802
1456, 882, 855, 881
1457, 927, 919, 861
1458, 852, 809, 792
1459, 919, 884, 906
1460, 853, 791, 809
1461, 902, 860, 901
1462, 854, 807, 791
1463, 858, 802, 803
1464, 920, 905, 882
1465, 856, 803, 804
1466, 924, 921, 878
1467, 859, 857, 798
1468, 880, 859, 787
1469, 858, 855, 802
1470, 858, 803, 856
1471, 859, 798, 797
1472, 880, 787, 783
1473, 901, 860, 836
1474, 860, 814, 759
1475, 903, 875, 825
1476, 902, 814, 860
1477, 862, 818, 830
1478, 863, 830, 829
1479, 864, 829, 828
1480, 894, 843, 893
1481, 870, 828, 817
1482, 895, 842, 894
1483, 892, 845, 891
1484, 865, 835, 818
1485, 891, 846, 890
1486, 866, 831, 835
1487, 867, 833, 832
1488, 868, 867, 832
1489, 868, 832, 831
1490, 917, 913, 890
1491, 888, 849, 887
1492, 869, 819, 833
1493, 873, 817, 827
1494, 896, 841, 895
1495, 887, 850, 885
1496, 871, 820, 819
1497, 872, 827, 822
1498, 874, 822, 821
1499, 873, 870, 817
1500, 873, 827, 872
1501, 876, 821, 816
1502, 906, 884, 883
1503, 886, 853, 884
1504, 875, 816, 825
1505, 876, 874, 821
1506, 876, 816, 875
1507, 885, 851, 882
1508, 877, 834, 820
1509, 878, 824, 823
1510, 879, 878, 823
1511, 879, 823, 834
1512, 905, 904, 885
1513, 923, 783, 785
1514, 900, 899, 856
1515, 881, 855, 858
1516, 899, 858, 856
1517, 920, 882, 881
1518, 882, 851, 855
1519, 883, 852, 840
1520, 898, 840, 839
1521, 919, 886, 884
1522, 884, 853, 852
1523, 905, 885, 882
1524, 885, 850, 851
1525, 927, 902, 854
1526, 886, 854, 853
1527, 911, 869, 910
1528, 887, 849, 850
1529, 910, 889, 888
1530, 888, 848, 849
1531, 917, 890, 889
1532, 889, 847, 848
1533, 913, 891, 890
1534, 890, 846, 847
1535, 912, 892, 891
1536, 891, 845, 846
1537, 914, 893, 892
1538, 892, 844, 845
1539, 915, 894, 893
1540, 893, 843, 844
1541, 916, 895, 894
1542, 894, 842, 843
1543, 908, 896, 895
1544, 895, 841, 842
1545, 909, 897, 896
1546, 896, 838, 841
1547, 918, 898, 897
1548, 897, 839, 838
1549, 898, 883, 840
1550, 898, 839, 897
1551, 900, 856, 857
1552, 926, 925, 784
1553, 923, 900, 880
1554, 925, 922, 923
1555, 901, 807, 854
1556, 902, 901, 854
1557, 927, 854, 886
1558, 902, 861, 814
1559, 903, 825, 837
1560, 903, 812, 861
1561, 904, 877, 871
1562, 911, 910, 888
1563, 905, 879, 877
1564, 905, 877, 904
1565, 906, 874, 876
1566, 919, 906, 876
1567, 907, 872, 874
1568, 907, 874, 906
1569, 908, 864, 870
1570, 909, 908, 870
1571, 909, 870, 873
1572, 918, 909, 873
1573, 910, 869, 867
1574, 917, 910, 867
1575, 911, 904, 871
1576, 911, 871, 869
1577, 912, 866, 865
1578, 914, 912, 865
1579, 913, 868, 866
1580, 913, 866, 912
1581, 914, 865, 862
1582, 915, 914, 862
1583, 915, 862, 863
1584, 916, 915, 863
1585, 916, 863, 864
1586, 916, 864, 908
1587, 917, 867, 868
1588, 917, 868, 913
1589, 918, 873, 872
1590, 918, 872, 907
1591, 919, 876, 875
1592, 919, 875, 861
1593, 920, 878, 879
1594, 920, 879, 905
1595, 926, 921, 925
1596, 924, 922, 921
1597, 922, 899, 900
1598, 923, 922, 900
1599, 923, 880, 783
1600, 925, 923, 785
1601, 924, 878, 920
1602, 924, 920, 881
1603, 925, 785, 784
1604, 925, 921, 922
1605, 926, 784, 815
1606, 926, 824, 921
1607, 927, 886, 919
1608, 927, 861, 902
1609, 1003,    9,  139
1610, 1142, 1003,  932
1611,  941,  151,  940
1612,  936,  935,   49
1613, 1011,   53,   52
1614,  982,  964,  966
1615,  145,   10,  146
1616,  945,  146,  147
1617,  988,  944,  943
1618, 1004, 1002,  143
1619, 1002,  142,  143
1620,  931,  141,  930
1621,  932,  139,  140
1622,  163,   11,  164
1623,  953,  164,  165
1624,  971,  952,  951
1625,  989,  987,  161
1626,  987,  160,  161
1627,  972,  949,  948
1628, 1018,  948,  970
1629, 1140, 1128, 1127
1630,  937,  936,   48
1631,  984,  958,  977
1632,  959,  958,   46
1633,  969,  965,  176
1634,  940,  152,  939
1635, 1027, 1024,  981
1636,  942,  150,  941
1637,  943,  149,  942
1638,  944,  148,  943
1639,  945,  147,  944
1640,   53,  174,    4
1641,  946,  174,   53
1642,  954,   52,   51
1643, 1009,  954,  976
1644,  973,  172,  947
1645,  973,  171,  172
1646,  970,  170,  171
1647,  950,  168,  949
1648,  951,  167,  950
1649,  952,  166,  951
1650,  953,  165,  952
1651, 1011,  954, 1009
1652,  955,   50,  935
1653,  956,  157,  929
1654, 1000,  929,  990
1655, 1032, 1031,  992
1656,  961,  959,   45
1657,  960,  154,  938
1658,  962,  961,   44
1659, 1001,  994,  960
1660,  963,  962,   43
1661,  964,  963,   42
1662,  965,  175,  176
1663,  968,  967,   39
1664,  968,  965,  967
1665,  968,    3,  175
1666,  969,  177,  928
1667,  928,  177,  178
1668, 1005,  931,  930
1669,  929,  157,  158
1670,  934,  158,  159
1671,  930,  141,  142
1672,  995,  940,  991
1673, 1006,  931, 1005
1674,  931,  140,  141
1675, 1003,  928,  178
1676,  932,  140,  931
1677,  933,  159,  160
1678,  949,  169,  948
1679,  934,  929,  158
1680,  934,  159,  933
1681,  935,   50,   49
1682,  936,   49,   48
1683,  937,   48,   47
1684,  979,  936,  937
1685,  958,   47,   46
1686,  984,  937,  958
1687,  938,  154,  155
1688,  957,  155,  156
1689,  939,  152,  153
1690,  960,  939,  153
1691, 1033,  988,  997
1692,  940,  151,  152
1693, 1037,  995, 1034
1694,  941,  150,  151
1695,  997,  943,  942
1696,  942,  149,  150
1697, 1044, 1010, 1043
1698,  943,  148,  149
1699, 1010,  944,  988
1700,  944,  147,  148
1701, 1007,  145,  945
1702,  945,  145,  146
1703,  947,  173,  946
1704,  946,  173,  174
1705,  985,  935,  978
1706,  947,  172,  173
1707, 1014,  975,  974
1708,  948,  169,  170
1709, 1038, 1036,  990
1710,  949,  168,  169
1711,  975,  951,  950
1712,  950,  167,  168
1713, 1042, 1008, 1012
1714,  951,  166,  167
1715, 1008,  952,  971
1716,  952,  165,  166
1717,  999,  163,  953
1718,  953,  163,  164
1719,  955,  954,   51
1720,  976,  954,  955
1721,  955,   51,   50
1722, 1026,  985, 1025
1723,  956,  156,  157
1724,  979,  978,  936
1725,  957,  938,  155
1726,  957,  156,  956
1727,  958,  937,   47
1728,  959,   46,   45
1729,  961,   45,   44
1730,  986,  959,  961
1731,  960,  153,  154
1732, 1023, 1019,  986
1733,  962,   44,   43
1734, 1058, 1023, 1057
1735,  963,   43,   42
1736,  981,  962,  963
1737,  964,   42,   41
1738,  981,  980,  962
1739,  966,   41,   40
1740, 1094, 1068, 1069
1741,  969,  176,  177
1742, 1076, 1006, 1045
1743,  966,  964,   41
1744,  967,  966,   40
1745,  967,   40,   39
1746, 1029,  982,  966
1747,  968,   39,    3
1748,  968,  175,  965
1749, 1037, 1035,  996
1750, 1028, 1027,  983
1751,  970,  948,  170
1752,  973,  970,  171
1753,  974,  949,  972
1754, 1048, 1012, 1016
1755, 1025,  978, 1022
1756,  998,  990,  934
1757, 1063, 1062, 1025
1758, 1017,  947, 1009
1759, 1065, 1030, 1048
1760,  974,  950,  949
1761,  975,  971,  951
1762,  975,  950,  974
1763, 1017, 1013,  973
1764,  985,  955,  935
1765,  993,  957,  992
1766,  977,  958,  959
1767, 1022,  979, 1021
1768,  978,  935,  936
1769,  984,  979,  937
1770, 1021,  984, 1020
1771, 1001,  938,  993
1772,  980,  961,  962
1773,  983,  963,  964
1774, 1074, 1041, 1067
1775, 1029,  966,  967
1776, 1092, 1029,  965
1777,  983,  981,  963
1778,  983,  964,  982
1779, 1000,  992,  956
1780, 1020,  977, 1019
1781, 1063, 1022, 1061
1782,  985,  976,  955
1783,  986,  977,  959
1784,  986,  961,  980
1785,  987,  933,  160
1786,  989,  161,  162
1787,  996,  941,  995
1788, 1124, 1102, 1077
1789,  999,  989,  162
1790, 1008,  999,  953
1791,  990,  929,  934
1792,  998,  934,  933
1793,  991,  940,  939
1794,  994,  939,  960
1795,  992,  957,  956
1796, 1000,  956,  929
1797, 1083, 1057, 1081
1798,  993,  938,  957
1799, 1024, 1023,  980
1800,  994,  991,  939
1801, 1050, 1044, 1043
1802,  995,  941,  940
1803, 1068, 1050, 1033
1804,  996,  942,  941
1805,  997,  988,  943
1806,  997,  942,  996
1807, 1030,  933,  987
1808, 1052, 1048, 1016
1809,  999,  162,  163
1810, 1008,  953,  952
1811, 1059, 1019, 1058
1812, 1036, 1032, 1000
1813, 1001,  960,  938
1814, 1057, 1024, 1054
1815, 1002,  930,  142
1816, 1004,  143,  144
1817, 1003,  178,    9
1818, 1003,  139,  932
1819, 1007, 1004,  144
1820, 1010, 1004, 1007
1821, 1077, 1005, 1046
1822, 1046,  930, 1002
1823, 1142,  932, 1006
1824, 1006,  932,  931
1825, 1007,  144,  145
1826, 1010, 1007,  945
1827, 1012, 1008,  971
1828, 1008,  989,  999
1829, 1009,  947,  946
1830, 1011, 1009,  946
1831, 1010,  945,  944
1832, 1043,  988, 1033
1833, 1011,  946,   53
1834, 1011,   52,  954
1835, 1048, 1042, 1012
1836, 1016,  971,  975
1837, 1049, 1013, 1017
1838, 1013,  970,  973
1839, 1015,  974,  972
1840, 1015, 1014,  974
1841, 1055,  972, 1018
1842, 1061, 1021, 1060
1843, 1016, 1012,  971
1844, 1016,  975, 1014
1845, 1017,  973,  947
1846, 1047, 1009,  976
1847, 1018,  972,  948
1848, 1018,  970, 1013
1849, 1019,  977,  986
1850, 1023,  986,  980
1851, 1060, 1020, 1059
1852, 1020,  984,  977
1853, 1085, 1059, 1084
1854, 1021,  979,  984
1855, 1062, 1026, 1025
1856, 1022,  978,  979
1857, 1024,  980,  981
1858, 1039,  993, 1031
1859, 1027,  981,  983
1860, 1041, 1001, 1039
1861, 1049, 1017, 1047
1862, 1025,  985,  978
1863, 1049, 1047, 1026
1864, 1026,  976,  985
1865, 1028,  983,  982
1866, 1041, 1040,  994
1867, 1064,  982, 1029
1868, 1056, 1054, 1027
1869, 1029,  967,  965
1870, 1092, 1064, 1029
1871, 1030,  998,  933
1872, 1042, 1030,  987
1873, 1031,  993,  992
1874, 1032,  992, 1000
1875, 1036, 1000,  990
1876, 1084, 1058, 1083
1877, 1035,  997,  996
1878, 1037,  996,  995
1879, 1034,  995,  991
1880, 1040,  991,  994
1881, 1103, 1045, 1102
1882, 1035, 1033,  997
1883, 1038,  990,  998
1884, 1114, 1098, 1073
1885, 1071, 1069, 1037
1886, 1069, 1068, 1035
1887, 1065,  998, 1030
1888, 1101, 1080, 1090
1889, 1067, 1039, 1066
1890, 1039, 1001,  993
1891, 1120, 1116, 1104
1892, 1040, 1034,  991
1893, 1041,  994, 1001
1894, 1116, 1091, 1115
1895, 1042,  987,  989
1896, 1042,  989, 1008
1897, 1050, 1046, 1044
1898, 1043, 1010,  988
1899, 1044, 1002, 1004
1900, 1044, 1004, 1010
1901, 1137, 1117, 1136
1902, 1045, 1006, 1005
1903, 1046, 1005,  930
1904, 1046, 1002, 1044
1905, 1047, 1017, 1009
1906, 1047,  976, 1026
1907, 1048, 1030, 1042
1908, 1052, 1016, 1014
1909, 1135, 1078, 1051
1910, 1051, 1013, 1049
1911, 1050, 1043, 1033
1912, 1068, 1033, 1035
1913, 1135, 1051, 1049
1914, 1051, 1018, 1013
1915, 1053, 1014, 1015
1916, 1053, 1052, 1014
1917, 1082, 1015, 1055
1918, 1086, 1060, 1085
1919, 1054, 1024, 1027
1920, 1056, 1027, 1028
1921, 1055, 1015,  972
1922, 1055, 1018, 1051
1923, 1089, 1028, 1064
1924, 1075, 1040, 1074
1925, 1081, 1054, 1079
1926, 1057, 1023, 1024
1927, 1070, 1066, 1031
1928, 1058, 1019, 1023
1929, 1072, 1070, 1032
1930, 1059, 1020, 1019
1931, 1073, 1072, 1036
1932, 1060, 1021, 1020
1933, 1088, 1062, 1063
1934, 1061, 1022, 1021
1935, 1062, 1049, 1026
1936, 1063, 1025, 1022
1937, 1087, 1061, 1086
1938, 1105, 1078, 1088
1939, 1137, 1131, 1130
1940, 1064, 1028,  982
1941, 1065, 1038,  998
1942, 1101, 1048, 1052
1943, 1066, 1039, 1031
1944, 1070, 1031, 1032
1945, 1095, 1067, 1091
1946, 1067, 1041, 1039
1947, 1124, 1094, 1102
1948, 1069, 1035, 1037
1949, 1071, 1037, 1034
1950, 1097, 1094, 1069
1951, 1072, 1032, 1036
1952, 1116, 1115, 1106
1953, 1075, 1034, 1040
1954, 1122, 1119, 1097
1955, 1073, 1036, 1038
1956, 1138, 1115, 1118
1957, 1090, 1038, 1065
1958, 1139, 1121, 1109
1959, 1099, 1074, 1095
1960, 1074, 1040, 1041
1961, 1100, 1075, 1099
1962, 1075, 1071, 1034
1963, 1141, 1076, 1125
1964, 1142, 1076, 1141
1965, 1077, 1045, 1005
1966, 1077, 1046, 1050
1967, 1111, 1086, 1109
1968, 1078, 1055, 1051
1969, 1079, 1054, 1056
1970, 1113, 1056, 1089
1971, 1080, 1052, 1053
1972, 1110, 1053, 1082
1973, 1106, 1081, 1104
1974, 1081, 1057, 1054
1975, 1082, 1053, 1015
1976, 1082, 1055, 1078
1977, 1093, 1091, 1066
1978, 1083, 1058, 1057
1979, 1096, 1093, 1070
1980, 1084, 1059, 1058
1981, 1098, 1096, 1072
1982, 1085, 1060, 1059
1983, 1127, 1109, 1121
1984, 1086, 1061, 1060
1985, 1112, 1088, 1087
1986, 1087, 1063, 1061
1987, 1135, 1088, 1078
1988, 1088, 1063, 1087
1989, 1089, 1056, 1028
1990, 1117, 1064, 1092
1991, 1090, 1073, 1038
1992, 1101, 1090, 1065
1993, 1091, 1067, 1066
1994, 1093, 1066, 1070
1995, 1126,  965,  969
1996, 1141, 1125,  969
1997, 1096, 1070, 1072
1998, 1107, 1083, 1106
1999, 1124, 1077, 1050
2000, 1097, 1069, 1071
2001, 1120, 1095, 1116
2002, 1095, 1074, 1067
2003, 1098, 1072, 1073
2004, 1108, 1084, 1107
2005, 1100, 1071, 1075
2006, 1132, 1130, 1131
2007, 1114, 1073, 1090
2008, 1109, 1085, 1108
2009, 1123, 1099, 1120
2010, 1099, 1075, 1074
2011, 1132, 1123, 1129
2012, 1100, 1097, 1071
2013, 1101, 1065, 1048
2014, 1101, 1052, 1080
2015, 1119, 1102, 1094
2016, 1102, 1045, 1077
2017, 1134, 1131, 1133
2018, 1103, 1076, 1045
2019, 1104, 1081, 1079
2020, 1129, 1123, 1120
2021, 1128, 1105, 1112
2022, 1105, 1082, 1078
2023, 1115, 1107, 1106
2024, 1106, 1083, 1081
2025, 1139, 1138, 1118
2026, 1107, 1084, 1083
2027, 1139, 1109, 1108
2028, 1108, 1085, 1084
2029, 1128, 1114, 1110
2030, 1109, 1086, 1085
2031, 1110, 1080, 1053
2032, 1110, 1082, 1105
2033, 1128, 1112, 1111
2034, 1111, 1087, 1086
2035, 1112, 1105, 1088
2036, 1112, 1087, 1111
2037, 1113, 1079, 1056
2038, 1130, 1089, 1117
2039, 1114, 1090, 1080
2040, 1114, 1080, 1110
2041, 1115, 1091, 1093
2042, 1118, 1115, 1093
2043, 1116, 1106, 1104
2044, 1116, 1095, 1091
2045, 1117, 1089, 1064
2046, 1136, 1092, 1126
2047, 1118, 1093, 1096
2048, 1121, 1118, 1096
2049, 1134, 1102, 1119
2050, 1119, 1094, 1097
2051, 1123, 1122, 1100
2052, 1120, 1099, 1095
2053, 1121, 1096, 1098
2054, 1127, 1121, 1098
2055, 1122, 1097, 1100
2056, 1123, 1100, 1099
2057, 1129, 1120, 1104
2058, 1129, 1104, 1079
2059, 1124, 1050, 1068
2060, 1124, 1068, 1094
2061, 1136, 1126, 1125
2062, 1125, 1076, 1103
2063, 1126, 1092,  965
2064, 1126,  969, 1125
2065, 1140, 1098, 1114
2066, 1127, 1111, 1109
2067, 1128, 1110, 1105
2068, 1128, 1111, 1127
2069, 1129, 1079, 1113
2070, 1132, 1113, 1130
2071, 1130, 1113, 1089
2072, 1137, 1136, 1133
2073, 1131, 1119, 1122
2074, 1132, 1131, 1122
2075, 1132, 1122, 1123
2076, 1132, 1129, 1113
2077, 1133, 1125, 1103
2078, 1134, 1133, 1103
2079, 1134, 1103, 1102
2080, 1134, 1119, 1131
2081, 1135, 1049, 1062
2082, 1135, 1062, 1088
2083, 1136, 1125, 1133
2084, 1136, 1117, 1092
2085, 1137, 1133, 1131
2086, 1137, 1130, 1117
2087, 1138, 1108, 1107
2088, 1138, 1107, 1115
2089, 1139, 1108, 1138
2090, 1139, 1118, 1121
2091, 1140, 1127, 1098
2092, 1140, 1114, 1128
2093, 1141,  969,  928
2094, 1142, 1141,  928
2095, 1142,  928, 1003
2096, 1142, 1006, 1076
2097, 1201, 1196, 1199
2098, 1143,  145,  144
2099, 1153,  180,  181
2100, 1146, 1145,  182
2101, 1146,    8,  134
2102, 1164,  186, 1163
2103, 1147, 1143,  144
2104, 1148, 1147,  143
2105, 1149, 1148,  142
2106, 1194, 1173, 1190
2107, 1152, 1151,  139
2108, 1212, 1152, 1144
2109, 1152,    9,  179
2110, 1153,  181, 1145
2111,  131,    7,  183
2112, 1154,  131,  183
2113, 1186, 1165, 1177
2114, 1156,  133, 1155
2115,  194,  193,   12
2116, 1157,  193,  194
2117, 1158,  192, 1157
2118, 1159,  191, 1158
2119, 1160,  190, 1159
2120, 1161,  189, 1160
2121, 1172, 1161, 1160
2122, 1174, 1162, 1161
2123, 1163,  187, 1162
2124, 1165,  185, 1164
2125, 1189,  183,  184
2126,  200,   10,  145
2127, 1143,  200,  145
2128, 1183, 1166,  199
2129, 1166,  198,  199
2130, 1201, 1188, 1179
2131, 1169,  196, 1168
2132, 1181,  194,  195
2133, 1183,  200, 1143
2134, 1147,  144,  143
2135, 1150, 1149,  141
2136, 1144,  179,  180
2137, 1145,  181,  182
2138, 1155,  132, 1154
2139, 1146,  182,    8
2140, 1156,  134,  133
2141, 1148,  143,  142
2142, 1187, 1157, 1181
2143, 1149,  142,  141
2144, 1176, 1173, 1159
2145, 1150,  141,  140
2146, 1173, 1172, 1160
2147, 1151, 1150,  140
2148, 1217, 1213, 1214
2149, 1151,  140,  139
2150, 1200, 1178, 1150
2151, 1152,  139,    9
2152, 1152,  179, 1144
2153, 1162,  188, 1161
2154, 1153, 1144,  180
2155, 1154,  132,  131
2156, 1195, 1171, 1191
2157, 1170, 1156, 1155
2158, 1155,  133,  132
2159, 1156, 1145, 1146
2160, 1156, 1146,  134
2161, 1168,  197, 1167
2162, 1157,  192,  193
2163, 1209, 1190, 1176
2164, 1158,  191,  192
2165, 1180, 1149, 1178
2166, 1159,  190,  191
2167, 1193, 1192, 1174
2168, 1160,  189,  190
2169, 1174, 1161, 1172
2170, 1161,  188,  189
2171, 1203, 1170, 1202
2172, 1162,  187,  188
2173, 1171, 1164, 1163
2174, 1163,  186,  187
2175, 1177, 1165, 1164
2176, 1164,  185,  186
2177, 1189, 1165, 1186
2178, 1165,  184,  185
2179, 1167,  198, 1166
2180, 1188, 1143, 1147
2181, 1188, 1182, 1166
2182, 1167,  197,  198
2183, 1201, 1199, 1182
2184, 1168,  196,  197
2185, 1187, 1181, 1169
2186, 1169,  195,  196
2187, 1170, 1145, 1156
2188, 1202, 1186, 1177
2189, 1175, 1163, 1162
2190, 1208, 1191, 1205
2191, 1173, 1160, 1159
2192, 1206, 1205, 1192
2193, 1176, 1159, 1158
2194, 1207, 1194, 1204
2195, 1192, 1191, 1175
2196, 1175, 1162, 1174
2197, 1192, 1175, 1174
2198, 1175, 1171, 1163
2199, 1187, 1158, 1157
2200, 1185, 1169, 1168
2201, 1186, 1170, 1155
2202, 1177, 1164, 1171
2203, 1178, 1149, 1150
2204, 1200, 1150, 1151
2205, 1179, 1147, 1148
2206, 1180, 1179, 1148
2207, 1180, 1148, 1149
2208, 1197, 1196, 1180
2209, 1181, 1157,  194
2210, 1181,  195, 1169
2211, 1184, 1167, 1182
2212, 1182, 1167, 1166
2213, 1183,  199,  200
2214, 1188, 1183, 1143
2215, 1198, 1185, 1184
2216, 1184, 1168, 1167
2217, 1209, 1187, 1185
2218, 1185, 1168, 1184
2219, 1186, 1155, 1154
2220, 1189, 1186, 1154
2221, 1187, 1169, 1185
2222, 1187, 1176, 1158
2223, 1188, 1166, 1183
2224, 1188, 1147, 1179
2225, 1189, 1154,  183
2226, 1189,  184, 1165
2227, 1218, 1198, 1199
2228, 1190, 1173, 1176
2229, 1208, 1195, 1191
2230, 1191, 1171, 1175
2231, 1193, 1174, 1172
2232, 1219, 1215, 1211
2233, 1194, 1193, 1172
2234, 1207, 1206, 1193
2235, 1194, 1172, 1173
2236, 1218, 1210, 1204
2237, 1203, 1202, 1195
2238, 1195, 1177, 1171
2239, 1196, 1179, 1180
2240, 1197, 1180, 1178
2241, 1211, 1178, 1200
2242, 1216, 1197, 1211
2243, 1209, 1198, 1190
2244, 1199, 1198, 1184
2245, 1199, 1184, 1182
2246, 1218, 1196, 1210
2247, 1212, 1151, 1152
2248, 1219, 1212, 1213
2249, 1201, 1182, 1188
2250, 1201, 1179, 1196
2251, 1202, 1170, 1186
2252, 1202, 1177, 1195
2253, 1214, 1145, 1203
2254, 1203, 1145, 1170
2255, 1204, 1194, 1190
2256, 1204, 1190, 1198
2257, 1214, 1213, 1153
2258, 1205, 1191, 1192
2259, 1206, 1192, 1193
2260, 1216, 1215, 1206
2261, 1207, 1193, 1194
2262, 1210, 1207, 1204
2263, 1217, 1214, 1208
2264, 1208, 1203, 1195
2265, 1209, 1176, 1187
2266, 1209, 1185, 1198
2267, 1210, 1196, 1197
2268, 1216, 1210, 1197
2269, 1211, 1197, 1178
2270, 1219, 1200, 1212
2271, 1212, 1200, 1151
2272, 1213, 1212, 1144
2273, 1213, 1144, 1153
2274, 1219, 1217, 1215
2275, 1214, 1153, 1145
2276, 1214, 1203, 1208
2277, 1215, 1205, 1206
2278, 1216, 1206, 1207
2279, 1216, 1207, 1210
2280, 1216, 1211, 1215
2281, 1217, 1208, 1205
2282, 1217, 1205, 1215
2283, 1218, 1204, 1198
2284, 1218, 1199, 1196
2285, 1219, 1211, 1200
2286, 1219, 1213, 1217
*Orientation, name=Ori-1
1., 0., 0., 0., 1., 0.
3, 0.
** Region: (CompositeLayup-1-1: Generated From Layup)
*Elset, elset=CompositeLayup-1-1, generate
    1,  2286,     1
** Section: CompositeLayup-1-1
*Shell Section, elset=CompositeLayup-1-1, composite, orientation=Ori-1, layup=CompositeLayup-1
0.25, 1, ABQ_PLY_FABRIC, 45., Ply-1
0.25, 1, ABQ_PLY_FABRIC, -45., Ply-2
0.25, 1, ABQ_PLY_FABRIC, -45., Ply-3
0.25, 1, ABQ_PLY_FABRIC, 45., Ply-4
*End Part
**  
**
** ASSEMBLY
**
*Assembly, name=Assembly
**  
*Instance, name=Plate-1, part=PLATE
*End Instance
**  
*Nset, nset=Set-1, instance=Plate-1
   6,   7,  12, 105, 106, 107, 108, 109, 110, 111, 112, 113, 114, 115, 116, 117
 118, 119, 120, 121, 122, 123, 124, 125, 126, 127, 128, 129, 130, 183, 184, 185
 186, 187, 188, 189, 190, 191, 192, 193
*Elset, elset=Set-1, instance=Plate-1
 1177, 1178, 1184, 1221, 1224, 1226, 1228, 1230, 1232, 1234, 1236, 1238, 1240, 1242, 1244, 1246
 1248, 1250, 1252, 1254, 1256, 1258, 1260, 1262, 1264, 1266, 1268, 2111, 2115, 2125, 2162, 2164
 2166, 2168, 2170, 2172, 2174, 2176, 2178
*Nset, nset=Set-2, instance=Plate-1
   4,   5,  11,  54,  55,  56,  57,  58,  59,  60,  61,  62,  63,  64,  65,  66
  67,  68,  69,  70,  71,  72,  73,  74,  75,  76,  77,  78,  79, 164, 165, 166
 167, 168, 169, 170, 171, 172, 173, 174
*Elset, elset=Set-2, instance=Plate-1
   30,   45,   70,  159,  162,  164,  166,  168,  170,  172,  174,  176,  178,  180,  182,  184
  186,  188,  190,  192,  194,  196,  198,  200,  202,  204,  278, 1622, 1623, 1640, 1645, 1646
 1704, 1706, 1708, 1710, 1712, 1714, 1716
*End Assembly
*Amplitude, name=Ramp, time=TOTAL TIME
             0.,              0.,            0.01,              1.
** 
** MATERIALS
** 
*Material, name=ABQ_PLY_FABRIC
*Density
 1.594e-09,
*Depvar, delete=16
     16,
*User Material, constants=40
27500., 27500.,   0.11,  2900., 27500., 27500.,   0.11,     0.
   604.,   291.,   604.,   291.,    75.,     0.,     0.,     0.
 20.438, 4.6257, 20.438, 4.6257, 0.3221,     1.,     0.,     0.
    75., 0.0008,  0.552,     0.,     0.,     0.,     0.,     0.
     0.,     1.,  1e+09,  1e+09, -1e+09,     0.,     0.,     0.
** ----------------------------------------------------------------
** 
** STEP: Step-1
** 
*Step, name=Step-1, nlgeom=NO
*Dynamic, Explicit
, 0.01
*Bulk Viscosity
0.06, 1.2
** 
** BOUNDARY CONDITIONS
** 
** Name: BC-1 Type: Symmetry/Antisymmetry/Encastre
*Boundary
Set-1, ENCASTRE
** Name: BC-2 Type: Displacement/Rotation
*Boundary, amplitude=Ramp
Set-2, 1, 1, 1.73684
** 
** OUTPUT REQUESTS
** 
*Restart, write, number interval=1, time marks=NO
** 
** FIELD OUTPUT: F-Output-1
** 
*Output, field, number interval=1
*Element Output, position=NODES, directions=YES
LE, PEEQ, SDV
** 
** HISTORY OUTPUT: H-Output-1
** 
*Output, history, variable=PRESELECT
*End Step
