*Heading
** Job name: Plate_nonlinear_62 Model name: Model-1
** Generated by: Abaqus/CAE 2024.HF3
*Preprint, echo=NO, model=NO, history=NO, contact=NO
**
** PARTS
**
*Part, name=PLATE
*Node
      1,   59.7825394,   102.058449,           0.
      2,   59.7825394,   55.4195557,           0.
      3,    79.481636,    35.720459,           0.
      4,   170.807251,    35.720459,           0.
      5,   170.807251,   102.058449,           0.
      6,           0.,   102.058449,           0.
      7,           0.,    35.720459,           0.
      8,   40.0834427,    35.720459,           0.
      9,   59.7825394,   16.0213585,           0.
     10,   59.7825394,           0.,           0.
     11,   170.807251,           0.,           0.
     12,           0.,           0.,           0.
     13,   59.7825394,    98.171875,           0.
     14,   59.7825394,   94.2853012,           0.
     15,   59.7825394,   90.3987274,           0.
     16,   59.7825394,   86.5121536,           0.
     17,   59.7825394,   82.6255798,           0.
     18,   59.7825394,    78.739006,           0.
     19,   59.7825394,   74.8524246,           0.
     20,   59.7825394,   70.9658508,           0.
     21,   59.7825394,    67.079277,           0.
     22,   59.7825394,   63.1927032,           0.
     23,   59.7825394,   59.3061295,           0.
     24,   63.6256447,   55.0410423,           0.
     25,   67.3210602,   53.9200516,           0.
     26,   70.7267761,    52.099659,           0.
     27,   73.7119064,   49.6498222,           0.
     28,   76.1617432,   46.6646919,           0.
     29,    77.982132,    43.258976,           0.
     30,   79.1031265,   39.5635605,           0.
     31,   83.4523163,    35.720459,           0.
     32,   87.4229965,    35.720459,           0.
     33,   91.3936768,    35.720459,           0.
     34,    95.364357,    35.720459,           0.
     35,   99.3350372,    35.720459,           0.
     36,    103.30571,    35.720459,           0.
     37,    107.27639,    35.720459,           0.
     38,    111.24707,    35.720459,           0.
     39,   115.217751,    35.720459,           0.
     40,   119.188431,    35.720459,           0.
     41,   123.159111,    35.720459,           0.
     42,   127.129791,    35.720459,           0.
     43,   131.100464,    35.720459,           0.
     44,   135.071152,    35.720459,           0.
     45,   139.041824,    35.720459,           0.
     46,   143.012497,    35.720459,           0.
     47,   146.983185,    35.720459,           0.
     48,   150.953857,    35.720459,           0.
     49,   154.924545,    35.720459,           0.
     50,   158.895218,    35.720459,           0.
     51,   162.865906,    35.720459,           0.
     52,   166.836578,    35.720459,           0.
     53,   170.807251,    39.866581,           0.
     54,   170.807251,   44.0127068,           0.
     55,   170.807251,   48.1588326,           0.
     56,   170.807251,   52.3049545,           0.
     57,   170.807251,   56.4510803,           0.
     58,   170.807251,   60.5972061,           0.
     59,   170.807251,   64.7433319,           0.
     60,   170.807251,   68.8894501,           0.
     61,   170.807251,   73.0355759,           0.
     62,   170.807251,   77.1817017,           0.
     63,   170.807251,   81.3278275,           0.
     64,   170.807251,   85.4739532,           0.
     65,   170.807251,    89.620079,           0.
     66,   170.807251,   93.7661972,           0.
     67,   170.807251,    97.912323,           0.
     68,   166.842087,   102.058449,           0.
     69,   162.876923,   102.058449,           0.
     70,   158.911758,   102.058449,           0.
     71,   154.946579,   102.058449,           0.
     72,   150.981415,   102.058449,           0.
     73,   147.016251,   102.058449,           0.
     74,   143.051071,   102.058449,           0.
     75,   139.085907,   102.058449,           0.
     76,   135.120743,   102.058449,           0.
     77,   131.155579,   102.058449,           0.
     78,   127.190407,   102.058449,           0.
     79,   123.225235,   102.058449,           0.
     80,   119.260071,   102.058449,           0.
     81,   115.294899,   102.058449,           0.
     82,   111.329727,   102.058449,           0.
     83,   107.364563,   102.058449,           0.
     84,   103.399391,   102.058449,           0.
     85,    99.434227,   102.058449,           0.
     86,   95.4690552,   102.058449,           0.
     87,    91.503891,   102.058449,           0.
     88,   87.5387192,   102.058449,           0.
     89,   83.5735474,   102.058449,           0.
     90,   79.6083832,   102.058449,           0.
     91,   75.6432114,   102.058449,           0.
     92,   71.6780472,   102.058449,           0.
     93,   67.7128754,   102.058449,           0.
     94,   63.7477074,   102.058449,           0.
     95,    55.797039,   102.058449,           0.
     96,   51.8115349,   102.058449,           0.
     97,   47.8260307,   102.058449,           0.
     98,   43.8405304,   102.058449,           0.
     99,   39.8550262,   102.058449,           0.
    100,   35.8695259,   102.058449,           0.
    101,   31.8840218,   102.058449,           0.
    102,   27.8985195,   102.058449,           0.
    103,   23.9130154,   102.058449,           0.
    104,   19.9275131,   102.058449,           0.
    105,   15.9420109,   102.058449,           0.
    106,   11.9565077,   102.058449,           0.
    107,   7.97100544,   102.058449,           0.
    108,   3.98550272,   102.058449,           0.
    109,           0.,    97.912323,           0.
    110,           0.,   93.7661972,           0.
    111,           0.,    89.620079,           0.
    112,           0.,   85.4739532,           0.
    113,           0.,   81.3278275,           0.
    114,           0.,   77.1817017,           0.
    115,           0.,   73.0355759,           0.
    116,           0.,   68.8894501,           0.
    117,           0.,   64.7433319,           0.
    118,           0.,   60.5972061,           0.
    119,           0.,   56.4510803,           0.
    120,           0.,   52.3049545,           0.
    121,           0.,   48.1588326,           0.
    122,           0.,   44.0127068,           0.
    123,           0.,    39.866581,           0.
    124,   4.00834417,    35.720459,           0.
    125,   8.01668835,    35.720459,           0.
    126,    12.025032,    35.720459,           0.
    127,   16.0333767,    35.720459,           0.
    128,   20.0417213,    35.720459,           0.
    129,   24.0500641,    35.720459,           0.
    130,   28.0584087,    35.720459,           0.
    131,   32.0667534,    35.720459,           0.
    132,   36.0750961,    35.720459,           0.
    133,    40.461956,   39.5635605,           0.
    134,   41.5829468,    43.258976,           0.
    135,   43.4033394,   46.6646919,           0.
    136,   45.8531723,   49.6498222,           0.
    137,   48.8383064,    52.099659,           0.
    138,   52.2440224,   53.9200516,           0.
    139,   55.9394379,   55.0410423,           0.
    140,   59.7825394,   12.0160189,           0.
    141,   59.7825394,   8.01067924,           0.
    142,   59.7825394,   4.00533962,           0.
    143,   63.7477074,           0.,           0.
    144,   67.7128754,           0.,           0.
    145,   71.6780472,           0.,           0.
    146,   75.6432114,           0.,           0.
    147,   79.6083832,           0.,           0.
    148,   83.5735474,           0.,           0.
    149,   87.5387192,           0.,           0.
    150,    91.503891,           0.,           0.
    151,   95.4690552,           0.,           0.
    152,    99.434227,           0.,           0.
    153,   103.399391,           0.,           0.
    154,   107.364563,           0.,           0.
    155,   111.329727,           0.,           0.
    156,   115.294899,           0.,           0.
    157,   119.260071,           0.,           0.
    158,   123.225235,           0.,           0.
    159,   127.190407,           0.,           0.
    160,   131.155579,           0.,           0.
    161,   135.120743,           0.,           0.
    162,   139.085907,           0.,           0.
    163,   143.051071,           0.,           0.
    164,   147.016251,           0.,           0.
    165,   150.981415,           0.,           0.
    166,   154.946579,           0.,           0.
    167,   158.911758,           0.,           0.
    168,   162.876923,           0.,           0.
    169,   166.842087,           0.,           0.
    170,   170.807251,   3.96893978,           0.
    171,   170.807251,   7.93787956,           0.
    172,   170.807251,   11.9068193,           0.
    173,   170.807251,   15.8757591,           0.
    174,   170.807251,    19.844698,           0.
    175,   170.807251,   23.8136387,           0.
    176,   170.807251,   27.7825775,           0.
    177,   170.807251,   31.7515182,           0.
    178,   79.1031265,   31.8773537,           0.
    179,    77.982132,   28.1819382,           0.
    180,   76.1617432,   24.7762241,           0.
    181,   73.7119064,   21.7910919,           0.
    182,   70.7267761,   19.3412552,           0.
    183,   67.3210602,   17.5208626,           0.
    184,   63.6256447,   16.3998718,           0.
    185,   55.9394379,   16.3998718,           0.
    186,   52.2440224,   17.5208626,           0.
    187,   48.8383064,   19.3412552,           0.
    188,   45.8531723,   21.7910919,           0.
    189,   43.4033394,   24.7762241,           0.
    190,   41.5829468,   28.1819382,           0.
    191,    40.461956,   31.8773537,           0.
    192,           0.,   31.7515182,           0.
    193,           0.,   27.7825775,           0.
    194,           0.,   23.8136387,           0.
    195,           0.,    19.844698,           0.
    196,           0.,   15.8757591,           0.
    197,           0.,   11.9068193,           0.
    198,           0.,   7.93787956,           0.
    199,           0.,   3.96893978,           0.
    200,   3.98550272,           0.,           0.
    201,   7.97100544,           0.,           0.
    202,   11.9565077,           0.,           0.
    203,   15.9420109,           0.,           0.
    204,   19.9275131,           0.,           0.
    205,   23.9130154,           0.,           0.
    206,   27.8985195,           0.,           0.
    207,   31.8840218,           0.,           0.
    208,   35.8695259,           0.,           0.
    209,   39.8550262,           0.,           0.
    210,   43.8405304,           0.,           0.
    211,   47.8260307,           0.,           0.
    212,   51.8115349,           0.,           0.
    213,    55.797039,           0.,           0.
    214,   113.232071,   39.1583138,           0.
    215,   63.4009666,    96.836647,           0.
    216,   77.2983856,   50.2544785,           0.
    217,   63.1592102,   76.7857819,           0.
    218,   63.1636887,   72.8334045,           0.
    219,   63.1825142,    68.802597,           0.
    220,   70.6249466,   55.7515793,           0.
    221,   63.2397003,   64.6949921,           0.
    222,   63.3615341,    60.373455,           0.
    223,   79.7638092,   46.7353821,           0.
    224,   74.1804352,   53.3542709,           0.
    225,   67.0083694,   57.8593445,           0.
    226,   165.431381,   39.4367752,           0.
    227,   161.103088,   39.3860283,           0.
    228,   156.974457,   39.2467079,           0.
    229,   152.956894,   39.1941681,           0.
    230,   148.969864,    39.177063,           0.
    231,   144.996323,   39.1698036,           0.
    232,   141.025574,   39.1651535,           0.
    233,   137.055527,   39.1619415,           0.
    234,   133.085342,   39.1602287,           0.
    235,   129.114929,   39.1594658,           0.
    236,   125.144371,   39.1591301,           0.
    237,   121.173714,   39.1589661,           0.
    238,   117.202942,   39.1587296,           0.
    239,   109.260811,   39.1572227,           0.
    240,   105.289162,   39.1555367,           0.
    241,   101.307114,    39.158123,           0.
    242,    97.262352,   39.1927834,           0.
    243,   93.1238098,   39.2615013,           0.
    244,   88.9124832,   39.3347015,           0.
    245,   84.5172348,   39.4113197,           0.
    246,   167.234131,   70.9592133,           0.
    247,    167.23497,   66.8134079,           0.
    248,   167.236832,   62.6681137,           0.
    249,    167.23941,   58.5224609,           0.
    250,   167.220856,   54.3465958,           0.
    251,   167.205933,   50.1580696,           0.
    252,   167.236954,   46.0389366,           0.
    253,   73.6514511,   98.6436005,           0.
    254,   77.6169052,   98.6341171,           0.
    255,   81.5880737,   98.6311035,           0.
    256,   85.5550613,    98.629364,           0.
    257,   89.5206604,   98.6278839,           0.
    258,   93.4860001,   98.6265564,           0.
    259,   97.4513626,   98.6254883,           0.
    260,   101.416664,   98.6248703,           0.
    261,   105.381912,   98.6245346,           0.
    262,   109.347122,    98.624382,           0.
    263,   113.312302,    98.624321,           0.
    264,   117.277473,   98.6242828,           0.
    265,   121.242645,   98.6242523,           0.
    266,   125.207802,   98.6242065,           0.
    267,   129.172867,   98.6239243,           0.
    268,   133.137741,   98.6230469,           0.
    269,   137.102402,   98.6210098,           0.
    270,   141.066895,   98.6175156,           0.
    271,   145.031372,   98.6130066,           0.
    272,   148.995331,   98.6074219,           0.
    273,   152.957581,   98.5923462,           0.
    274,   156.942474,   98.5408325,           0.
    275,   161.059402,   98.3961029,           0.
    276,   165.408325,   98.3369522,           0.
    277,   81.9226837,   43.1075592,           0.
    278,   66.6329117,   66.5539627,           0.
    279,   66.5425034,   74.7657928,           0.
    280,   63.2667236,   84.5845566,           0.
    281,   63.1969452,   80.6795425,           0.
    282,   66.5638123,   70.7160721,           0.
    283,   69.7332001,   98.6526566,           0.
    284,   66.3890305,   98.9191818,           0.
    285,   75.6159821,   95.2442932,           0.
    286,     95.46772,   95.1946182,           0.
    287,   154.919037,   95.0879974,           0.
    288,   150.961502,   95.1332779,           0.
    289,   147.005997,   95.1545868,           0.
    290,   87.5365753,   95.2008362,           0.
    291,   99.4333954,   95.1925659,           0.
    292,   111.329674,   95.1901398,           0.
    293,   115.294861,   95.1900253,           0.
    294,   119.260025,   95.1899261,           0.
    295,   123.225143,   95.1897736,           0.
    296,   135.118134,   95.1842194,           0.
    297,   79.5955276,   95.2182236,           0.
    298,   107.364426,   95.1903992,           0.
    299,   91.5018616,   95.1980362,           0.
    300,   139.081253,   95.1773605,           0.
    301,   83.5695343,   95.2062225,           0.
    302,   103.398987,   95.1912079,           0.
    303,   127.190025,   95.1892853,           0.
    304,   131.154205,   95.1874695,           0.
    305,   143.043823,   95.1670685,           0.
    306,   158.912277,   94.9547119,           0.
    307,   146.979034,   42.6259537,           0.
    308,   94.9955826,   42.7376785,           0.
    309,   150.971542,   42.6433983,           0.
    310,   115.216934,   42.5962753,           0.
    311,   127.129402,   42.5980034,           0.
    312,   135.068924,   42.6019058,           0.
    313,   103.267616,   42.6011772,           0.
    314,   107.263123,   42.5950546,           0.
    315,   119.188049,   42.5969772,           0.
    316,   99.1742706,   42.6503525,           0.
    317,    90.692955,   42.8618927,           0.
    318,   154.985687,   42.6914597,           0.
    319,   159.011154,   42.8214684,           0.
    320,   111.243103,   42.5949211,           0.
    321,   123.158829,   42.5974541,           0.
    322,   131.099319,   42.5993919,           0.
    323,   139.037506,   42.6076355,           0.
    324,   143.006744,   42.6164055,           0.
    325,   167.230362,   75.1076279,           0.
    326,   167.151352,    83.438652,           0.
    327,   167.200668,   79.2638702,           0.
    328,    163.67067,   68.8818359,           0.
    329,     163.6745,   64.7361832,           0.
    330,   163.679565,    60.586235,           0.
    331,   163.652481,   56.4048271,           0.
    332,   163.541672,   52.1595917,           0.
    333,   163.581848,   47.9369926,           0.
    334,    167.12323,   87.6210938,           0.
    335,    167.17189,   91.7403564,           0.
    336,   167.511246,   95.2226181,           0.
    337,   70.4072952,   59.9592514,           0.
    338,   78.5704651,   54.8915558,           0.
    339,   81.4493179,   50.4914246,           0.
    340,   74.2004547,    57.669529,           0.
    341,   63.4423752,    92.602066,           0.
    342,   163.402939,   94.3205185,           0.
    343,   67.3922195,     95.01194,           0.
    344,   66.7956924,   62.2841187,           0.
    345,   83.8973312,   46.6747513,           0.
    346,   66.7028503,   82.6055603,           0.
    347,    63.364624,   88.5368729,           0.
    348,   70.0024033,   68.5643311,           0.
    349,   69.9534149,   72.6949463,           0.
    350,   66.5938797,   78.7047424,           0.
    351,   160.388733,   91.7219925,           0.
    352,   71.6808929,   95.2874374,           0.
    353,    129.17067,   91.7524033,           0.
    354,   117.277374,   91.7554779,           0.
    355,   113.312164,   91.7556915,           0.
    356,   125.206871,   91.7541885,           0.
    357,   121.242348,    91.755043,           0.
    358,   109.346848,    91.756134,           0.
    359,   133.132904,   91.7476273,           0.
    360,   105.381218,   91.7572479,           0.
    361,   101.415085,   91.7595367,           0.
    362,   97.4485855,   91.7632599,           0.
    363,   81.5654907,   91.7876511,           0.
    364,   93.4821625,   91.7683945,           0.
    365,   77.5434036,    91.837677,           0.
    366,   85.5481262,   91.7801132,           0.
    367,   89.5157928,   91.7744064,           0.
    368,   137.094009,   91.7385254,           0.
    369,   141.054916,     91.72435,           0.
    370,   145.016937,   91.7063141,           0.
    371,   148.974808,   91.6815796,           0.
    372,   152.940567,   91.6478348,           0.
    373,   156.908798,    91.585228,           0.
    374,   113.227936,    46.032299,           0.
    375,    117.20134,    46.034153,           0.
    376,    121.17292,    46.035305,           0.
    377,   125.143555,   46.0363045,           0.
    378,    129.11319,   46.0379906,           0.
    379,   133.081512,   46.0415764,           0.
    380,    137.04837,   46.0487404,           0.
    381,   92.6138306,   46.3191109,           0.
    382,   109.244865,   46.0314941,           0.
    383,   96.9425964,    46.174469,           0.
    384,   101.143257,   46.0841522,           0.
    385,   105.225586,   46.0442886,           0.
    386,    141.01474,   46.0605202,           0.
    387,   152.995712,   46.1508942,           0.
    388,   148.976791,   46.1245956,           0.
    389,   144.985519,   46.0861778,           0.
    390,   157.014603,   46.1916428,           0.
    391,   163.489258,   43.4558029,           0.
    392,   163.655319,   73.0305328,           0.
    393,   163.507843,   81.3588333,           0.
    394,   163.471741,   89.8151932,           0.
    395,   163.394226,   85.5934753,           0.
    396,   160.120865,   66.8026352,           0.
    397,   160.132217,   62.6395874,           0.
    398,   160.131638,    58.463131,           0.
    399,   160.059448,   54.3184967,           0.
    400,    159.51973,   49.8595467,           0.
    401,   163.584091,   77.1881256,           0.
    402,   86.3549423,   42.9826355,           0.
    403,   70.1789703,   64.3116302,           0.
    404,   88.2434921,   46.4959831,           0.
    405,    159.35083,   87.9270172,           0.
    406,   70.0880432,   80.5925217,           0.
    407,   73.3706284,   70.5864487,           0.
    408,   66.9303436,   86.5538559,           0.
    409,   70.0004044,   76.6838913,           0.
    410,   73.5520248,   91.9497833,           0.
    411,   167.554428,   42.5621605,           0.
    412,   135.105942,    88.301445,           0.
    413,   146.999054,    88.246315,           0.
    414,   150.987457,   88.2408218,           0.
    415,   139.063065,   88.2834702,           0.
    416,   83.5493011,   88.3616486,           0.
    417,   143.026428,   88.2645645,           0.
    418,   87.5267105,   88.3555756,           0.
    419,   154.965469,    88.235054,           0.
    420,   131.147202,   88.3111649,           0.
    421,   119.259659,   88.3204346,           0.
    422,   115.294525,   88.3209457,           0.
    423,   123.223915,   88.3192596,           0.
    424,   127.186371,     88.31633,           0.
    425,   111.329102,   88.3216934,           0.
    426,   107.363106,   88.3232956,           0.
    427,    103.39624,   88.3264999,           0.
    428,   99.4286728,   88.3317947,           0.
    429,   79.4825821,   88.3445358,           0.
    430,   95.4611359,   88.3391113,           0.
    431,   91.4939957,   88.3477631,           0.
    432,   139.022522,   49.5039139,           0.
    433,   142.985443,    49.537735,           0.
    434,   155.082657,   49.7276268,           0.
    435,   135.058746,   49.4896049,           0.
    436,   94.6622925,   49.7441216,           0.
    437,   98.9811172,   49.5791435,           0.
    438,   103.151733,   49.5028114,           0.
    439,   131.093765,    49.481163,           0.
    440,   127.126541,   49.4767952,           0.
    441,   123.157242,   49.4744415,           0.
    442,   115.212128,    49.469902,           0.
    443,    119.18573,    49.472374,           0.
    444,   151.000946,   49.7489433,           0.
    445,   146.962128,   49.6186142,           0.
    446,   107.216103,   49.4748383,           0.
    447,   111.226074,   49.4684486,           0.
    448,   160.523315,    46.053093,           0.
    449,   160.093307,   70.9527969,           0.
    450,    159.72908,   83.4518585,           0.
    451,   156.586746,    64.694931,           0.
    452,   156.887833,   52.7965355,           0.
    453,   156.616638,   60.4998322,           0.
    454,   156.663406,   56.3547821,           0.
    455,   159.818558,   79.2672806,           0.
    456,   160.001205,   75.0928802,           0.
    457,   70.1206665,   92.2796631,           0.
    458,   85.8560257,   50.2584915,           0.
    459,   73.8355408,   62.1269836,           0.
    460,   73.4891434,   78.5295868,           0.
    461,   73.5435562,   66.4249878,           0.
    462,   67.0363312,   90.5926971,           0.
    463,   70.2929459,   84.4088287,           0.
    464,   73.3885269,   74.5835648,           0.
    465,   90.2788391,   50.0025673,           0.
    466,   75.3822403,   88.5048294,           0.
    467,   137.070053,   84.8459702,           0.
    468,   153.064911,   84.8808517,           0.
    469,   133.117188,    84.864418,           0.
    470,   149.045441,   84.8154831,           0.
    471,   140.990738,   52.9897575,           0.
    472,    85.537468,    84.929039,           0.
    473,   141.026718,   84.8229523,           0.
    474,   137.030975,   52.9523849,           0.
    475,   145.020767,   84.8006058,           0.
    476,   81.5721741,   84.9374161,           0.
    477,      89.5028,   84.9153214,           0.
    478,   121.240875,   84.8842545,           0.
    479,   129.161713,   84.8751068,           0.
    480,   117.276489,   84.8856354,           0.
    481,   125.202484,   84.8808136,           0.
    482,    113.31105,   84.8869324,           0.
    483,   109.344666,   84.8890686,           0.
    484,    105.37693,   84.8931046,           0.
    485,   101.407967,   84.8998032,           0.
    486,   144.939285,   53.0653801,           0.
    487,   97.4387741,   84.9083939,           0.
    488,   133.069794,   52.9312439,           0.
    489,   96.8447647,   53.1230888,           0.
    490,    93.469986,   84.9134521,           0.
    491,   153.134369,   53.7914467,           0.
    492,    129.10643,   52.9203835,           0.
    493,   148.861542,   53.2035599,           0.
    494,   125.139839,   52.9149399,           0.
    495,    121.16996,   52.9115067,           0.
    496,   117.196556,   52.9077797,           0.
    497,   101.066475,   52.9699478,           0.
    498,   113.215927,   52.9032249,           0.
    499,   109.216309,   52.9021072,           0.
    500,   105.172859,   52.9186096,           0.
    501,   156.562363,   68.8667297,           0.
    502,   155.684708,   81.3916779,           0.
    503,   153.017776,   62.5209846,           0.
    504,   156.341339,   77.0474472,           0.
    505,   153.147491,   58.3025322,           0.
    506,   156.494843,   72.9876633,           0.
    507,   70.9723663,   88.5715866,           0.
    508,   156.559006,   85.1772919,           0.
    509,   76.8297272,   76.3614197,           0.
    510,   76.6564026,   72.5099335,           0.
    511,   73.6096115,   82.3636703,           0.
    512,   88.0625076,     53.88377,           0.
    513,   150.238159,   56.4180527,           0.
    514,   77.2350082,   84.5788956,           0.
    515,   135.077026,     81.41008,           0.
    516,   138.994797,   56.4316216,           0.
    517,   139.025772,   81.3836899,           0.
    518,   151.203445,   81.3801117,           0.
    519,   131.129425,    81.428627,           0.
    520,   142.942245,   56.4802246,           0.
    521,   135.036499,   56.3928261,           0.
    522,   143.006699,   81.3486252,           0.
    523,   147.083572,   81.2716751,           0.
    524,   83.4901428,   81.4876251,           0.
    525,   87.4861832,   81.4242935,           0.
    526,   119.257545,   81.4494019,           0.
    527,    127.17675,    81.439537,           0.
    528,   123.218796,   81.4456177,           0.
    529,   115.292557,   81.4514999,           0.
    530,    107.35743,   81.4590225,           0.
    531,   111.325676,   81.4545441,           0.
    532,    146.84549,   56.5505714,           0.
    533,   103.386765,   81.4666443,           0.
    534,   91.4760361,   81.4523239,           0.
    535,   131.079865,   56.3702507,           0.
    536,   99.4158249,   81.4749603,           0.
    537,   127.118683,   56.3584328,           0.
    538,    95.446373,   81.4716721,           0.
    539,   123.152031,   56.3519402,           0.
    540,   119.180077,   56.3467178,           0.
    541,   115.201622,   56.3403587,           0.
    542,   99.0621948,   56.4257889,           0.
    543,   111.210686,   56.3337593,           0.
    544,   103.151443,   56.3527565,           0.
    545,   107.194046,   56.3351669,           0.
    546,   152.999496,   66.7273407,           0.
    547,   149.162277,   60.1725197,           0.
    548,   152.935181,   74.9712524,           0.
    549,   152.945831,   70.8752518,           0.
    550,   76.8336182,   68.5724411,           0.
    551,   77.7230072,   60.0340004,           0.
    552,   77.1798019,   64.4303818,           0.
    553,    79.529213,   74.2381744,           0.
    554,   77.0118332,    80.275177,           0.
    555,   92.5328217,   53.5335159,           0.
    556,   137.102234,   77.9484558,           0.
    557,   133.181213,   77.9446411,           0.
    558,    80.030014,   81.8464127,           0.
    559,   140.959991,   59.9227982,           0.
    560,   136.960876,   59.9181976,           0.
    561,   141.035126,   77.9471359,           0.
    562,   149.281754,   77.3829346,           0.
    563,   94.9955368,   56.7428894,           0.
    564,   144.950531,   77.8809128,           0.
    565,   144.899261,   59.8935089,           0.
    566,    129.24614,    77.948494,           0.
    567,   132.968674,   59.8852234,           0.
    568,   85.3690872,   77.7979126,           0.
    569,   89.4805374,   77.9389954,           0.
    570,   121.331116,    77.960289,           0.
    571,   125.314476,   77.9427719,           0.
    572,   117.388596,   77.9517517,           0.
    573,   113.426506,   77.9518051,           0.
    574,    109.45723,   77.9552994,           0.
    575,   129.000931,   59.8604927,           0.
    576,   105.491608,   77.9489365,           0.
    577,   125.043488,   59.8432312,           0.
    578,   93.4691544,   77.9883499,           0.
    579,   121.082375,   59.8307686,           0.
    580,   97.4689484,   77.9616165,           0.
    581,   101.511658,    77.922905,           0.
    582,   117.110588,    59.820961,           0.
    583,   113.127228,   59.8110085,           0.
    584,   101.138153,   59.7435646,           0.
    585,   109.130341,   59.8010101,           0.
    586,   105.118408,   59.7873344,           0.
    587,   83.6020355,   54.2695465,           0.
    588,   80.0154572,   70.8282166,           0.
    589,    149.45166,   64.5644455,           0.
    590,   153.089279,   78.4346848,           0.
    591,    73.498436,   85.6855621,           0.
    592,   149.324066,   72.9396286,           0.
    593,   149.268738,   68.7290573,           0.
    594,   80.3700485,   66.8539352,           0.
    595,   80.9343033,   62.7673454,           0.
    596,   86.0756149,   57.7619743,           0.
    597,     90.69104,    57.859993,           0.
    598,   135.418503,   74.4606323,           0.
    599,   138.896545,   63.5937157,           0.
    600,   80.7949295,   77.9455185,           0.
    601,   139.264572,   74.6236649,           0.
    602,   134.749344,   63.5284195,           0.
    603,   131.501984,    74.400383,           0.
    604,   97.2567062,   59.7508774,           0.
    605,   142.996384,   74.6473083,           0.
    606,   130.728104,   63.4713058,           0.
    607,    127.56691,   74.3708725,           0.
    608,   87.5398026,   74.3803864,           0.
    609,   123.631042,   74.3527069,           0.
    610,   119.685196,   74.3421936,           0.
    611,   115.729759,   74.3356552,           0.
    612,   111.761505,   74.3339767,           0.
    613,   126.767914,    63.432991,           0.
    614,   91.4546356,   74.4636459,           0.
    615,   122.820038,   63.4072533,           0.
    616,    107.79776,   74.3133011,           0.
    617,   83.2640152,   73.6792679,           0.
    618,   95.4811172,   74.2994614,           0.
    619,   118.860687,   63.3909988,           0.
    620,   99.6475601,   74.1913376,           0.
    621,   103.795464,   74.2472839,           0.
    622,   114.887199,   63.3788223,           0.
    623,   110.903252,   63.3646507,           0.
    624,   106.917961,   63.3292084,           0.
    625,   102.923195,   63.2223854,           0.
    626,   83.9827652,   65.4451752,           0.
    627,   143.022751,   63.3875122,           0.
    628,   145.155334,   70.9788055,           0.
    629,   145.754288,   66.3717651,           0.
    630,   81.9214401,    58.537693,           0.
    631,   83.4510803,   69.3579407,           0.
    632,   146.458054,   62.8779526,           0.
    633,   146.341614,   74.7659225,           0.
    634,   86.9391403,   68.0882187,           0.
    635,   88.0878448,   60.7712631,           0.
    636,   141.197281,   67.7700195,           0.
    637,   137.910645,    71.117691,           0.
    638,    136.49649,   67.3287201,           0.
    639,   133.930161,   70.8677521,           0.
    640,    141.30484,   71.8274994,           0.
    641,   132.364944,   67.1728821,           0.
    642,   129.955215,   70.7681808,           0.
    643,    84.764595,   61.5817757,           0.
    644,   93.9620285,   59.9200897,           0.
    645,   99.0301361,   62.9971275,           0.
    646,   128.378662,   67.0991821,           0.
    647,     126.0131,   70.7173538,           0.
    648,   122.080521,    70.684021,           0.
    649,   118.130501,   70.6681137,           0.
    650,   89.4023666,   71.0469894,           0.
    651,   114.165268,   70.6593628,           0.
    652,   124.435364,   67.0557632,           0.
    653,   110.195358,   70.6408463,           0.
    654,   93.2587433,   70.8281097,           0.
    655,   120.486305,   67.0310516,           0.
    656,   97.5092163,   70.0337524,           0.
    657,    106.19986,   70.5830078,           0.
    658,   102.066574,   70.4218292,           0.
    659,   116.523903,   67.0163574,           0.
    660,   112.551369,   67.0011749,           0.
    661,   108.570305,   66.9638062,           0.
    662,   104.545197,   66.8553162,           0.
    663,    87.711235,   64.2594147,           0.
    664,    86.119278,   71.3105621,           0.
    665,   95.4130249,   62.7298164,           0.
    666,   100.490105,   66.5772324,           0.
    667,   91.0383835,   67.1268005,           0.
    668,   94.5143814,    67.834816,           0.
    669,   91.5432587,   62.5599709,           0.
    670,   93.8750763,   65.2368774,           0.
    671,   96.8053207,   65.9016037,           0.
    672,   52.7438583,   57.5771599,           0.
    673,   42.2645187,   50.0936432,           0.
    674,   48.9740105,   55.8227425,           0.
    675,   37.5878487,   43.0098991,           0.
    676,   39.7934685,   46.5908356,           0.
    677,   45.3748322,   53.3439331,           0.
    678,   56.4117279,   76.7952957,           0.
    679,   56.1933823,   96.7850342,           0.
    680,   56.2135925,   92.5528641,           0.
    681,   56.3994942,   84.5724945,           0.
    682,   56.4075012,   80.6830978,           0.
    683,    56.414959,   72.8995209,           0.
    684,   56.4420815,   68.9283218,           0.
    685,   56.6391144,   64.9514465,           0.
    686,   5.43839121,   98.3775024,           0.
    687,   9.77657795,   98.4298401,           0.
    688,    29.891304,    98.608284,           0.
    689,   13.9130297,   98.5617447,           0.
    690,   17.9293137,   98.5875702,           0.
    691,   21.9203548,   98.5968399,           0.
    692,   25.9067097,   98.6032944,           0.
    693,   33.8759842,   98.6113129,           0.
    694,    18.051527,   39.2061005,           0.
    695,   30.4727154,   39.2891197,           0.
    696,   22.0750999,   39.2033081,           0.
    697,   26.2333145,   39.2414818,           0.
    698,   34.9541664,   39.3555565,           0.
    699,    3.6388278,   41.9211998,           0.
    700,   3.70741153,   45.9893265,           0.
    701,   3.61852384,   50.2013931,           0.
    702,   3.58684921,   54.3710556,           0.
    703,   3.57908177,   58.5230408,           0.
    704,   3.57728601,    62.670105,           0.
    705,     3.577245,   66.8163681,           0.
    706,   3.57715702,   70.9625778,           0.
    707,   3.57661891,   75.1088409,           0.
    708,   3.57545257,   79.2551727,           0.
    709,   3.57274389,   83.4015656,           0.
    710,   3.60128307,   87.6072922,           0.
    711,   3.59077907,   91.7516098,           0.
    712,   33.0729179,   42.8720055,           0.
    713,   56.4980965,   58.5165672,           0.
    714,   56.3389359,   88.5057144,           0.
    715,   53.0417213,   74.8352356,           0.
    716,   53.0343323,   78.7352448,           0.
    717,   53.1791115,    66.765358,           0.
    718,   53.0730133,   70.8772202,           0.
    719,    53.018734,   82.6254425,           0.
    720,   31.8860092,   95.1630936,           0.
    721,    45.854496,   98.5190048,           0.
    722,   41.8608437,   98.5471954,           0.
    723,   37.8652306,   98.5951996,           0.
    724,   23.9187984,   95.1396713,           0.
    725,    15.896925,   95.0929031,           0.
    726,   11.8415518,   94.9602509,           0.
    727,   27.9037056,   95.1525421,           0.
    728,   19.9247189,   95.1203461,           0.
    729,   20.0882435,   42.6747971,           0.
    730,   10.1108837,   39.4802704,           0.
    731,   14.0813923,   39.2730637,           0.
    732,   28.5867615,   42.7777939,           0.
    733,   24.2630615,   42.7206612,           0.
    734,   3.72129488,   38.1287689,           0.
    735,   7.14077473,   77.1832886,           0.
    736,   7.73348427,   43.4525795,           0.
    737,   7.14362335,   68.8896027,           0.
    738,   7.14053154,   73.0363541,           0.
    739,   7.13501787,   81.3306656,           0.
    740,    7.2363739,   85.5894241,           0.
    741,   7.14875031,   56.4472694,           0.
    742,   7.38558722,   47.9621544,           0.
    743,   7.32195425,   52.1930695,           0.
    744,    7.1437068,   60.5962753,           0.
    745,   7.14177656,   64.7431641,           0.
    746,   7.23664904,    89.837822,           0.
    747,   45.0691185,   58.0015068,           0.
    748,    41.005146,     54.50243,           0.
    749,    38.093914,   50.3361435,           0.
    750,    35.483757,   46.5926132,           0.
    751,   49.3664856,   60.1516838,           0.
    752,   52.2728119,   94.8544235,           0.
    753,   53.6212921,   62.0401039,           0.
    754,   52.8532639,   90.4407196,           0.
    755,   49.7098732,   68.8560486,           0.
    756,   49.6778336,   72.8528976,           0.
    757,   49.6411171,   80.6754837,           0.
    758,   49.6578102,   76.7764053,           0.
    759,   52.9666367,   86.5148544,           0.
    760,   35.8694038,   95.1492767,           0.
    761,   43.8735657,   94.8860779,           0.
    762,    49.815876,   98.5336533,           0.
    763,   29.9044151,   91.7087708,           0.
    764,   21.9341908,   91.6688919,           0.
    765,   25.9231815,   91.6887207,           0.
    766,   17.8812408,   91.6458969,           0.
    767,   13.8394651,   91.6080322,           0.
    768,   39.8418159,   95.0438232,           0.
    769,   12.1167421,   42.8485107,           0.
    770,   22.1923885,   46.2241402,           0.
    771,   26.4777527,   46.2509155,           0.
    772,   16.0767536,   42.7190895,           0.
    773,   7.36271381,    94.342041,           0.
    774,   6.64423561,    39.740654,           0.
    775,   10.6948338,   62.6698532,           0.
    776,   10.8213587,   54.3870316,           0.
    777,   10.6938229,   66.8164139,           0.
    778,   10.6926126,   70.9635925,           0.
    779,   10.7136478,    58.524334,           0.
    780,   11.4487743,   49.9281197,           0.
    781,   10.6898203,   75.1119232,           0.
    782,   10.6858559,   79.2883987,           0.
    783,   10.7596684,   83.4644547,           0.
    784,   10.5495119,   46.0732193,           0.
    785,   11.3196306,   87.9510727,           0.
    786,   30.9078789,   46.4664192,           0.
    787,   14.0275803,    46.257164,           0.
    788,   57.2647171,   61.6013908,           0.
    789,    49.556572,   88.4563675,           0.
    790,   46.3016815,   70.8894348,           0.
    791,   46.2815514,   74.8152618,           0.
    792,   46.2547493,   78.7080612,           0.
    793,   49.7255096,   64.5738525,           0.
    794,   49.6001205,   84.5715485,           0.
    795,   49.7220917,   91.8923645,           0.
    796,   3.27837682,   95.2299347,           0.
    797,   33.8806953,   91.7053223,           0.
    798,   27.9343624,   88.2443314,           0.
    799,   47.9205666,   94.9259415,           0.
    800,    15.795352,   88.1077728,           0.
    801,   19.8986473,   88.0693283,           0.
    802,   23.9537811,   88.1871643,           0.
    803,   41.7811012,    91.491745,           0.
    804,   37.8453674,   91.6375046,           0.
    805,   24.1311054,   49.7985764,           0.
    806,   18.0539074,   46.2634773,           0.
    807,   10.3200026,   91.7398453,           0.
    808,   14.2296991,   64.7429047,           0.
    809,   14.2303543,   60.5960693,           0.
    810,   14.2277584,   68.8904495,           0.
    811,    14.242919,    56.468174,           0.
    812,    13.976675,   85.0245285,           0.
    813,   14.0667391,   52.8984413,           0.
    814,   14.2249947,   73.0400543,           0.
    815,   14.2060719,   77.2516708,           0.
    816,    14.176425,   81.4277496,           0.
    817,   46.0493431,   90.9278183,           0.
    818,   15.9213362,    49.848053,           0.
    819,   33.2843056,   50.7952728,           0.
    820,   46.1764603,   86.6022568,           0.
    821,   42.8909645,   72.8657379,           0.
    822,   42.8565407,   76.7719269,           0.
    823,   46.2913666,   66.7609253,           0.
    824,   46.1328659,   82.6462326,           0.
    825,   31.9087448,   88.2625732,           0.
    826,    25.911932,   84.6312256,           0.
    827,   17.7301388,   84.0139465,           0.
    828,   39.8409615,   88.2212067,           0.
    829,   21.9805069,   84.5272217,           0.
    830,   35.8868408,   88.2613297,           0.
    831,    28.429245,   50.1722717,           0.
    832,   20.0155811,   49.7865448,           0.
    833,   17.7464733,    62.668293,           0.
    834,   17.7460766,   66.8163605,           0.
    835,   17.8376446,   58.4127197,           0.
    836,   17.7548409,   70.9969025,           0.
    837,    17.945673,   53.7721901,           0.
    838,   17.7000332,   75.2778473,           0.
    839,   17.5681934,   79.5032272,           0.
    840,   43.2293587,   88.3951797,           0.
    841,   36.5434494,   54.1367912,           0.
    842,   42.2612228,   84.7751083,           0.
    843,   46.0848427,   62.5399361,           0.
    844,   39.4606857,   74.8420563,           0.
    845,   42.9183159,   68.7522507,           0.
    846,   42.7713814,   80.6291733,           0.
    847,   33.8935966,   84.7935715,           0.
    848,    29.857975,   84.7158127,           0.
    849,   20.4307919,    81.335228,           0.
    850,   37.9165802,   84.8718338,           0.
    851,   23.7290211,   80.9125137,           0.
    852,   21.2474384,   64.7408524,           0.
    853,   21.3626385,   60.5327415,           0.
    854,   21.2728539,   68.9576569,           0.
    855,   21.6084003,   56.2923355,           0.
    856,   21.3100433,   73.4049225,           0.
    857,   21.0005074,   77.7947311,           0.
    858,   25.6088676,   54.0453148,           0.
    859,    39.662178,   82.0354843,           0.
    860,     42.97435,   64.5932083,           0.
    861,   39.4878464,   70.7507629,           0.
    862,   39.4550285,   78.7030029,           0.
    863,   31.7361507,   81.2358322,           0.
    864,   35.9938583,   80.9777908,           0.
    865,   27.7085342,   80.8875275,           0.
    866,   21.8619251,   52.7389908,           0.
    867,   30.1063461,   54.0889206,           0.
    868,   24.7960491,   62.6452179,           0.
    869,   24.7935162,   66.8515015,           0.
    870,   24.9592762,    58.534256,           0.
    871,    24.992548,   71.2768478,           0.
    872,   25.3433208,   76.4300766,           0.
    873,    38.272995,   57.7129784,           0.
    874,   53.1781273,   98.8580017,           0.
    875,   39.5270538,   66.5254059,           0.
    876,   36.0295067,   72.8333969,           0.
    877,   36.1508789,   76.7851715,           0.
    878,   29.9442692,   77.5245209,           0.
    879,   28.3223419,   60.5687447,           0.
    880,   28.4497948,   64.6955109,           0.
    881,   28.6524906,   68.9365921,           0.
    882,   41.4618149,   58.6511383,           0.
    883,   35.1150284,   56.9276199,           0.
    884,   39.5486565,   61.9131546,           0.
    885,   43.0277557,   61.1397858,           0.
    886,   35.9527168,   68.6849289,           0.
    887,   35.4454651,   60.2357712,           0.
    888,   28.1603107,   57.0174522,           0.
    889,   29.0112247,   73.3406677,           0.
    890,   32.0472908,   62.4099617,           0.
    891,   32.2361641,   66.6767426,           0.
    892,   32.7980461,   74.9571915,           0.
    893,   35.7928925,   64.4076614,           0.
    894,   32.4466934,   70.9049225,           0.
    895,   31.7967262,   57.9774666,           0.
    896,   33.3246384,   78.2961044,           0.
    897,   33.3691711,   54.7852135,           0.
    898,   81.9282455,   28.4852829,           0.
    899,   70.6307373,   15.6940489,           0.
    900,   66.7027283,   13.8887472,           0.
    901,   79.8279953,   24.7549419,           0.
    902,   74.2393417,   18.2315922,           0.
    903,   77.3300095,   21.2667885,           0.
    904,   152.962875,   3.43174577,           0.
    905,   125.207817,    3.4342227,           0.
    906,   113.312317,   3.43422842,           0.
    907,   129.172989,   3.43425322,           0.
    908,   109.347137,   3.43422365,           0.
    909,   77.6257401,   3.42492819,           0.
    910,   145.033661,   3.43425417,           0.
    911,   89.5210342,   3.42863727,           0.
    912,    160.87616,   3.41701293,           0.
    913,   156.938843,   3.42628479,           0.
    914,   148.998642,    3.4338696,           0.
    915,   137.103333,    3.4342339,           0.
    916,   101.416595,   3.43327355,           0.
    917,   93.4860764,   3.43019056,           0.
    918,   85.5559082,   3.42670321,           0.
    919,   81.5907898,   3.42469192,           0.
    920,    73.575119,   3.50913644,           0.
    921,   69.4931946,   3.60739422,           0.
    922,   65.2555847,   3.76116395,           0.
    923,   141.068497,   3.43428302,           0.
    924,   133.138153,    3.4342742,           0.
    925,   121.242653,   3.43426085,           0.
    926,   117.277481,    3.4342823,           0.
    927,   105.381889,    3.4339633,           0.
    928,   97.4511642,   3.43180275,           0.
    929,   167.231094,   30.2979202,           0.
    930,   167.243851,   25.9766235,           0.
    931,   167.348663,   21.8613682,           0.
    932,   167.366547,   17.8660183,           0.
    933,   167.332062,   13.8097267,           0.
    934,   167.224365,   9.62810612,           0.
    935,   167.205948,   5.29559278,           0.
    936,   160.879425,   32.1733398,           0.
    937,   152.941208,   32.2738037,           0.
    938,   137.056488,   32.2820473,           0.
    939,   144.997849,   32.2820549,           0.
    940,   117.203087,   32.2820435,           0.
    941,   125.144447,   32.2820511,           0.
    942,   113.232414,   32.2820663,           0.
    943,   129.115128,   32.2820702,           0.
    944,   109.261734,   32.2820892,           0.
    945,   101.320145,   32.2828178,           0.
    946,   97.3490067,    32.284977,           0.
    947,   93.2025833,   32.2690048,           0.
    948,   84.5327377,   32.1218529,           0.
    949,    156.93129,   32.2344017,           0.
    950,   148.968857,   32.2807007,           0.
    951,   141.027161,    32.282093,           0.
    952,     133.0858,   32.2820892,           0.
    953,   121.173767,    32.282093,           0.
    954,   105.291008,   32.2822647,           0.
    955,   88.9510498,   32.2245216,           0.
    956,   62.7148399,   12.0577822,           0.
    957,    111.32972,   6.86872625,           0.
    958,   127.190407,   6.86875486,           0.
    959,   150.980972,   6.86796331,           0.
    960,    75.606636,   6.85326338,           0.
    961,   91.5018616,   6.85616779,           0.
    962,   164.224625,   3.17494607,           0.
    963,   147.016129,   6.86862898,           0.
    964,   135.120743,   6.86876869,           0.
    965,   115.294899,   6.86878967,           0.
    966,   95.4668579,   6.86061621,           0.
    967,   83.5722198,   6.84603548,           0.
    968,    71.669838,   7.07949591,           0.
    969,   139.085907,   6.86880064,           0.
    970,   103.398613,   6.86721325,           0.
    971,   87.5367355,   6.85028744,           0.
    972,   155.007141,   6.86601782,           0.
    973,     79.57827,   6.84792137,           0.
    974,   143.051056,   6.86882257,           0.
    975,   123.225235,   6.86880541,           0.
    976,   119.260071,   6.86885309,           0.
    977,   107.364281,   6.86835909,           0.
    978,   99.4324646,   6.86438274,           0.
    979,   158.997513,   6.85696125,           0.
    980,   131.155579,   6.86882734,           0.
    981,    163.90097,   19.8904724,           0.
    982,   163.838226,   23.9387836,           0.
    983,   163.771591,   15.7984905,           0.
    984,   163.676437,   11.6694698,           0.
    985,   127.129791,   28.8439484,           0.
    986,   95.1756668,    28.842308,           0.
    987,   146.983231,   28.8437042,           0.
    988,   115.217751,   28.8439312,           0.
    989,    150.95459,   28.8409214,           0.
    990,   135.071152,    28.843935,           0.
    991,   103.304947,    28.845295,           0.
    992,   107.276215,    28.844347,           0.
    993,   154.984024,   28.6826706,           0.
    994,   131.100464,    28.843996,           0.
    995,   158.999435,     28.59412,           0.
    996,   111.247032,   28.8440952,           0.
    997,   99.3015442,   28.8471889,           0.
    998,   90.8637466,   28.8013725,           0.
    999,   139.041824,   28.8439751,           0.
   1000,   143.012512,   28.8439693,           0.
   1001,   119.188431,   28.8439732,           0.
   1002,   123.159111,    28.844017,           0.
   1003,   63.5125122,   7.60259008,           0.
   1004,   84.1284103,   24.9298878,           0.
   1005,   74.8646469,   13.7844429,           0.
   1006,   70.1832733,   11.1585407,           0.
   1007,   81.8813324,   20.6160622,           0.
   1008,   78.2770844,   17.3690414,           0.
   1009,   163.262802,   7.14114904,           0.
   1010,   67.6915894,   7.27604151,           0.
   1011,   86.4812317,   28.6514034,           0.
   1012,   129.172989,   10.3036728,           0.
   1013,   113.312309,   10.3036518,           0.
   1014,   125.207817,   10.3037195,           0.
   1015,   109.346779,   10.3033466,           0.
   1016,   137.103317,   10.3036928,           0.
   1017,   105.380432,   10.3018818,           0.
   1018,   133.138153,   10.3037548,           0.
   1019,   117.277481,   10.3037291,           0.
   1020,   141.068481,   10.3037357,           0.
   1021,   121.242653,   10.3037901,           0.
   1022,     145.0336,   10.3037405,           0.
   1023,   148.998596,   10.3036089,           0.
   1024,   153.055389,   10.2692986,           0.
   1025,   157.104462,   10.1875811,           0.
   1026,    85.558136,   10.2573957,           0.
   1027,   81.5674973,   10.2604036,           0.
   1028,   77.5155487,   10.2218218,           0.
   1029,   73.9679871,   9.81951237,           0.
   1030,   101.413307,    10.298275,           0.
   1031,   89.5159302,   10.2730322,           0.
   1032,   93.4801712,   10.2840261,           0.
   1033,   97.4460831,   10.2920504,           0.
   1034,   159.686417,   13.6233883,           0.
   1035,   160.340332,   17.9597416,           0.
   1036,   160.518661,   21.9822445,           0.
   1037,   163.316528,   28.4097958,           0.
   1038,   133.092133,   25.2428246,           0.
   1039,   105.300514,    25.243763,           0.
   1040,   117.212067,   25.2428322,           0.
   1041,   113.244278,   25.2031231,           0.
   1042,   129.123123,   25.2156372,           0.
   1043,   125.154762,   25.1818123,           0.
   1044,   109.276123,    25.169529,           0.
   1045,   137.064209,    25.185976,           0.
   1046,   141.034348,   25.1744156,           0.
   1047,   121.186783,   25.1489773,           0.
   1048,   145.003616,    25.189537,           0.
   1049,   148.973236,   25.2059727,           0.
   1050,   152.869568,   25.1072922,           0.
   1051,   157.073395,   24.5068531,           0.
   1052,   101.323189,   25.1912174,           0.
   1053,   97.2420883,   25.1960373,           0.
   1054,   92.9321823,   25.1525402,           0.
   1055,   88.5591049,   25.0660248,           0.
   1056,   91.4541931,   13.7673759,           0.
   1057,   87.5141983,   13.8061209,           0.
   1058,   151.136612,    13.850194,           0.
   1059,   155.262543,    13.678956,           0.
   1060,   143.051025,   13.8477364,           0.
   1061,    147.05719,   13.8954582,           0.
   1062,   111.323212,    13.838685,           0.
   1063,   127.185677,   13.8458424,           0.
   1064,    107.35508,   13.8562403,           0.
   1065,   131.150223,   13.8685684,           0.
   1066,   115.287422,    13.866663,           0.
   1067,   119.252586,   13.8776531,           0.
   1068,   123.218117,   13.8834581,           0.
   1069,   135.116013,    13.868926,           0.
   1070,   139.081985,   13.8912439,           0.
   1071,    95.408783,    13.829423,           0.
   1072,   83.5781937,   13.7210703,           0.
   1073,   79.5915375,   13.6616192,           0.
   1074,   160.545517,   9.89570999,           0.
   1075,    103.38385,   13.8721685,           0.
   1076,   99.3985138,   13.8862038,           0.
   1077,   157.125153,   20.0549603,           0.
   1078,   157.184586,   16.6073437,           0.
   1079,   160.749252,   25.4863605,           0.
   1080,   150.942673,   21.4610443,           0.
   1081,   154.303848,   21.7699642,           0.
   1082,   147.011703,   21.3920555,           0.
   1083,    143.03566,   21.3492451,           0.
   1084,    115.25135,   21.3779087,           0.
   1085,    131.12381,   21.3932514,           0.
   1086,    127.15731,   21.3535213,           0.
   1087,   107.313797,   21.3631134,           0.
   1088,   111.284561,   21.3436661,           0.
   1089,   119.220444,   21.3604984,           0.
   1090,    123.18988,   21.3357582,           0.
   1091,   135.093475,   21.3598404,           0.
   1092,   139.063461,   21.3488083,           0.
   1093,   103.336426,   21.3664551,           0.
   1094,   95.1205826,   21.3024731,           0.
   1095,   99.2935638,   21.3469143,           0.
   1096,   164.225906,   32.4643936,           0.
   1097,   90.5328827,   21.0372372,           0.
   1098,   85.5083847,   17.5820637,           0.
   1099,   81.7673035,   16.5899715,           0.
   1100,   89.3772507,    17.176178,           0.
   1101,    153.57692,   17.8538952,           0.
   1102,   149.127563,   17.6608849,           0.
   1103,   145.057465,   17.6056499,           0.
   1104,   141.063507,   17.5962563,           0.
   1105,   133.121948,   17.5968227,           0.
   1106,   137.090057,   17.6103172,           0.
   1107,   109.320946,   17.5678253,           0.
   1108,   113.287659,   17.5854111,           0.
   1109,   125.188675,    17.584877,           0.
   1110,    117.25396,   17.6005535,           0.
   1111,   121.220612,   17.6071339,           0.
   1112,   129.154602,   17.6071472,           0.
   1113,   93.2100677,   17.4328022,           0.
   1114,   97.3006439,   17.5564995,           0.
   1115,   105.347076,   17.5944958,           0.
   1116,   101.343346,   17.6037903,           0.
   1117,   86.4307251,   21.4456978,           0.
   1118,   87.9623108,   19.3102932,           0.
   1119,   66.1609879,     10.39674,           0.
   1120,   45.2992287,   18.3014126,           0.
   1121,   37.5648499,   28.4671612,           0.
   1122,   52.2601891,   13.7393713,           0.
   1123,   48.6667786,   15.7787991,           0.
   1124,   39.7771072,   24.8619213,           0.
   1125,    42.306263,   21.4406128,           0.
   1126,   3.40402222,   13.9485607,           0.
   1127,    3.4348402,   17.8693409,           0.
   1128,   3.55427742,   6.25952768,           0.
   1129,   3.50534797,   21.9245663,           0.
   1130,   3.64826512,   26.1135941,           0.
   1131,   3.66687536,   30.4362106,           0.
   1132,   53.4980164,   3.40516567,           0.
   1133,   49.7984886,   3.40329885,           0.
   1134,   45.9126778,   3.52677965,           0.
   1135,   41.8607292,     3.454633,           0.
   1136,    37.864563,   3.44338226,           0.
   1137,   33.8773689,   3.44250965,           0.
   1138,   29.8916588,   3.44415903,           0.
   1139,   25.9062424,   3.44628119,           0.
   1140,   21.9206467,   3.44838881,           0.
   1141,   17.9348602,   3.44966316,           0.
   1142,   13.9138708,   3.38048768,           0.
   1143,   10.4379387,   2.95515013,           0.
   1144,   55.7814827,   11.1487265,           0.
   1145,   14.0413265,   32.2786484,           0.
   1146,   18.0404453,   32.2572784,           0.
   1147,   30.4627266,   32.1944427,           0.
   1148,   22.0740147,   32.2507858,           0.
   1149,   26.2078838,   32.2352142,           0.
   1150,   34.9238815,   32.1051598,           0.
   1151,   51.9177132,   9.55611897,           0.
   1152,   3.44575167,   10.0889854,           0.
   1153,   3.78878069,   2.46630168,           0.
   1154,   6.92540073,    19.973793,           0.
   1155,   6.95857143,   15.9522181,           0.
   1156,   7.05935764,   24.0923824,           0.
   1157,    57.263073,   3.74687076,           0.
   1158,   19.9287167,   6.89729834,           0.
   1159,     51.69524,   6.17217016,           0.
   1160,   39.8710861,    6.8759284,           0.
   1161,   27.9009113,   6.88676214,           0.
   1162,   15.7296629,   6.87563705,           0.
   1163,    43.895359,   6.94501686,           0.
   1164,   48.1985245,   7.35735655,           0.
   1165,   31.8859882,    6.8806119,           0.
   1166,    35.874073,   6.87579679,           0.
   1167,   11.0993567,   6.68991709,           0.
   1168,   23.9156437,   6.89210653,           0.
   1169,   10.0760775,   32.3034363,           0.
   1170,   15.9978304,    28.700304,           0.
   1171,   6.68326473,   32.5575104,           0.
   1172,   20.0601482,   28.7737389,           0.
   1173,   28.4465675,   28.7411919,           0.
   1174,   24.1658249,    28.776762,           0.
   1175,    38.211731,   21.1998863,           0.
   1176,   44.4377747,   13.9536896,           0.
   1177,    41.177372,   17.7023716,           0.
   1178,   35.4351883,   24.8597107,           0.
   1179,   7.30565643,   4.46077013,           0.
   1180,   54.9896774,   7.00662184,           0.
   1181,   7.62803507,   28.5928402,           0.
   1182,   48.4926224,   11.7437401,           0.
   1183,   10.4426365,    18.117527,           0.
   1184,    10.357482,   22.1446552,           0.
   1185,   6.93927765,   12.0911236,           0.
   1186,   17.7731552,   10.3235769,           0.
   1187,    13.513298,   10.2917738,           0.
   1188,   33.8360405,   10.2868786,           0.
   1189,   45.3901901,   10.0598459,           0.
   1190,   37.8208313,   10.3019085,           0.
   1191,   29.8817062,   10.3050585,           0.
   1192,   41.8631096,   10.3251657,           0.
   1193,   21.8903522,   10.3334665,           0.
   1194,    25.905098,   10.3263311,           0.
   1195,   11.9604044,   28.7290306,           0.
   1196,    18.081749,    25.134819,           0.
   1197,   22.0823822,   25.1507626,           0.
   1198,   26.3257561,   25.1147404,           0.
   1199,   32.9428787,   28.6038036,           0.
   1200,   13.6886492,   20.2118034,           0.
   1201,   7.03588438,   8.31565857,           0.
   1202,   11.0088902,   13.8640308,           0.
   1203,   10.1581621,   25.6526146,           0.
   1204,   9.91934109,   10.2505007,           0.
   1205,   27.9428196,   13.8378944,           0.
   1206,   31.8354187,    13.670064,           0.
   1207,   15.5268555,   13.7785292,           0.
   1208,   39.6664352,   13.9076605,           0.
   1209,   35.6329842,   13.7090321,           0.
   1210,   23.9123726,   13.9165401,           0.
   1211,   19.7058792,   13.9693117,           0.
   1212,   30.8124847,   24.8881226,           0.
   1213,   13.8298445,    24.637455,           0.
   1214,   24.1129894,   21.3647556,           0.
   1215,   19.9957161,   21.5005074,           0.
   1216,   36.9338913,   17.3042774,           0.
   1217,    33.356369,   20.4957104,           0.
   1218,     13.58881,   16.7587452,           0.
   1219,   30.1878815,   17.2428207,           0.
   1220,   26.0691051,   17.5483608,           0.
   1221,   33.5893097,   16.4843807,           0.
   1222,   28.4774303,   21.1090851,           0.
   1223,   17.2751522,   17.9642525,           0.
   1224,   21.8452015,   17.7106209,           0.
   1225,   16.5742226,   21.8897667,           0.
*Element, type=S3
   1, 507, 462, 408
   2, 284,  94, 215
   3, 257,  88, 256
   4, 245,  31,  32
   5, 259,  86, 258
   6, 215,  13,  14
   7, 280,  16,  17
   8, 216,  27,  28
   9, 281,  18, 217
  10, 217,  18,  19
  11, 591, 463, 511
  12, 218, 217,  19
  13, 219, 218,  20
  14, 344, 221, 222
  15, 222, 221,  22
  16, 222,  23,  24
  17,  23,   2,  24
  18,  30,   3,  31
  19, 223, 216,  28
  20, 224,  27, 216
  21, 225, 222,  24
  22,  52,   4,  53
  23, 226,  52,  53
  24, 252,  55, 251
  25, 227,  50,  51
  26, 228,  49,  50
  27, 229,  48,  49
  28, 230,  47,  48
  29, 231,  46,  47
  30, 398, 330, 397
  31, 233,  45, 232
  32, 234,  44, 233
  33, 235,  43, 234
  34, 236,  42, 235
  35, 237,  41, 236
  36, 237,  40,  41
  37, 239,  38, 214
  38, 240,  37, 239
  39, 286, 259, 258
  40, 240,  36,  37
  41, 241,  35,  36
  42, 243,  34, 242
  43, 245,  32, 244
  44,  68,  67,   5
  45, 276,  68,  69
  46, 287, 274, 273
  47, 289, 272, 271
  48, 288, 287, 273
  49, 334, 326,  64
  50, 334,  64,  65
  51, 325,  61,  62
  52, 392, 246, 325
  53, 329, 247, 328
  54, 248,  59, 247
  55, 433, 432, 386
  56, 330, 248, 329
  57, 491, 434, 452
  58, 411,  53,  54
  59,  94,   1,  13
  60, 215,  94,  13
  61, 283, 253,  92
  62, 283,  92,  93
  63, 254,  91, 253
  64, 255,  90, 254
  65, 224, 220,  26
  66, 256,  89, 255
  67, 290, 257, 256
  68, 291, 259, 286
  69, 260,  85, 259
  70, 261,  84, 260
  71, 292, 263, 262
  72, 293, 263, 292
  73, 294, 264, 293
  74, 295, 265, 294
  75, 265,  80, 264
  76, 266,  79, 265
  77, 267,  78, 266
  78, 296, 269, 268
  79, 270,  75, 269
  80, 271,  74, 270
  81, 272,  73, 271
  82, 273,  72, 272
  83, 274,  71, 273
  84, 275,  70, 274
  85, 276,  69, 275
  86, 214,  38,  39
  87, 238,  39,  40
  88, 341,  14,  15
  89, 347,  16, 280
  90, 223,  28,  29
  91, 402, 345, 277
  92, 218,  19,  20
  93, 349, 282, 348
  94, 219,  20,  21
  95, 278, 219, 221
  96, 221,  21,  22
  97, 220,  25,  26
  98, 224,  26,  27
  99, 340, 224, 338
 100, 221, 219,  21
 101, 222,  22,  23
 102, 225,  24,  25
 103, 344, 225, 337
 104, 277,  30, 245
 105, 244,  33, 243
 106, 490, 430, 431
 107, 297, 254, 285
 108, 225,  25, 220
 109, 337, 225, 220
 110, 227,  51, 226
 111, 226,  51,  52
 112, 251,  56, 250
 113, 228,  50, 227
 114, 250,  57, 249
 115, 229,  49, 228
 116, 249,  58, 248
 117, 230,  48, 229
 118, 247,  60, 246
 119, 231,  47, 230
 120, 370, 305, 369
 121, 232,  46, 231
 122, 269,  76, 268
 123, 232,  45,  46
 124, 268,  77, 267
 125, 233,  44,  45
 126, 264,  81, 263
 127, 234,  43,  44
 128, 263,  82, 262
 129, 235,  42,  43
 130, 262,  83, 261
 131, 236,  41,  42
 132, 377, 376, 321
 133, 302, 261, 260
 134, 238, 214,  39
 135, 238,  40, 237
 136, 258,  87, 257
 137, 239,  37,  38
 138, 299, 257, 290
 139, 241,  36, 240
 140, 316, 242, 241
 141, 242,  35, 241
 142, 308, 243, 242
 143, 242,  34,  35
 144, 317, 243, 308
 145, 243,  33,  34
 146, 428, 427, 361
 147, 244,  32,  33
 148, 402, 244, 317
 149, 245,  30,  31
 150, 246,  60,  61
 151, 368, 296, 359
 152, 309, 307, 230
 153, 247,  59,  60
 154, 318, 309, 229
 155, 248,  58,  59
 156, 319, 318, 228
 157, 249,  57,  58
 158, 411, 391, 226
 159, 250,  56,  57
 160, 332, 250, 331
 161, 251,  55,  56
 162, 411, 252, 391
 163, 252,  54,  55
 164, 253,  91,  92
 165, 408, 347, 280
 166, 254,  90,  91
 167, 282, 279, 218
 168, 297, 255, 254
 169, 255,  89,  90
 170, 364, 362, 286
 171, 256,  88,  89
 172, 383, 381, 308
 173, 257,  87,  88
 174, 362, 361, 291
 175, 258,  86,  87
 176, 298, 292, 262
 177, 259,  85,  86
 178, 302, 260, 291
 179, 260,  84,  85
 180, 320, 314, 239
 181, 261,  83,  84
 182, 375, 374, 310
 183, 262,  82,  83
 184, 376, 375, 315
 185, 263,  81,  82
 186, 357, 294, 354
 187, 264,  80,  81
 188, 379, 378, 322
 189, 265,  79,  80
 190, 303, 266, 295
 191, 266,  78,  79
 192, 378, 377, 311
 193, 267,  77,  78
 194, 323, 312, 233
 195, 268,  76,  77
 196, 324, 231, 307
 197, 269,  75,  76
 198, 289, 288, 272
 199, 270,  74,  75
 200, 288, 273, 272
 201, 271,  73,  74
 202, 405, 395, 394
 203, 272,  72,  73
 204, 335, 334,  65
 205, 273,  71,  72
 206, 306, 274, 287
 207, 274,  70,  71
 208, 342, 275, 306
 209, 275,  69,  70
 210, 336,  67, 276
 211, 276,  67,  68
 212, 277, 223,  29
 213, 277,  29,  30
 214, 282, 219, 278
 215, 403, 348, 278
 216, 429, 416, 363
 217, 279, 217, 218
 218, 281,  17,  18
 219, 281, 280,  17
 220, 350, 217, 279
 221, 350, 346, 281
 222, 282, 218, 219
 223, 348, 282, 278
 224, 284, 283,  93
 225, 343, 215, 341
 226, 284,  93,  94
 227, 343, 284, 215
 228, 285, 254, 253
 229, 352, 253, 283
 230, 299, 258, 257
 231, 314, 313, 240
 232, 395, 326, 334
 233, 327,  63, 326
 234, 305, 271, 270
 235, 371, 289, 370
 236, 300, 269, 296
 237, 508, 502, 450
 238, 301, 256, 255
 239, 431, 367, 418
 240, 320, 214, 310
 241, 291, 260, 259
 242, 298, 262, 261
 243, 321, 236, 311
 244, 355, 354, 293
 245, 293, 264, 263
 246, 420, 412, 359
 247, 294, 265, 264
 248, 359, 304, 353
 249, 295, 266, 265
 250, 304, 268, 267
 251, 415, 368, 412
 252, 365, 363, 297
 253, 510, 509, 464
 254, 302, 298, 261
 255, 358, 355, 292
 256, 429, 363, 365
 257, 299, 286, 258
 258, 369, 300, 368
 259, 300, 270, 269
 260, 301, 290, 256
 261, 301, 255, 297
 262, 361, 360, 302
 263, 360, 358, 298
 264, 303, 267, 266
 265, 423, 357, 421
 266, 304, 296, 268
 267, 304, 267, 303
 268, 305, 289, 271
 269, 305, 270, 300
 270, 394, 342, 351
 271, 306, 275, 274
 272, 307, 231, 230
 273, 309, 230, 229
 274, 339, 338, 216
 275, 384, 383, 316
 276, 318, 229, 228
 277, 331, 249, 330
 278, 310, 214, 238
 279, 315, 238, 237
 280, 311, 236, 235
 281, 322, 235, 234
 282, 312, 234, 233
 283, 323, 233, 232
 284, 313, 241, 240
 285, 314, 240, 239
 286, 320, 239, 214
 287, 385, 314, 382
 288, 315, 310, 238
 289, 321, 315, 237
 290, 316, 308, 242
 291, 316, 241, 313
 292, 402, 245, 244
 293, 317, 244, 243
 294, 319, 228, 227
 295, 397, 329, 396
 296, 391, 319, 227
 297, 333, 252, 251
 298, 422, 421, 354
 299, 382, 320, 374
 300, 321, 237, 236
 301, 494, 440, 492
 302, 322, 311, 235
 303, 322, 234, 312
 304, 324, 323, 232
 305, 435, 380, 432
 306, 324, 232, 231
 307, 396, 329, 328
 308, 325, 246,  61
 309, 327,  62,  63
 310, 326,  63,  64
 311, 405, 394, 351
 312, 508, 468, 502
 313, 327, 325,  62
 314, 328, 247, 246
 315, 518, 502, 468
 316, 390, 318, 319
 317, 329, 248, 247
 318, 390, 387, 318
 319, 330, 249, 248
 320, 453, 397, 451
 321, 331, 250, 249
 322, 399, 331, 398
 323, 332, 251, 250
 324, 448, 391, 333
 325, 333, 251, 332
 326, 335,  65,  66
 327, 405, 351, 373
 328, 336, 335,  66
 329, 342, 336, 276
 330, 336,  66,  67
 331, 342, 276, 275
 332, 403, 344, 337
 333, 340, 220, 224
 334, 338, 224, 216
 335, 339, 216, 223
 336, 345, 339, 223
 337, 381, 317, 308
 338, 472, 418, 416
 339, 340, 337, 220
 340, 341, 215,  14
 341, 347, 341,  15
 342, 351, 342, 306
 343, 342, 335, 336
 344, 352, 283, 343
 345, 343, 283, 284
 346, 344, 278, 221
 347, 344, 222, 225
 348, 345, 223, 277
 349, 404, 402, 317
 350, 346, 280, 281
 351, 409, 406, 350
 352, 347,  15,  16
 353, 408, 280, 346
 354, 407, 349, 348
 355, 403, 278, 344
 356, 365, 297, 285
 357, 349, 279, 282
 358, 350, 281, 217
 359, 409, 279, 349
 360, 373, 306, 287
 361, 372, 288, 371
 362, 352, 285, 253
 363, 507, 408, 463
 364, 353, 304, 303
 365, 356, 303, 295
 366, 354, 294, 293
 367, 355, 293, 292
 368, 358, 292, 298
 369, 425, 422, 355
 370, 356, 353, 303
 371, 357, 356, 295
 372, 357, 295, 294
 373, 443, 376, 441
 374, 360, 298, 302
 375, 447, 374, 442
 376, 380, 379, 312
 377, 359, 296, 304
 378, 361, 302, 291
 379, 385, 384, 313
 380, 362, 291, 286
 381, 427, 426, 360
 382, 364, 286, 299
 383, 465, 458, 404
 384, 366, 301, 363
 385, 363, 301, 297
 386, 367, 299, 290
 387, 431, 364, 367
 388, 410, 285, 352
 389, 507, 466, 410
 390, 366, 290, 301
 391, 476, 472, 416
 392, 367, 364, 299
 393, 367, 290, 366
 394, 386, 380, 323
 395, 368, 300, 296
 396, 451, 397, 396
 397, 369, 305, 300
 398, 468, 419, 414
 399, 370, 289, 305
 400, 413, 371, 370
 401, 371, 288, 289
 402, 414, 371, 413
 403, 372, 287, 288
 404, 373, 351, 306
 405, 373, 287, 372
 406, 374, 320, 310
 407, 375, 310, 315
 408, 376, 315, 321
 409, 480, 478, 421
 410, 377, 321, 311
 411, 441, 377, 440
 412, 378, 311, 322
 413, 492, 439, 488
 414, 379, 322, 312
 415, 440, 378, 439
 416, 380, 312, 323
 417, 439, 379, 435
 418, 386, 323, 324
 419, 474, 432, 471
 420, 465, 381, 436
 421, 383, 308, 316
 422, 426, 425, 358
 423, 382, 314, 320
 424, 384, 316, 313
 425, 485, 484, 427
 426, 385, 313, 314
 427, 437, 436, 383
 428, 447, 382, 374
 429, 438, 437, 384
 430, 389, 324, 307
 431, 486, 433, 445
 432, 388, 309, 387
 433, 387, 309, 318
 434, 486, 471, 433
 435, 388, 307, 309
 436, 389, 386, 324
 437, 389, 307, 388
 438, 448, 390, 319
 439, 400, 333, 332
 440, 391, 227, 226
 441, 391, 252, 333
 442, 392, 328, 246
 443, 401, 325, 327
 444, 393, 327, 326
 445, 450, 395, 405
 446, 394, 334, 335
 447, 394, 335, 342
 448, 395, 393, 326
 449, 395, 334, 394
 450, 449, 328, 392
 451, 590, 548, 504
 452, 452, 434, 400
 453, 397, 330, 329
 454, 434, 390, 400
 455, 398, 331, 330
 456, 452, 400, 399
 457, 399, 332, 331
 458, 448, 400, 390
 459, 400, 332, 399
 460, 401, 392, 325
 461, 401, 327, 393
 462, 402, 277, 245
 463, 404, 317, 381
 464, 459, 337, 340
 465, 595, 594, 552
 466, 458, 345, 404
 467, 404, 345, 402
 468, 419, 373, 372
 469, 556, 517, 515
 470, 406, 346, 350
 471, 591, 514, 466
 472, 461, 348, 403
 473, 588, 553, 510
 474, 463, 346, 406
 475, 462, 457, 343
 476, 409, 350, 279
 477, 464, 349, 407
 478, 410, 365, 285
 479, 457, 410, 352
 480, 411, 226,  53
 481, 411,  54, 252
 482, 412, 368, 359
 483, 420, 359, 353
 484, 417, 370, 369
 485, 473, 415, 467
 486, 518, 468, 470
 487, 414, 372, 371
 488, 415, 369, 368
 489, 627, 599, 559
 490, 418, 366, 416
 491, 416, 366, 363
 492, 417, 413, 370
 493, 417, 369, 415
 494, 430, 428, 362
 495, 418, 367, 366
 496, 419, 405, 373
 497, 419, 372, 414
 498, 424, 353, 356
 499, 488, 435, 474
 500, 421, 357, 354
 501, 422, 354, 355
 502, 425, 355, 358
 503, 482, 480, 422
 504, 535, 488, 521
 505, 423, 356, 357
 506, 424, 420, 353
 507, 424, 356, 423
 508, 426, 358, 360
 509, 447, 446, 382
 510, 427, 360, 361
 511, 483, 482, 425
 512, 428, 361, 362
 513, 484, 483, 426
 514, 430, 362, 364
 515, 465, 404, 381
 516, 511, 463, 406
 517, 460, 406, 409
 518, 431, 430, 364
 519, 587, 458, 512
 520, 477, 418, 472
 521, 600, 568, 524
 522, 432, 380, 386
 523, 433, 386, 389
 524, 445, 389, 388
 525, 493, 444, 491
 526, 444, 387, 434
 527, 434, 387, 390
 528, 469, 467, 412
 529, 435, 379, 380
 530, 436, 381, 383
 531, 437, 383, 384
 532, 438, 384, 385
 533, 581, 536, 580
 534, 446, 385, 382
 535, 545, 499, 543
 536, 528, 478, 526
 537, 439, 378, 379
 538, 481, 423, 478
 539, 440, 377, 378
 540, 443, 442, 375
 541, 441, 376, 377
 542, 442, 374, 375
 543, 443, 375, 376
 544, 495, 441, 494
 545, 496, 443, 495
 546, 454, 398, 453
 547, 444, 388, 387
 548, 445, 433, 389
 549, 445, 388, 444
 550, 543, 498, 541
 551, 446, 438, 385
 552, 498, 442, 496
 553, 499, 447, 498
 554, 448, 319, 391
 555, 448, 333, 400
 556, 449, 396, 328
 557, 456, 392, 401
 558, 455, 393, 450
 559, 450, 393, 395
 560, 501, 396, 449
 561, 522, 473, 517
 562, 454, 399, 398
 563, 453, 398, 397
 564, 547, 505, 503
 565, 513, 491, 505
 566, 491, 452, 454
 567, 454, 452, 399
 568, 508, 450, 405
 569, 455, 401, 393
 570, 456, 449, 392
 571, 456, 401, 455
 572, 457, 352, 343
 573, 462, 343, 341
 574, 525, 472, 524
 575, 458, 339, 345
 576, 459, 403, 337
 577, 551, 340, 338
 578, 464, 460, 409
 579, 558, 514, 554
 580, 461, 407, 348
 581, 461, 403, 459
 582, 462, 341, 347
 583, 462, 347, 408
 584, 463, 408, 346
 585, 591, 511, 514
 586, 464, 409, 349
 587, 600, 554, 509
 588, 487, 485, 428
 589, 490, 431, 477
 590, 466, 429, 365
 591, 466, 365, 410
 592, 467, 415, 412
 593, 469, 412, 420
 594, 470, 414, 413
 595, 470, 468, 414
 596, 479, 420, 424
 597, 521, 474, 516
 598, 475, 413, 417
 599, 562, 518, 523
 600, 471, 432, 433
 601, 549, 506, 548
 602, 476, 416, 429
 603, 553, 509, 510
 604, 473, 417, 415
 605, 517, 467, 515
 606, 560, 516, 559
 607, 474, 435, 432
 608, 475, 470, 413
 609, 475, 417, 473
 610, 554, 511, 460
 611, 509, 460, 464
 612, 555, 436, 489
 613, 477, 431, 418
 614, 478, 423, 421
 615, 480, 421, 422
 616, 479, 469, 420
 617, 481, 479, 424
 618, 482, 422, 425
 619, 540, 495, 539
 620, 481, 424, 423
 621, 537, 492, 535
 622, 483, 425, 426
 623, 541, 496, 540
 624, 484, 426, 427
 625, 499, 446, 447
 626, 485, 427, 428
 627, 497, 489, 437
 628, 487, 428, 430
 629, 538, 487, 490
 630, 493, 445, 444
 631, 520, 516, 471
 632, 569, 525, 568
 633, 538, 490, 534
 634, 519, 515, 469
 635, 488, 439, 435
 636, 489, 436, 437
 637, 497, 437, 438
 638, 490, 487, 430
 639, 534, 477, 525
 640, 491, 444, 434
 641, 505, 453, 503
 642, 577, 537, 575
 643, 492, 440, 439
 644, 503, 453, 451
 645, 493, 486, 445
 646, 606, 567, 602
 647, 494, 441, 440
 648, 539, 494, 537
 649, 495, 443, 441
 650, 529, 526, 480
 651, 496, 442, 443
 652, 500, 438, 446
 653, 533, 530, 484
 654, 531, 483, 530
 655, 498, 447, 442
 656, 545, 544, 500
 657, 500, 446, 499
 658, 545, 500, 499
 659, 500, 497, 438
 660, 501, 451, 396
 661, 506, 449, 456
 662, 504, 455, 502
 663, 502, 455, 450
 664, 532, 486, 493
 665, 546, 451, 501
 666, 590, 502, 518
 667, 504, 456, 455
 668, 505, 491, 454
 669, 505, 454, 453
 670, 506, 501, 449
 671, 506, 456, 504
 672, 507, 410, 457
 673, 507, 457, 462
 674, 508, 405, 419
 675, 508, 419, 468
 676, 510, 464, 407
 677, 550, 407, 461
 678, 551, 459, 340
 679, 596, 587, 512
 680, 511, 406, 460
 681, 554, 514, 511
 682, 512, 458, 465
 683, 555, 465, 436
 684, 532, 493, 513
 685, 513, 493, 491
 686, 514, 476, 429
 687, 514, 429, 466
 688, 515, 467, 469
 689, 519, 469, 479
 690, 516, 474, 471
 691, 520, 471, 486
 692, 601, 556, 598
 693, 517, 473, 467
 694, 523, 470, 475
 695, 636, 629, 628
 696, 527, 479, 481
 697, 602, 560, 599
 698, 532, 520, 486
 699, 593, 549, 592
 700, 557, 556, 515
 701, 521, 488, 474
 702, 522, 475, 473
 703, 561, 517, 556
 704, 523, 518, 470
 705, 523, 475, 522
 706, 524, 472, 476
 707, 588, 510, 550
 708, 563, 555, 489
 709, 525, 477, 472
 710, 526, 478, 480
 711, 529, 480, 482
 712, 527, 519, 479
 713, 528, 527, 481
 714, 528, 481, 478
 715, 613, 575, 606
 716, 531, 482, 483
 717, 655, 648, 649
 718, 530, 483, 484
 719, 533, 484, 485
 720, 659, 649, 651
 721, 531, 529, 482
 722, 547, 513, 505
 723, 547, 532, 513
 724, 536, 485, 487
 725, 621, 581, 620
 726, 538, 536, 487
 727, 534, 490, 477
 728, 566, 557, 519
 729, 535, 492, 488
 730, 580, 538, 578
 731, 536, 533, 485
 732, 652, 647, 648
 733, 537, 494, 492
 734, 597, 596, 512
 735, 578, 534, 569
 736, 579, 539, 577
 737, 539, 495, 494
 738, 572, 570, 526
 739, 540, 496, 495
 740, 573, 572, 529
 741, 541, 498, 496
 742, 542, 489, 497
 743, 544, 497, 500
 744, 574, 573, 531
 745, 543, 499, 498
 746, 576, 574, 530
 747, 544, 542, 497
 748, 660, 651, 653
 749, 661, 653, 657
 750, 546, 503, 451
 751, 549, 501, 506
 752, 565, 559, 520
 753, 589, 503, 546
 754, 548, 506, 504
 755, 633, 562, 564
 756, 564, 522, 561
 757, 549, 546, 501
 758, 550, 510, 407
 759, 552, 461, 459
 760, 630, 338, 587
 761, 594, 588, 550
 762, 552, 550, 461
 763, 552, 459, 551
 764, 617, 608, 568
 765, 600, 558, 554
 766, 554, 460, 509
 767, 600, 509, 553
 768, 555, 512, 465
 769, 563, 489, 542
 770, 557, 515, 519
 771, 640, 636, 628
 772, 566, 519, 527
 773, 567, 521, 560
 774, 558, 524, 476
 775, 558, 476, 514
 776, 559, 516, 520
 777, 565, 520, 532
 778, 638, 599, 636
 779, 560, 521, 516
 780, 592, 548, 562
 781, 561, 522, 517
 782, 590, 562, 548
 783, 564, 562, 523
 784, 664, 634, 650
 785, 663, 626, 643
 786, 564, 523, 522
 787, 605, 561, 601
 788, 565, 532, 547
 789, 632, 547, 589
 790, 571, 527, 528
 791, 575, 535, 567
 792, 603, 598, 557
 793, 567, 535, 521
 794, 597, 555, 563
 795, 568, 525, 524
 796, 614, 569, 608
 797, 569, 534, 525
 798, 570, 528, 526
 799, 572, 526, 529
 800, 571, 566, 527
 801, 571, 528, 570
 802, 573, 529, 531
 803, 582, 540, 579
 804, 574, 531, 530
 805, 583, 541, 582
 806, 576, 530, 533
 807, 585, 543, 583
 808, 607, 603, 566
 809, 575, 537, 535
 810, 581, 533, 536
 811, 586, 545, 585
 812, 609, 607, 571
 813, 577, 539, 537
 814, 604, 542, 584
 815, 578, 538, 534
 816, 610, 609, 570
 817, 579, 540, 539
 818, 670, 668, 667
 819, 580, 536, 538
 820, 620, 580, 618
 821, 581, 576, 533
 822, 611, 610, 572
 823, 582, 541, 540
 824, 612, 611, 573
 825, 583, 543, 541
 826, 584, 542, 544
 827, 586, 544, 545
 828, 616, 612, 574
 829, 585, 545, 543
 830, 662, 657, 658
 831, 586, 584, 544
 832, 587, 338, 339
 833, 587, 339, 458
 834, 594, 550, 552
 835, 634, 631, 626
 836, 589, 547, 503
 837, 593, 546, 549
 838, 590, 504, 502
 839, 590, 518, 562
 840, 591, 466, 507
 841, 591, 507, 463
 842, 592, 549, 548
 843, 636, 627, 629
 844, 633, 628, 592
 845, 593, 589, 546
 846, 595, 552, 551
 847, 626, 594, 595
 848, 630, 587, 596
 849, 643, 596, 635
 850, 597, 512, 555
 851, 664, 650, 608
 852, 644, 563, 604
 853, 667, 654, 650
 854, 598, 556, 557
 855, 603, 557, 566
 856, 599, 560, 559
 857, 627, 559, 565
 858, 617, 600, 553
 859, 600, 524, 558
 860, 601, 561, 556
 861, 640, 637, 636
 862, 639, 638, 637
 863, 602, 567, 560
 864, 607, 566, 571
 865, 642, 641, 639
 866, 618, 578, 614
 867, 604, 563, 542
 868, 633, 605, 628
 869, 605, 564, 561
 870, 606, 575, 567
 871, 641, 602, 638
 872, 609, 571, 570
 873, 647, 646, 642
 874, 608, 569, 568
 875, 617, 568, 600
 876, 610, 570, 572
 877, 615, 577, 613
 878, 611, 572, 573
 879, 619, 579, 615
 880, 612, 573, 574
 881, 622, 582, 619
 882, 616, 574, 576
 883, 623, 583, 622
 884, 613, 577, 575
 885, 646, 606, 641
 886, 654, 614, 650
 887, 614, 578, 569
 888, 648, 647, 609
 889, 615, 579, 577
 890, 621, 576, 581
 891, 624, 585, 623
 892, 617, 553, 588
 893, 631, 594, 626
 894, 645, 584, 625
 895, 618, 580, 578
 896, 649, 648, 610
 897, 619, 582, 579
 898, 658, 657, 621
 899, 620, 581, 580
 900, 625, 586, 624
 901, 621, 616, 576
 902, 651, 649, 611
 903, 622, 583, 582
 904, 653, 651, 612
 905, 623, 585, 583
 906, 657, 653, 616
 907, 624, 586, 585
 908, 658, 620, 656
 909, 625, 584, 586
 910, 643, 595, 630
 911, 635, 596, 597
 912, 632, 629, 627
 913, 629, 589, 593
 914, 628, 593, 592
 915, 640, 628, 605
 916, 632, 627, 565
 917, 629, 593, 628
 918, 630, 595, 551
 919, 630, 551, 338
 920, 631, 617, 588
 921, 631, 588, 594
 922, 632, 565, 547
 923, 632, 589, 629
 924, 633, 592, 562
 925, 633, 564, 605
 926, 670, 669, 665
 927, 664, 608, 617
 928, 663, 643, 635
 929, 669, 597, 644
 930, 637, 601, 598
 931, 636, 599, 627
 932, 639, 598, 603
 933, 639, 637, 598
 934, 638, 602, 599
 935, 638, 636, 637
 936, 642, 603, 607
 937, 642, 639, 603
 938, 640, 605, 601
 939, 640, 601, 637
 940, 641, 606, 602
 941, 641, 638, 639
 942, 647, 607, 609
 943, 647, 642, 607
 944, 643, 626, 595
 945, 643, 630, 596
 946, 644, 597, 563
 947, 665, 604, 645
 948, 666, 658, 656
 949, 645, 604, 584
 950, 646, 613, 606
 951, 646, 641, 642
 952, 648, 609, 610
 953, 652, 646, 647
 954, 649, 610, 611
 955, 655, 652, 648
 956, 651, 611, 612
 957, 659, 655, 649
 958, 650, 614, 608
 959, 669, 667, 663
 960, 653, 612, 616
 961, 660, 659, 651
 962, 652, 615, 613
 963, 652, 613, 646
 964, 657, 616, 621
 965, 661, 660, 653
 966, 671, 665, 645
 967, 654, 618, 614
 968, 655, 619, 615
 969, 655, 615, 652
 970, 656, 620, 618
 971, 656, 618, 654
 972, 658, 621, 620
 973, 662, 661, 657
 974, 671, 656, 668
 975, 666, 662, 658
 976, 659, 622, 619
 977, 659, 619, 655
 978, 660, 623, 622
 979, 660, 622, 659
 980, 661, 624, 623
 981, 661, 623, 660
 982, 662, 625, 624
 983, 662, 624, 661
 984, 663, 634, 626
 985, 669, 635, 597
 986, 664, 617, 631
 987, 664, 631, 634
 988, 665, 644, 604
 989, 671, 668, 670
 990, 666, 645, 625
 991, 666, 625, 662
 992, 667, 650, 634
 993, 667, 634, 663
 994, 668, 656, 654
 995, 668, 654, 667
 996, 669, 663, 635
 997, 669, 644, 665
 998, 671, 670, 665
 999, 670, 667, 669
1000, 671, 645, 666
1001, 671, 666, 656
1002, 713, 672, 139
1003, 793, 753, 717
1004, 810, 777, 808
1005, 734, 123,   7
1006, 676, 135, 673
1007, 766, 728, 725
1008,  13,   1,  95
1009, 679,  13,  95
1010, 762,  97, 721
1011, 680,  15,  14
1012, 714,  16,  15
1013, 681,  17,  16
1014, 682,  18,  17
1015, 683,  19, 678
1016, 684,  20, 683
1017, 685,  21, 684
1018, 713, 139,   2
1019, 108,   6, 109
1020, 686, 108, 109
1021, 711, 111, 710
1022, 687, 106, 107
1023, 689, 105, 106
1024, 690, 104, 105
1025, 812, 800, 785
1026, 677, 137, 674
1027, 794, 719, 759
1028, 693, 101, 688
1029, 799, 795, 752
1030, 714, 681,  16
1031, 874, 752, 679
1032, 874,  95,  96
1033, 734,   7, 124
1034, 734, 699, 123
1035, 774, 736, 699
1036, 729, 694, 696
1037, 701, 121, 700
1038, 702, 120, 701
1039, 703, 119, 702
1040, 705, 117, 704
1041, 706, 116, 705
1042, 737, 706, 705
1043, 802, 765, 764
1044, 708, 114, 707
1045, 735, 708, 707
1046, 739, 708, 735
1047, 796, 109, 110
1048, 730, 125, 126
1049, 731, 127, 694
1050, 694, 127, 128
1051, 732, 695, 712
1052, 695, 130, 131
1053, 698, 695, 131
1054, 676, 675, 134
1055, 698, 133, 675
1056, 132,   8, 133
1057, 713,   2,  23
1058, 674, 138, 672
1059, 673, 135, 136
1060, 675, 133, 134
1061, 672, 138, 139
1062, 716, 678, 682
1063, 677, 136, 137
1064, 704, 118, 703
1065, 756, 755, 718
1066, 674, 137, 138
1067, 698, 132, 133
1068, 676, 134, 135
1069, 743, 702, 701
1070, 770, 729, 733
1071, 894, 886, 876
1072, 677, 673, 136
1073, 678,  19,  18
1074, 716, 715, 678
1075, 680,  14, 679
1076, 679,  14,  13
1077, 721,  97,  98
1078, 714,  15, 680
1079, 803, 761, 768
1080, 682,  17, 681
1081, 723, 100, 693
1082, 682, 678,  18
1083, 718, 683, 715
1084, 683,  20,  19
1085, 717, 685, 684
1086, 684,  21,  20
1087, 788, 753, 713
1088, 685,  22,  21
1089, 687, 107, 686
1090, 686, 107, 108
1091, 710, 112, 709
1092, 689, 106, 687
1093, 688, 101, 102
1094, 692, 102, 103
1095, 709, 113, 708
1096, 690, 105, 689
1097, 726, 689, 687
1098, 691, 104, 690
1099, 692, 103, 691
1100, 691, 103, 104
1101, 707, 115, 706
1102, 692, 688, 102
1103, 719, 716, 682
1104, 693, 100, 101
1105, 700, 122, 699
1106, 696, 128, 129
1107, 697, 130, 695
1108, 750, 675, 676
1109, 696, 694, 128
1110, 697, 696, 129
1111, 697, 129, 130
1112, 712, 695, 698
1113, 698, 131, 132
1114, 712, 698, 675
1115, 699, 122, 123
1116, 774, 734, 125
1117, 769, 730, 731
1118, 700, 121, 122
1119, 742, 701, 700
1120, 701, 120, 121
1121, 875, 845, 861
1122, 702, 119, 120
1123, 744, 703, 741
1124, 703, 118, 119
1125, 853, 852, 833
1126, 704, 117, 118
1127, 748, 677, 747
1128, 705, 116, 117
1129, 728, 691, 690
1130, 706, 115, 116
1131, 767, 766, 725
1132, 707, 114, 115
1133, 726, 725, 689
1134, 708, 113, 114
1135, 796, 773, 686
1136, 709, 112, 113
1137, 740, 709, 739
1138, 710, 111, 112
1139, 796, 711, 773
1140, 711, 110, 111
1141, 811, 809, 779
1142, 786, 732, 712
1143, 788,  23,  22
1144, 788, 713,  23
1145, 874, 762, 752
1146, 722, 721,  98
1147, 755, 717, 718
1148, 715, 683, 678
1149, 719, 682, 681
1150, 720, 693, 688
1151, 753, 751, 672
1152, 718, 717, 684
1153, 718, 684, 683
1154, 758, 716, 757
1155, 759, 681, 714
1156, 859, 842, 850
1157, 727, 688, 692
1158, 823, 755, 790
1159, 761, 721, 722
1160, 722,  98,  99
1161, 723, 722,  99
1162, 760, 723, 693
1163, 723,  99, 100
1164, 760, 693, 720
1165, 724, 692, 691
1166, 766, 764, 728
1167, 725, 690, 689
1168, 781, 738, 778
1169, 773, 726, 687
1170, 746, 711, 710
1171, 727, 720, 688
1172, 727, 692, 724
1173, 728, 724, 691
1174, 728, 690, 725
1175, 742, 700, 736
1176, 733, 696, 697
1177, 731, 126, 127
1178, 731, 730, 126
1179, 772, 694, 729
1180, 769, 736, 730
1181, 732, 697, 695
1182, 786, 712, 750
1183, 733, 729, 696
1184, 733, 697, 732
1185, 734, 124, 125
1186, 774, 125, 730
1187, 738, 707, 706
1188, 738, 706, 737
1189, 743, 701, 742
1190, 736, 700, 699
1191, 745, 705, 704
1192, 777, 745, 775
1193, 778, 737, 777
1194, 738, 735, 707
1195, 782, 735, 781
1196, 739, 709, 708
1197, 783, 739, 782
1198, 740, 710, 709
1199, 771, 770, 733
1200, 741, 703, 702
1201, 784, 736, 769
1202, 787, 780, 784
1203, 780, 776, 743
1204, 743, 741, 702
1205, 808, 777, 775
1206, 744, 704, 703
1207, 745, 737, 705
1208, 745, 704, 744
1209, 807, 773, 746
1210, 746, 710, 740
1211, 747, 677, 674
1212, 751, 747, 674
1213, 779, 741, 776
1214, 748, 673, 677
1215, 749, 676, 673
1216, 749, 673, 748
1217, 750, 712, 675
1218, 750, 676, 749
1219, 751, 674, 672
1220, 793, 717, 755
1221, 754, 680, 752
1222, 752, 680, 679
1223, 753, 672, 713
1224, 753, 685, 717
1225, 795, 789, 754
1226, 754, 714, 680
1227, 756, 718, 715
1228, 862, 846, 859
1229, 758, 715, 716
1230, 791, 790, 756
1231, 757, 716, 719
1232, 840, 803, 828
1233, 792, 791, 758
1234, 758, 756, 715
1235, 759, 719, 681
1236, 759, 714, 754
1237, 768, 723, 760
1238, 797, 720, 763
1239, 799, 752, 762
1240, 768, 761, 722
1241, 762,  96,  97
1242, 817, 799, 761
1243, 763, 720, 727
1244, 765, 727, 724
1245, 764, 724, 728
1246, 814, 778, 810
1247, 765, 763, 727
1248, 765, 724, 764
1249, 767, 725, 726
1250, 827, 800, 812
1251, 807, 767, 726
1252, 785, 746, 740
1253, 768, 722, 723
1254, 804, 760, 797
1255, 772, 769, 731
1256, 818, 787, 806
1257, 780, 743, 742
1258, 771, 733, 732
1259, 786, 771, 732
1260, 809, 808, 775
1261, 772, 731, 694
1262, 806, 729, 770
1263, 773, 687, 686
1264, 773, 711, 746
1265, 774, 730, 736
1266, 774, 699, 734
1267, 775, 745, 744
1268, 779, 744, 741
1269, 776, 741, 743
1270, 813, 811, 776
1271, 823, 793, 755
1272, 777, 737, 745
1273, 801, 764, 766
1274, 778, 738, 737
1275, 805, 770, 771
1276, 779, 775, 744
1277, 784, 780, 742
1278, 787, 784, 769
1279, 836, 810, 834
1280, 781, 735, 738
1281, 800, 767, 785
1282, 782, 739, 735
1283, 812, 785, 783
1284, 783, 740, 739
1285, 784, 742, 736
1286, 787, 769, 772
1287, 807, 785, 767
1288, 785, 740, 783
1289, 819, 750, 749
1290, 831, 786, 819
1291, 806, 772, 729
1292, 837, 813, 818
1293, 788,  22, 685
1294, 788, 685, 753
1295, 828, 803, 804
1296, 789, 759, 754
1297, 790, 755, 756
1298, 791, 756, 758
1299, 792, 758, 757
1300, 822, 821, 791
1301, 824, 757, 794
1302, 850, 830, 847
1303, 843, 751, 793
1304, 793, 751, 753
1305, 794, 757, 719
1306, 794, 759, 789
1307, 795, 754, 752
1308, 817, 761, 803
1309, 796, 686, 109
1310, 796, 110, 711
1311, 797, 760, 720
1312, 825, 763, 798
1313, 798, 763, 765
1314, 829, 802, 801
1315, 799, 762, 721
1316, 799, 721, 761
1317, 801, 766, 800
1318, 800, 766, 767
1319, 856, 836, 854
1320, 802, 764, 801
1321, 815, 781, 814
1322, 802, 798, 765
1323, 820, 789, 817
1324, 804, 803, 768
1325, 804, 768, 760
1326, 830, 797, 825
1327, 831, 771, 786
1328, 897, 819, 841
1329, 806, 787, 772
1330, 832, 770, 805
1331, 807, 726, 773
1332, 807, 746, 785
1333, 809, 775, 779
1334, 885, 882, 747
1335, 811, 779, 776
1336, 870, 853, 855
1337, 834, 808, 833
1338, 810, 778, 777
1339, 813, 776, 780
1340, 835, 833, 809
1341, 816, 783, 782
1342, 815, 782, 781
1343, 818, 780, 787
1344, 818, 813, 780
1345, 829, 801, 827
1346, 814, 781, 778
1347, 857, 839, 838
1348, 816, 782, 815
1349, 827, 812, 816
1350, 816, 812, 783
1351, 817, 789, 795
1352, 817, 795, 799
1353, 832, 806, 770
1354, 832, 818, 806
1355, 819, 786, 750
1356, 841, 749, 748
1357, 842, 840, 828
1358, 820, 794, 789
1359, 821, 790, 791
1360, 822, 791, 792
1361, 846, 792, 824
1362, 877, 876, 844
1363, 845, 790, 821
1364, 860, 823, 845
1365, 824, 792, 757
1366, 824, 794, 820
1367, 825, 797, 763
1368, 848, 798, 826
1369, 826, 798, 802
1370, 869, 852, 868
1371, 827, 801, 800
1372, 839, 815, 838
1373, 842, 820, 840
1374, 830, 828, 804
1375, 838, 814, 836
1376, 829, 826, 802
1377, 830, 804, 797
1378, 864, 850, 847
1379, 835, 809, 811
1380, 831, 805, 771
1381, 866, 858, 855
1382, 837, 818, 832
1383, 880, 868, 879
1384, 833, 808, 809
1385, 854, 834, 852
1386, 834, 810, 808
1387, 837, 835, 811
1388, 855, 853, 835
1389, 857, 838, 856
1390, 836, 814, 810
1391, 837, 811, 813
1392, 866, 855, 837
1393, 849, 827, 839
1394, 838, 815, 814
1395, 839, 827, 816
1396, 839, 816, 815
1397, 840, 820, 817
1398, 840, 817, 803
1399, 841, 819, 749
1400, 882, 873, 748
1401, 864, 847, 863
1402, 842, 824, 820
1403, 843, 747, 751
1404, 843, 793, 823
1405, 844, 821, 822
1406, 872, 856, 871
1407, 845, 823, 790
1408, 861, 821, 844
1409, 846, 822, 792
1410, 846, 824, 842
1411, 847, 830, 825
1412, 848, 847, 825
1413, 848, 825, 798
1414, 865, 826, 851
1415, 851, 829, 849
1416, 849, 829, 827
1417, 850, 842, 828
1418, 850, 828, 830
1419, 851, 826, 829
1420, 871, 854, 869
1421, 852, 834, 833
1422, 853, 833, 835
1423, 855, 835, 837
1424, 870, 868, 853
1425, 878, 865, 872
1426, 854, 836, 834
1427, 866, 837, 832
1428, 858, 805, 831
1429, 894, 881, 891
1430, 856, 838, 836
1431, 857, 851, 849
1432, 857, 849, 839
1433, 867, 858, 831
1434, 888, 879, 870
1435, 862, 822, 846
1436, 859, 846, 842
1437, 885, 884, 882
1438, 860, 843, 823
1439, 861, 845, 821
1440, 896, 892, 877
1441, 863, 847, 848
1442, 862, 844, 822
1443, 877, 862, 864
1444, 865, 863, 848
1445, 864, 862, 859
1446, 864, 859, 850
1447, 865, 848, 826
1448, 872, 851, 857
1449, 866, 832, 805
1450, 866, 805, 858
1451, 867, 831, 819
1452, 897, 883, 895
1453, 868, 852, 853
1454, 893, 884, 875
1455, 893, 891, 890
1456, 869, 854, 852
1457, 870, 855, 858
1458, 888, 858, 867
1459, 894, 889, 881
1460, 871, 856, 854
1461, 872, 865, 851
1462, 872, 857, 856
1463, 873, 841, 748
1464, 882, 748, 747
1465, 874, 679,  95
1466, 874,  96, 762
1467, 875, 860, 845
1468, 886, 861, 876
1469, 876, 861, 844
1470, 877, 844, 862
1471, 896, 864, 863
1472, 896, 878, 892
1473, 878, 863, 865
1474, 889, 872, 871
1475, 879, 868, 870
1476, 895, 888, 867
1477, 893, 890, 887
1478, 880, 869, 868
1479, 881, 871, 869
1480, 881, 869, 880
1481, 885, 747, 843
1482, 884, 860, 875
1483, 883, 841, 873
1484, 887, 873, 884
1485, 893, 887, 884
1486, 884, 873, 882
1487, 885, 843, 860
1488, 885, 860, 884
1489, 886, 875, 861
1490, 894, 892, 889
1491, 895, 887, 890
1492, 887, 883, 873
1493, 888, 870, 858
1494, 897, 895, 867
1495, 889, 878, 872
1496, 889, 871, 881
1497, 890, 880, 879
1498, 895, 890, 879
1499, 891, 881, 880
1500, 891, 880, 890
1501, 892, 876, 877
1502, 892, 878, 889
1503, 893, 875, 886
1504, 893, 886, 891
1505, 894, 891, 886
1506, 894, 876, 892
1507, 895, 883, 887
1508, 895, 879, 888
1509, 896, 877, 864
1510, 896, 863, 878
1511, 897, 867, 819
1512, 897, 841, 883
1513,  900,  899,  183
1514,  921,  145,  920
1515,  960,  920,  909
1516,  950,   47,  939
1517,  942,  940,   39
1518, 1097, 1094, 1054
1519,  143,  142,   10
1520,  922,  143,  144
1521,  956,  184,    9
1522,  169,   11,  170
1523,  935,  169,  170
1524,  962,  169,  935
1525,  982,  931,  930
1526,  913,  166,  167
1527, 1096,  936, 1037
1528, 1096,   52,   51
1529,  949,   49,  937
1530,  993,  937,  989
1531,  914,  165,  904
1532,  914,  910,  164
1533,  963,  914,  959
1534,  951,   45,  938
1535, 1069, 1065, 1018
1536,  943,   42,  941
1537,  926,  157,  925
1538,  965,  957,  906
1539, 1088, 1044, 1087
1540,  954,   36,  945
1541,  966,  961,  917
1542,  901,  898,  179
1543,  911,  149,  150
1544,  967,  919,  918
1545,  902,  182,  899
1546,  920,  146,  909
1547,  968,  920,  960
1548,  922,  144,  921
1549,   52,  177,    4
1550,  929,  177,   52
1551,  936,   51,   50
1552,  930,  175,  176
1553, 1096, 1037,  929
1554,  932,  174,  931
1555,  934,  172,  933
1556, 1009,  962,  935
1557,  923,  163,  910
1558,  951,  939,   46
1559,  969,  964,  915
1560,  924,  161,  915
1561,  907,  905,  159
1562, 1043, 1042,  985
1563, 1002,  953, 1001
1564,  925,  158,  905
1565,  925,  157,  158
1566,  953,  941,   41
1567,  908,  155,  906
1568,  927,  154,  908
1569,  927,  916,  153
1570, 1030,  970, 1017
1571,  928,  152,  916
1572,  946,  945,   35
1573, 1032, 1031,  961
1574,  947,  946,   34
1575, 1057, 1026, 1031
1576,  948,   31,  178
1577,  948,  178,  898
1578,   31,    3,  178
1579,  956,    9,  140
1580,  899,  182,  183
1581,  903,  181,  902
1582,  898,  178,  179
1583, 1011,  898, 1004
1584,  901,  179,  180
1585,  900,  183,  184
1586,  973,  909,  919
1587,  956,  900,  184
1588, 1010,  921,  968
1589,  903,  180,  181
1590, 1072, 1027, 1026
1591,  971,  911,  961
1592,  902,  181,  182
1593,  918,  149,  911
1594,  903,  901,  180
1595,  904,  165,  166
1596,  972,  959,  904
1597,  905,  158,  159
1598,  907,  159,  160
1599,  906,  155,  156
1600,  926,  156,  157
1601,  924,  160,  161
1602,  943,   43,   42
1603,  944,  942,   38
1604,  908,  154,  155
1605,  909,  146,  147
1606,  919,  147,  148
1607,  910,  163,  164
1608,  914,  164,  165
1609,  917,  150,  151
1610, 1098, 1072, 1057
1611,  912,  167,  168
1612,  933,  173,  932
1613,  913,  904,  166
1614,  913,  167,  912
1615,  989,  950,  987
1616, 1023, 1022,  963
1617,  915,  161,  162
1618,  923,  915,  162
1619,  916,  152,  153
1620,  927,  153,  154
1621,  917,  911,  150
1622,  928,  917,  151
1623,  919,  148,  918
1624,  918,  148,  149
1625,  973,  919,  967
1626,  919,  909,  147
1627, 1119, 1003, 1010
1628,  920,  145,  146
1629, 1119, 1006,  900
1630,  921,  144,  145
1631, 1003,  142,  922
1632,  922,  142,  143
1633,  923,  162,  163
1634,  974,  910,  963
1635,  994,  943,  985
1636,  924,  907,  160
1637,  975,  905,  958
1638,  953,   40,  940
1639,  975,  925,  905
1640,  926,  906,  156
1641,  977,  908,  957
1642, 1017,  977, 1015
1643,  928,  151,  152
1644,  978,  916,  970
1645,  930,  176,  929
1646,  929,  176,  177
1647,  982,  981,  931
1648,  931,  175,  930
1649,  979,  972,  913
1650,  931,  174,  175
1651, 1025, 1024,  972
1652,  932,  173,  174
1653,  983,  932,  981
1654,  933,  172,  173
1655, 1009,  979,  912
1656,  934,  171,  172
1657,  935,  170,  171
1658,  935,  171,  934
1659,  949,   50,   49
1660, 1101, 1059, 1078
1661,  937,   49,   48
1662,  950,   48,   47
1663,  938,   45,   44
1664,  952,   44,   43
1665,  939,   47,   46
1666,  951,   46,   45
1667,  940,   40,   39
1668,  942,   39,   38
1669,  941,   42,   41
1670,  953,   41,   40
1671,  944,   38,   37
1672, 1041, 1040,  988
1673, 1105, 1091, 1085
1674,  952,   43,  943
1675,  954,   37,   36
1676,  992,  954,  991
1677,  945,   36,   35
1678,  946,   35,   34
1679,  947,   34,   33
1680,  997,  946,  986
1681,  955,   33,   32
1682,  998,  986,  947
1683,  948,   32,   31
1684, 1004,  898,  901
1685, 1050,  989, 1049
1686,  949,  936,   50
1687, 1103, 1061, 1102
1688,  950,  937,   48
1689,  999,  938,  990
1690, 1045,  990, 1038
1691, 1065, 1063, 1012
1692,  952,  938,   44
1693, 1001,  940,  988
1694,  976,  925,  975
1695, 1044, 1041,  996
1696,  954,  944,   37
1697,  955,  947,   33
1698,  955,   32,  948
1699,  956,  140,  141
1700, 1003,  956,  141
1701,  957,  908,  906
1702,  965,  906,  926
1703,  958,  905,  907
1704,  980,  907,  924
1705,  959,  914,  904
1706,  972,  904,  913
1707, 1028,  960,  973
1708, 1029, 1005, 1006
1709,  961,  911,  917
1710,  966,  917,  928
1711,  962,  912,  168
1712,  962,  168,  169
1713, 1106, 1092, 1091
1714,  963,  910,  914
1715,  964,  924,  915
1716,  969,  915,  923
1717,  976,  926,  925
1718, 1019, 1013,  965
1719,  978,  928,  916
1720, 1033,  978, 1030
1721,  971,  967,  918
1722, 1008,  902, 1005
1723, 1029, 1006,  968
1724,  968,  921,  920
1725,  974,  969,  923
1726, 1083, 1082, 1048
1727,  970,  916,  927
1728,  977,  970,  927
1729,  971,  918,  911
1730, 1031, 1026,  971
1731,  979,  913,  912
1732, 1101, 1078, 1077
1733, 1008, 1007,  903
1734,  973,  960,  909
1735,  974,  923,  910
1736, 1022, 1020,  974
1737, 1014,  958, 1012
1738, 1021, 1019,  976
1739, 1066, 1062, 1013
1740,  976,  965,  926
1741,  977,  927,  908
1742, 1044,  992, 1039
1743,  997,  991,  945
1744,  978,  966,  928
1745, 1009,  912,  962
1746,  984,  934,  933
1747,  980,  958,  907
1748,  980,  924,  964
1749,  981,  932,  931
1750, 1036, 1035,  981
1751, 1037,  982,  930
1752,  995,  936,  949
1753, 1074, 1034, 1025
1754,  983,  933,  932
1755, 1074, 1009,  984
1756,  984,  933,  983
1757,  985,  943,  941
1758, 1002,  941,  953
1759,  986,  946,  947
1760,  998,  947,  955
1761,  987,  950,  939
1762, 1000,  939,  951
1763,  988,  940,  942
1764,  996,  942,  944
1765, 1024, 1023,  959
1766,  989,  937,  950
1767,  990,  938,  952
1768,  994,  990,  952
1769,  991,  954,  945
1770,  997,  945,  946
1771, 1015,  957, 1013
1772,  992,  944,  954
1773, 1102, 1101, 1080
1774,  993,  949,  937
1775,  994,  952,  943
1776, 1042, 1038,  994
1777, 1079, 1037,  995
1778,  995,  949,  993
1779,  996,  988,  942
1780,  996,  944,  992
1781, 1033, 1032,  966
1782, 1075, 1017, 1064
1783, 1011,  955,  948
1784, 1055, 1011, 1004
1785, 1020, 1016,  969
1786,  999,  951,  938
1787, 1000,  987,  939
1788, 1000,  951,  999
1789, 1021,  975, 1014
1790, 1001,  953,  940
1791, 1086, 1085, 1042
1792, 1002,  985,  941
1793, 1003,  141,  142
1794, 1010,  968, 1006
1795, 1007, 1004,  901
1796, 1117, 1097, 1055
1797, 1005,  902,  899
1798, 1006, 1005,  899
1799, 1006,  899,  900
1800, 1119, 1010, 1006
1801, 1007,  901,  903
1802, 1008,  903,  902
1803, 1073, 1028, 1027
1804, 1073, 1005, 1028
1805, 1009,  935,  934
1806, 1009,  934,  984
1807, 1010, 1003,  922
1808, 1010,  922,  921
1809, 1011,  998,  955
1810, 1011,  948,  898
1811, 1012,  958,  980
1812, 1018,  980,  964
1813, 1013,  957,  965
1814, 1019,  965,  976
1815, 1047, 1001, 1040
1816, 1014,  975,  958
1817, 1064, 1015, 1062
1818, 1015,  977,  957
1819, 1016,  964,  969
1820, 1020,  969,  974
1821, 1052, 1039,  991
1822, 1017,  970,  977
1823, 1018, 1012,  980
1824, 1018,  964, 1016
1825, 1021,  976,  975
1826, 1067, 1066, 1019
1827, 1022,  974,  963
1828, 1046,  999, 1045
1829, 1068, 1014, 1063
1830, 1047, 1043, 1002
1831, 1023,  963,  959
1832, 1048, 1000, 1046
1833, 1024,  959,  972
1834, 1049,  987, 1048
1835, 1025,  972,  979
1836, 1059, 1058, 1024
1837, 1074, 1025,  979
1838, 1034,  984,  983
1839, 1026,  967,  971
1840, 1031,  971,  961
1841, 1027,  973,  967
1842, 1027,  967, 1026
1843, 1029, 1028, 1005
1844, 1028,  973, 1027
1845, 1029,  968,  960
1846, 1029,  960, 1028
1847, 1053, 1052,  997
1848, 1030,  978,  970
1849, 1032,  961,  966
1850, 1055, 1054,  998
1851, 1033,  966,  978
1852, 1054, 1053,  986
1853, 1076, 1030, 1075
1854, 1071, 1056, 1032
1855, 1035,  983,  981
1856, 1035, 1034,  983
1857, 1036,  981,  982
1858, 1077, 1036, 1051
1859, 1079, 1036,  982
1860, 1051,  995,  993
1861, 1037,  930,  929
1862, 1037,  936,  995
1863, 1038,  990,  994
1864, 1042,  994,  985
1865, 1039,  992,  991
1866, 1052,  991,  997
1867, 1040, 1001,  988
1868, 1041,  988,  996
1869, 1044,  996,  992
1870, 1108, 1084, 1088
1871, 1043,  985, 1002
1872, 1112, 1065, 1105
1873, 1047, 1002, 1001
1874, 1111, 1089, 1110
1875, 1107, 1088, 1087
1876, 1115, 1107, 1087
1877, 1070, 1020, 1060
1878, 1045,  999,  990
1879, 1106, 1091, 1105
1880, 1046, 1000,  999
1881, 1110, 1089, 1084
1882, 1068, 1067, 1021
1883, 1061, 1023, 1058
1884, 1048,  987, 1000
1885, 1082, 1080, 1049
1886, 1049,  989,  987
1887, 1081, 1051, 1050
1888, 1050,  993,  989
1889, 1079, 1051, 1036
1890, 1051,  993, 1050
1891, 1053,  997,  986
1892, 1115, 1064, 1107
1893, 1054,  986,  998
1894, 1114, 1095, 1094
1895, 1055,  998, 1011
1896, 1113, 1094, 1097
1897, 1117, 1004, 1007
1898, 1118, 1117, 1098
1899, 1056, 1031, 1032
1900, 1071, 1032, 1033
1901, 1099, 1098, 1007
1902, 1057, 1031, 1056
1903, 1058, 1023, 1024
1904, 1059, 1024, 1025
1905, 1059, 1025, 1034
1906, 1078, 1034, 1035
1907, 1060, 1020, 1022
1908, 1061, 1060, 1022
1909, 1061, 1022, 1023
1910, 1102, 1058, 1101
1911, 1062, 1015, 1013
1912, 1066, 1013, 1019
1913, 1063, 1014, 1012
1914, 1065, 1012, 1018
1915, 1093, 1087, 1039
1916, 1064, 1017, 1015
1917, 1069, 1018, 1016
1918, 1112, 1085, 1086
1919, 1067, 1019, 1021
1920, 1110, 1108, 1066
1921, 1068, 1021, 1014
1922, 1089, 1040, 1084
1923, 1109, 1086, 1090
1924, 1111, 1090, 1089
1925, 1070, 1069, 1016
1926, 1091, 1038, 1085
1927, 1070, 1016, 1020
1928, 1104, 1060, 1103
1929, 1076, 1033, 1030
1930, 1114, 1113, 1071
1931, 1099, 1073, 1072
1932, 1072, 1026, 1057
1933, 1073, 1027, 1072
1934, 1073, 1008, 1005
1935, 1074,  979, 1009
1936, 1074,  984, 1034
1937, 1116, 1075, 1115
1938, 1075, 1030, 1017
1939, 1095, 1053, 1094
1940, 1076, 1071, 1033
1941, 1077, 1035, 1036
1942, 1101, 1081, 1080
1943, 1078, 1059, 1034
1944, 1078, 1035, 1077
1945, 1079,  982, 1037
1946, 1079,  995, 1051
1947, 1080, 1050, 1049
1948, 1082, 1049, 1048
1949, 1081, 1077, 1051
1950, 1081, 1050, 1080
1951, 1083, 1048, 1046
1952, 1103, 1102, 1082
1953, 1092, 1046, 1045
1954, 1104, 1103, 1083
1955, 1084, 1040, 1041
1956, 1088, 1041, 1044
1957, 1085, 1038, 1042
1958, 1086, 1042, 1043
1959, 1090, 1043, 1047
1960, 1112, 1086, 1109
1961, 1087, 1044, 1039
1962, 1093, 1039, 1052
1963, 1108, 1088, 1107
1964, 1088, 1084, 1041
1965, 1111, 1110, 1067
1966, 1089, 1047, 1040
1967, 1090, 1086, 1043
1968, 1090, 1047, 1089
1969, 1106, 1105, 1069
1970, 1091, 1045, 1038
1971, 1092, 1083, 1046
1972, 1092, 1045, 1091
1973, 1095, 1052, 1053
1974, 1116, 1115, 1093
1975, 1094, 1053, 1054
1976, 1097, 1054, 1055
1977, 1116, 1095, 1114
1978, 1095, 1093, 1052
1979, 1096,  929,   52
1980, 1096,   51,  936
1981, 1118, 1098, 1100
1982, 1113, 1097, 1100
1983, 1099, 1007, 1008
1984, 1100, 1098, 1057
1985, 1099, 1008, 1073
1986, 1099, 1072, 1098
1987, 1100, 1057, 1056
1988, 1113, 1100, 1056
1989, 1101, 1058, 1059
1990, 1101, 1077, 1081
1991, 1102, 1080, 1082
1992, 1102, 1061, 1058
1993, 1103, 1082, 1083
1994, 1103, 1060, 1061
1995, 1104, 1083, 1092
1996, 1104, 1070, 1060
1997, 1105, 1065, 1069
1998, 1106, 1069, 1070
1999, 1106, 1070, 1104
2000, 1106, 1104, 1092
2001, 1107, 1064, 1062
2002, 1108, 1107, 1062
2003, 1108, 1062, 1066
2004, 1110, 1066, 1067
2005, 1109, 1068, 1063
2006, 1112, 1109, 1063
2007, 1111, 1067, 1068
2008, 1110, 1084, 1108
2009, 1111, 1068, 1109
2010, 1111, 1109, 1090
2011, 1112, 1063, 1065
2012, 1112, 1105, 1085
2013, 1113, 1056, 1071
2014, 1114, 1071, 1076
2015, 1116, 1076, 1075
2016, 1114, 1094, 1113
2017, 1115, 1087, 1093
2018, 1115, 1075, 1064
2019, 1116, 1093, 1095
2020, 1116, 1114, 1076
2021, 1117, 1055, 1004
2022, 1117, 1007, 1098
2023, 1118, 1100, 1097
2024, 1118, 1097, 1117
2025, 1119,  900,  956
2026, 1119,  956, 1003
2027, 1123,  187, 1120
2028, 1157, 1132,  213
2029, 1124,  190, 1121
2030, 1150,  191,  132
2031, 1174, 1173, 1149
2032, 1135,  210, 1134
2033, 1180, 1157,  141
2034, 1144,  185, 1122
2035,  140,    9,  185
2036,  191,    8,  132
2037, 1140,  205, 1139
2038, 1125,  189, 1124
2039, 1122,  185,  186
2040,  124,    7,  192
2041, 1131,  192,  193
2042, 1156, 1129, 1154
2043, 1200, 1184, 1183
2044, 1155, 1154, 1127
2045, 1211, 1193, 1210
2046, 1148,  128, 1146
2047, 1147,  131,  130
2048, 1150,  132,  131
2049, 1153,   12,  200
2050, 1153,  199,   12
2051, 1152,  198, 1128
2052, 1152,  197,  198
2053, 1127,  196, 1126
2054, 1129,  195, 1127
2055, 1130,  194, 1129
2056, 1131,  193, 1130
2057, 1157,   10,  142
2058, 1180, 1151, 1159
2059, 1133,  212, 1132
2060, 1123, 1122,  186
2061, 1134,  211, 1133
2062, 1136,  209, 1135
2063, 1160, 1136, 1135
2064, 1165, 1138, 1137
2065, 1138,  207, 1137
2066, 1139,  206, 1138
2067, 1141,  204, 1140
2068, 1142,  203, 1141
2069, 1186, 1162, 1158
2070, 1153, 1128,  199
2071, 1120,  187,  188
2072, 1125,  188,  189
2073, 1121,  190,  191
2074, 1148,  129,  128
2075, 1144,  140,  185
2076, 1123,  186,  187
2077, 1163, 1160, 1135
2078, 1164, 1133, 1159
2079, 1165, 1161, 1138
2080, 1124,  189,  190
2081, 1137,  208, 1136
2082, 1125, 1120,  188
2083, 1169,  126,  125
2084, 1126,  196,  197
2085, 1154, 1129, 1127
2086, 1127,  195,  196
2087, 1128,  198,  199
2088, 1143,  202, 1142
2089, 1169, 1145,  126
2090, 1129,  194,  195
2091, 1181, 1169, 1171
2092, 1130,  193,  194
2093, 1171,  124, 1131
2094, 1131,  124,  192
2095, 1132,  212,  213
2096, 1157,  213,   10
2097, 1208, 1176, 1177
2098, 1133,  211,  212
2099, 1192, 1163, 1189
2100, 1134,  210,  211
2101, 1221, 1217, 1219
2102, 1135,  209,  210
2103, 1166, 1136, 1160
2104, 1136,  208,  209
2105, 1216, 1208, 1177
2106, 1137,  207,  208
2107, 1199, 1178, 1121
2108, 1138,  206,  207
2109, 1191, 1165, 1188
2110, 1139,  205,  206
2111, 1146,  127, 1145
2112, 1140,  204,  205
2113, 1201, 1128, 1179
2114, 1141,  203,  204
2115, 1204, 1187, 1202
2116, 1142,  202,  203
2117, 1179, 1153,  201
2118, 1143,  201,  202
2119, 1144,  141,  140
2120, 1151, 1144, 1122
2121, 1145,  127,  126
2122, 1184, 1154, 1183
2123, 1168, 1139, 1161
2124, 1146,  128,  127
2125, 1199, 1147, 1173
2126, 1149,  130,  129
2127, 1172, 1146, 1170
2128, 1194, 1161, 1191
2129, 1149, 1147,  130
2130, 1149,  129, 1148
2131, 1150, 1121,  191
2132, 1150,  131, 1147
2133, 1182, 1122, 1123
2134, 1182, 1164, 1151
2135, 1152, 1126,  197
2136, 1204, 1201, 1167
2137, 1153,  200,  201
2138, 1179,  201, 1143
2139, 1155, 1127, 1126
2140, 1202, 1155, 1185
2141, 1185, 1126, 1152
2142, 1162, 1141, 1158
2143, 1195, 1169, 1181
2144, 1156, 1130, 1129
2145, 1157,  142,  141
2146, 1180,  141, 1144
2147, 1158, 1141, 1140
2148, 1168, 1140, 1139
2149, 1159, 1133, 1132
2150, 1180, 1159, 1132
2151, 1163, 1135, 1134
2152, 1177, 1176, 1120
2153, 1161, 1139, 1138
2154, 1199, 1121, 1150
2155, 1207, 1202, 1187
2156, 1162, 1142, 1141
2157, 1164, 1163, 1134
2158, 1189, 1182, 1176
2159, 1164, 1134, 1133
2160, 1164, 1159, 1151
2161, 1166, 1137, 1136
2162, 1166, 1165, 1137
2163, 1221, 1209, 1216
2164, 1209, 1190, 1208
2165, 1167, 1143, 1142
2166, 1167, 1142, 1162
2167, 1174, 1148, 1172
2168, 1168, 1158, 1140
2169, 1171, 1169,  125
2170, 1181, 1131, 1130
2171, 1170, 1146, 1145
2172, 1195, 1145, 1169
2173, 1171,  125,  124
2174, 1181, 1171, 1131
2175, 1193, 1186, 1158
2176, 1172, 1148, 1146
2177, 1173, 1147, 1149
2178, 1174, 1149, 1148
2179, 1223, 1200, 1218
2180, 1222, 1220, 1219
2181, 1175, 1125, 1124
2182, 1178, 1175, 1124
2183, 1176, 1123, 1120
2184, 1177, 1120, 1125
2185, 1208, 1192, 1176
2186, 1177, 1125, 1175
2187, 1178, 1124, 1121
2188, 1212, 1173, 1198
2189, 1179, 1128, 1153
2190, 1179, 1143, 1167
2191, 1180, 1132, 1157
2192, 1180, 1144, 1151
2193, 1181, 1130, 1156
2194, 1203, 1181, 1156
2195, 1182, 1151, 1122
2196, 1182, 1123, 1176
2197, 1183, 1154, 1155
2198, 1223, 1218, 1207
2199, 1213, 1195, 1203
2200, 1184, 1156, 1154
2201, 1185, 1155, 1126
2202, 1201, 1185, 1152
2203, 1193, 1158, 1168
2204, 1225, 1213, 1200
2205, 1187, 1167, 1162
2206, 1187, 1162, 1186
2207, 1188, 1165, 1166
2208, 1190, 1188, 1166
2209, 1189, 1163, 1164
2210, 1189, 1164, 1182
2211, 1190, 1166, 1160
2212, 1192, 1190, 1160
2213, 1198, 1174, 1197
2214, 1191, 1161, 1165
2215, 1192, 1160, 1163
2216, 1192, 1189, 1176
2217, 1194, 1193, 1168
2218, 1197, 1172, 1196
2219, 1194, 1168, 1161
2220, 1221, 1219, 1206
2221, 1203, 1195, 1181
2222, 1195, 1170, 1145
2223, 1196, 1172, 1170
2224, 1213, 1170, 1195
2225, 1210, 1194, 1205
2226, 1197, 1174, 1172
2227, 1224, 1223, 1211
2228, 1198, 1173, 1174
2229, 1199, 1150, 1147
2230, 1212, 1199, 1173
2231, 1218, 1202, 1207
2232, 1224, 1210, 1220
2233, 1201, 1152, 1128
2234, 1201, 1179, 1167
2235, 1202, 1183, 1155
2236, 1204, 1202, 1185
2237, 1203, 1156, 1184
2238, 1213, 1203, 1184
2239, 1204, 1185, 1201
2240, 1204, 1167, 1187
2241, 1205, 1194, 1191
2242, 1206, 1205, 1191
2243, 1206, 1191, 1188
2244, 1217, 1178, 1212
2245, 1207, 1187, 1186
2246, 1211, 1186, 1193
2247, 1216, 1209, 1208
2248, 1208, 1190, 1192
2249, 1209, 1206, 1188
2250, 1209, 1188, 1190
2251, 1215, 1214, 1197
2252, 1210, 1193, 1194
2253, 1225, 1223, 1215
2254, 1211, 1207, 1186
2255, 1212, 1178, 1199
2256, 1222, 1198, 1214
2257, 1213, 1184, 1200
2258, 1213, 1196, 1170
2259, 1214, 1198, 1197
2260, 1215, 1197, 1196
2261, 1225, 1215, 1196
2262, 1224, 1215, 1223
2263, 1216, 1177, 1175
2264, 1217, 1216, 1175
2265, 1217, 1175, 1178
2266, 1222, 1217, 1212
2267, 1218, 1200, 1183
2268, 1218, 1183, 1202
2269, 1222, 1219, 1217
2270, 1219, 1205, 1206
2271, 1220, 1210, 1205
2272, 1220, 1205, 1219
2273, 1221, 1206, 1209
2274, 1221, 1216, 1217
2275, 1222, 1212, 1198
2276, 1222, 1214, 1220
2277, 1223, 1207, 1211
2278, 1224, 1211, 1210
2279, 1224, 1220, 1214
2280, 1224, 1214, 1215
2281, 1225, 1196, 1213
2282, 1225, 1200, 1223
*Orientation, name=Ori-1
1., 0., 0., 0., 1., 0.
3, 0.
** Region: (CompositeLayup-1-1: Generated From Layup)
*Elset, elset=CompositeLayup-1-1, generate
    1,  2282,     1
** Section: CompositeLayup-1-1
*Shell Section, elset=CompositeLayup-1-1, composite, orientation=Ori-1, layup=CompositeLayup-1
0.25, 1, ABQ_PLY_FABRIC, 45., Ply-1
0.25, 1, ABQ_PLY_FABRIC, -45., Ply-2
0.25, 1, ABQ_PLY_FABRIC, -45., Ply-3
0.25, 1, ABQ_PLY_FABRIC, 45., Ply-4
*End Part
**  
**
** ASSEMBLY
**
*Assembly, name=Assembly
**  
*Instance, name=Plate-1, part=PLATE
*End Instance
**  
*Nset, nset=Set-1, instance=Plate-1
   6,   7,  12, 109, 110, 111, 112, 113, 114, 115, 116, 117, 118, 119, 120, 121
 122, 123, 192, 193, 194, 195, 196, 197, 198, 199
*Elset, elset=Set-1, instance=Plate-1
 1005, 1019, 1047, 1115, 1118, 1120, 1122, 1124, 1126, 1128, 1130, 1132, 1134, 1136, 1138, 1140
 2040, 2041, 2050, 2052, 2084, 2086, 2087, 2090, 2092
*Nset, nset=Set-2, instance=Plate-1
   4,   5,  11,  53,  54,  55,  56,  57,  58,  59,  60,  61,  62,  63,  64,  65
  66,  67, 170, 171, 172, 173, 174, 175, 176, 177
*Elset, elset=Set-2, instance=Plate-1
   22,   44,   50,   51,   58,  150,  153,  155,  157,  159,  161,  163,  309,  310,  326,  330
 1522, 1549, 1552, 1646, 1650, 1652, 1654, 1656, 1657
*End Assembly
*Amplitude, name=Ramp, time=TOTAL TIME
             0.,              0.,            0.01,              1.
** 
** MATERIALS
** 
*Material, name=ABQ_PLY_FABRIC
*Density
 1.594e-09,
*Depvar, delete=16
     16,
*User Material, constants=40
27500., 27500.,   0.11,  2900., 27500., 27500.,   0.11,     0.
   604.,   291.,   604.,   291.,    75.,     0.,     0.,     0.
 20.438, 4.6257, 20.438, 4.6257, 0.3221,     1.,     0.,     0.
    75., 0.0008,  0.552,     0.,     0.,     0.,     0.,     0.
     0.,     1.,  1e+09,  1e+09, -1e+09,     0.,     0.,     0.
** ----------------------------------------------------------------
** 
** STEP: Step-1
** 
*Step, name=Step-1, nlgeom=NO
*Dynamic, Explicit
, 0.01
*Bulk Viscosity
0.06, 1.2
** 
** BOUNDARY CONDITIONS
** 
** Name: BC-1 Type: Symmetry/Antisymmetry/Encastre
*Boundary
Set-1, ENCASTRE
** Name: BC-2 Type: Displacement/Rotation
*Boundary, amplitude=Ramp
Set-2, 1, 1, 1.21053
** 
** OUTPUT REQUESTS
** 
*Restart, write, number interval=1, time marks=NO
** 
** FIELD OUTPUT: F-Output-1
** 
*Output, field, number interval=1
*Element Output, position=NODES, directions=YES
LE, PEEQ, SDV
** 
** HISTORY OUTPUT: H-Output-1
** 
*Output, history, variable=PRESELECT
*End Step
